time zIndex S11 S22 S12 block gridPoints
f i f f f i l
 5.0000e-001 65564  1.7507e-001  1.8752e+000  1.4525e-001 65155 65414,65466,65440
 5.0000e-001 65541 -1.2004e-001  1.6011e-001 -2.3928e-002 65155 65414,65492,65466
 5.0000e-001 65518  8.5843e-003  2.3961e-001 -8.9328e-002 65155 65388,65492,65414
 5.0000e-001 65883 -1.0658e-001  8.4396e-001 -6.3039e-002 64957 65635,65739,65713
 5.0000e-001 65860 -1.1394e-001  1.0522e+000 -2.5679e-002 64957 65635,65765,65739
 5.0000e-001 65837  3.1461e-002  1.0364e+000  1.1339e-001 64957 65609,65765,65635
 5.0000e-001 65814 -1.9714e-001  7.1063e-001 -2.4152e-001 64957 65635,65713,65687
 5.0000e-001 65791  4.8161e-002  7.5498e-001 -2.4128e-001 64957 65635,65687,65661
 5.0000e-001 65984 -1.0922e-001  6.4175e-002  1.2581e-001 64781 65906,65958,65932
 5.0000e-001 66232  6.9474e-002  1.2078e-001 -5.1969e-002 64469 66007,66059,66033
 5.0000e-001 66209 -1.7012e-001  7.6288e-003 -1.1607e-001 64469 66007,66085,66059
 5.0000e-001 66186 -1.3251e-001  1.4025e-001  7.8429e-002 64469 66007,66137,66085
 5.0000e-001 66163 -3.5034e-001 -1.6383e-001 -1.5301e-001 64469 66085,66137,66111
 5.0000e-001 66504 -1.0498e-001  1.1070e+000 -1.0042e-001 64271 66279,66383,66305
 5.0000e-001 66481 -2.2213e-003  1.1062e+000 -1.6294e-001 64271 66279,66409,66383
 5.0000e-001 66458 -5.1270e-001  2.0270e+000 -2.0320e-001 64271 66305,66357,66331
 5.0000e-001 66435  2.8154e-001  1.7504e+000 -2.6886e-001 64271 66305,66383,66357
 5.0000e-001 66705 -1.3329e-001  6.4654e-001 -2.5259e-002 64073 66728,66581,66555
 5.0000e-001 66682 -1.5544e-001  6.8540e-001 -1.8814e-002 64073 66728,66555,66529
 5.0000e-001 66659 -4.3380e-001  8.2360e-001  3.6296e-001 64073 66581,66633,66607
 5.0000e-001 66754 -1.3734e-001  6.8020e-001 -3.8746e-002 64073 66633,66581,66728
 5.0000e-001 66777 -1.4051e-001  7.3733e-001 -4.0522e-002 64073 66633,66728,66529
 5.0000e-001 66951  8.7542e-002 -8.9545e-002  1.0413e-001 63783 66824,66876,66850
 5.0000e-001 66928 -2.6242e-001  2.0310e-001 -2.7020e-002 63783 66824,66902,66876
 5.0000e-001 67201  3.5377e-001  9.7399e-001 -1.2933e-001 63585 66976,67080,67054
 5.0000e-001 67178  9.7501e-002  8.5913e-001 -7.8601e-002 63585 66976,67106,67080
 5.0000e-001 67155  2.7015e-001  6.1222e-001 -1.0751e-001 63585 66976,67054,67028
 5.0000e-001 67132  3.7283e-001  7.5092e-001  1.7888e-001 63585 66976,67028,67002
 5.0000e-001 67654 -1.4127e-001  1.8146e+000 -1.5532e-001 63295 67357,67487,67383
 5.0000e-001 67631 -4.0105e-001  1.8516e+000 -6.1104e-001 63295 67331,67487,67357
 5.0000e-001 67608  8.3648e-002  2.5375e+000 -4.7402e-002 63295 67331,67513,67487
 5.0000e-001 67585 -3.4099e-002  2.8500e+000 -9.6365e-002 63295 67435,67487,67461
 5.0000e-001 67562  5.2028e-002  2.8688e+000 -8.3504e-002 63295 67383,67487,67435
 5.0000e-001 67539 -1.6424e-001  2.6265e+000 -1.7634e-001 63295 67383,67435,67409
 5.0000e-001 67853 -1.0052e-001  1.4069e+000 -7.4253e-002 62891 67876,67703,67677
 5.0000e-001 67830  1.7225e-001  1.7812e+000 -2.0816e-001 62891 67876,67677,67781
 5.0000e-001 67807  8.4957e-002  1.2748e+000 -2.1168e-001 62891 67948,67729,67703
 5.0000e-001 67902  1.4661e-001  1.4110e+000 -3.0228e-001 62891 67948,67703,67876
 5.0000e-001 67925  5.6003e-001  1.5094e+000 -4.2951e-001 62891 67755,67876,67781
 5.0000e-001 67974  2.0245e-001  1.0959e+000 -2.0554e-001 62891 67755,67729,67948
 5.0000e-001 67997  1.8717e-001  1.1657e+000 -2.7569e-001 62891 67755,67948,67876
 5.0000e-001 68218 -5.9898e-002 -7.0068e-002  1.7560e-002 62693 68042,68120,68068
 5.0000e-001 68195  6.0963e-002 -5.8555e-002 -6.8524e-002 62693 68042,68146,68120
 5.0000e-001 68172  3.7435e-001 -3.6971e-002 -9.5801e-002 62693 68068,68120,68094
 5.0000e-001 68468  1.0672e+000  1.0943e+000  2.4795e-001 62289 68491,68295,68269
 5.0000e-001 68445  2.6589e-001  7.9931e-001  1.6839e-001 62289 68563,68491,68269
 5.0000e-001 68422 -9.3944e-002  5.3501e-001  4.1715e-002 62289 68563,68269,68243
 5.0000e-001 68399  4.6557e-001  1.0920e+000 -3.4413e-001 62289 68295,68347,68321
 5.0000e-001 68517  4.4924e-001  1.2372e+000 -2.3152e-001 62289 68347,68295,68491
 5.0000e-001 68540  2.0807e-001  9.0755e-001 -4.5481e-002 62289 68347,68491,68373
 5.0000e-001 68589  4.9822e-001  3.1927e-001 -1.3264e-001 62289 68373,68491,68563
 5.0000e-001 68612  3.2818e-001  2.0016e-001 -2.1243e-001 62289 68373,68563,68243
 5.0000e-001 68911  6.0791e-002  2.3066e+000 -4.1542e-001 62091 69222,68934,68741
 5.0000e-001 68888 -3.2577e-001  2.0234e+000 -4.4922e-001 62091 69006,68934,68689
 5.0000e-001 68865 -5.8674e-001  1.6050e+000 -6.2789e-001 62091 69006,68689,68663
 5.0000e-001 68842  3.7889e-001  2.2605e+000  1.1785e-001 62091 69078,68793,68767
 5.0000e-001 68819  6.3554e-002  2.3725e+000 -9.6310e-001 62091 69222,68741,68715
 5.0000e-001 68960  4.5803e-001  2.2393e+000 -4.2934e-001 62091 68767,68741,68934
 5.0000e-001 68983  1.0504e-001  2.4320e+000 -2.5517e-001 62091 69078,68767,68934
 5.0000e-001 69032 -3.0518e-001  2.0365e+000 -3.2444e-001 62091 69150,69006,68637
 5.0000e-001 69055 -2.8813e-001  2.0286e+000 -3.8230e-001 62091 68637,69006,68663
 5.0000e-001 69104  3.3682e-002  1.4543e+000 -1.2579e-001 62091 68637,68793,69078
 5.0000e-001 69127 -2.6830e-001  1.9999e+000 -3.4484e-001 62091 69150,68637,69078
 5.0000e-001 69176 -1.9664e-001  1.9401e+000 -2.9901e-001 62091 68934,69006,69150
 5.0000e-001 69199 -6.8529e-002  1.9976e+000 -3.5424e-001 62091 68934,69150,69078
 5.0000e-001 69248 -1.7959e-001  1.6443e+000 -5.1784e-001 62091 68689,68934,69222
 5.0000e-001 69271 -1.0136e-001  1.4754e+000 -8.8916e-001 62091 68689,69222,68715
 5.0000e-001 69521 -3.3992e-001  8.8241e-002 -4.9087e-002 61893 69544,69348,69296
 5.0000e-001 69498 -1.8051e-001  1.4686e-001 -5.2574e-002 61893 69544,69296,69400
 5.0000e-001 69475 -1.2863e-001  1.0144e-002 -1.6827e-001 61893 69296,69426,69400
 5.0000e-001 69452 -7.0997e-002  1.1130e+000 -7.9749e-002 61893 69296,69348,69322
 5.0000e-001 69570 -2.6208e-001 -3.0101e-002  8.6730e-002 61893 69374,69348,69544
 5.0000e-001 69593  2.7931e-002  9.4340e-002  6.9122e-002 61893 69374,69544,69400
 5.0000e-001 70046 -3.6974e-001  1.6839e+000 -2.4732e-002 61467 69749,69905,69879
 5.0000e-001 70023 -4.8618e-001  1.3190e+000 -4.3527e-001 61467 69723,69905,69749
 5.0000e-001 70000 -6.9692e-001  1.7539e+000 -1.0917e-001 61467 70069,69827,69775
 5.0000e-001 69977 -4.5518e-002  2.6188e+000 -4.3781e-001 61467 70069,69775,69749
 5.0000e-001 69954 -3.0319e-001  1.2570e+000  2.6160e-002 61467 70141,69853,69827
 5.0000e-001 69931 -7.8184e-001  2.5506e+000  7.9886e-001 61467 69775,69827,69801
 5.0000e-001 70095 -4.1073e-001  1.3728e+000  1.0370e-001 61467 70141,69827,70069
 5.0000e-001 70118 -3.7532e-001  1.6933e+000 -2.4887e-002 61467 69879,70069,69749
 5.0000e-001 70167 -3.5186e-001  1.4255e+000  1.2209e-002 61467 69879,69853,70141
 5.0000e-001 70190 -3.4273e-001  1.6981e+000  8.4079e-002 61467 69879,70141,70069
 5.0000e-001 70291  1.2635e-001  3.5399e+000  4.1035e-001 61013 70213,70265,70239
 5.0000e-001 70441 -3.6546e-001  1.0557e+000 -1.8492e-001 60651 70340,70392,70366
 5.0000e-001 70418 -2.6991e-001  2.5384e-001  1.0924e-001 60651 70314,70392,70340
 5.0000e-001 70642 -9.3942e-002  1.0354e+000  7.2498e-002 60311 70665,70492,70466
 5.0000e-001 70619  4.4109e-002  1.3602e+000  7.0437e-002 60311 70665,70466,70570
 5.0000e-001 70596 -9.0118e-002  6.9722e-001 -2.6160e-001 60311 70492,70544,70518
 5.0000e-001 70691 -2.3107e-002  7.1861e-001 -2.6977e-001 60311 70544,70492,70665
 5.0000e-001 70714  1.9187e-001  1.2185e+000 -2.8204e-001 60311 70544,70665,70570
 5.0000e-001 70964 -3.0628e-001  1.1401e+000 -8.1213e-002 59907 70987,70765,70739
 5.0000e-001 70941 -1.3237e-001  1.5307e+000 -2.0820e-001 59907 71059,70987,70739
 5.0000e-001 70918 -1.8350e-001  1.8558e+000 -1.9994e-001 59907 71059,70739,70869
 5.0000e-001 70895 -2.8117e-001  1.6253e+000 -2.2306e-001 59907 70817,70869,70843
 5.0000e-001 71013 -1.7884e-001  1.1452e+000 -4.4352e-001 59907 70791,70765,70987
 5.0000e-001 71036 -1.8305e-001  1.5617e+000 -4.6016e-001 59907 70791,70987,70817
 5.0000e-001 71085 -2.0695e-001  1.2993e+000 -2.8211e-001 59907 70817,70987,71059
 5.0000e-001 71108 -3.1992e-001  1.4963e+000 -2.4388e-001 59907 70817,71059,70869
 5.0000e-001 71441  8.7154e-002  1.1194e+000 -2.5358e-001 59417 71464,71242,71216
 5.0000e-001 71418  5.1313e-002  8.2064e-001  2.0576e-001 59417 71464,71216,71320
 5.0000e-001 71395 -2.0069e-001  3.2255e-001  3.2122e-001 59417 71216,71346,71320
 5.0000e-001 71372 -1.5592e+000  1.1973e+000  7.4917e-001 59417 71268,71320,71294
 5.0000e-001 71490 -1.3847e-001  9.7425e-001  1.3341e-001 59417 71268,71242,71464
 5.0000e-001 71513 -6.4744e-001  2.8309e-001  6.5474e-001 59417 71268,71464,71320
 5.0000e-001 71712  1.7689e-001  9.4809e-001 -3.2044e-001 58913 71562,71614,71588
 5.0000e-001 71689  8.0508e-001  1.0635e+000 -3.9172e-001 58913 71536,71614,71562
 5.0000e-001 71666  4.3025e-001  8.5842e-001 -3.0449e-001 58913 71536,71640,71614
 5.0000e-001 72171  6.8162e-001  5.7758e-001 -8.1966e-001 58409 72194,72027,72001
 5.0000e-001 72148  5.9415e-002  1.1417e-001 -3.4836e-001 58409 72194,72001,71949
 5.0000e-001 72125 -3.3660e-001 -1.8182e-001  7.4868e-003 58409 71923,72053,71949
 5.0000e-001 72102  3.2202e-001  2.8895e-001 -4.5575e-001 58409 71949,72001,71975
 5.0000e-001 72079 -2.7346e-001 -3.8506e-002  1.3469e-001 58409 71897,72053,71923
 5.0000e-001 72220 -7.4739e-002  4.0114e-001 -5.1129e-001 58409 72053,72027,72194
 5.0000e-001 72243 -3.7337e-001  3.7719e-001 -1.3248e-001 58409 72053,72194,71949
 5.0000e-001 72491 -1.0097e+000 -4.1011e-002 -4.2723e-001 57855 72514,72318,72292
 5.0000e-001 72468  4.1037e-001  5.2124e-001 -4.5626e-001 57855 72514,72292,72266
 5.0000e-001 72445 -7.0710e-001  2.5599e-001  1.4744e-001 57855 72318,72396,72370
 5.0000e-001 72422 -1.7814e+000  4.9912e-001 -4.0211e-001 57855 72318,72370,72344
 5.0000e-001 72540 -1.1415e+000  1.8438e-001 -2.1442e-001 57855 72396,72318,72514
 5.0000e-001 72563 -1.0072e+000  2.0637e-001 -2.1875e-001 57855 72396,72514,72266
 5.0000e-001 72811  5.8511e-001  8.0001e-001 -5.5801e-001 57401 72612,72690,72638
 5.0000e-001 72788  3.0250e-001  6.8812e-001 -2.3822e-001 57401 72586,72690,72612
 5.0000e-001 72765 -4.9518e-001  9.8620e-002 -8.6022e-001 57401 72638,72690,72664
 5.0000e-001 72742  1.4683e-001  1.3195e+000 -3.6763e-001 57401 72586,72716,72690
 5.0000e-001 73144  4.4022e-001  1.5767e+000 -4.6430e-001 57004 72919,72997,72945
 5.0000e-001 73121  5.4191e-001  2.3624e+000 -6.7938e-001 57004 72919,73049,72997
 5.0000e-001 73098  7.6658e-001  1.9922e+000 -6.9734e-001 57004 72945,72997,72971
 5.0000e-001 73075  6.5015e-001  3.1613e+000 -1.0824e+000 57004 72997,73049,73023
 5.0000e-001 73650  8.0673e-002 -1.1970e-001  4.7800e-002 56592 73673,73379,73353
 5.0000e-001 73627  5.1971e-001  1.4986e-001  1.8446e-001 56592 73673,73353,73327
 5.0000e-001 73604  5.4182e-001  7.3713e-002  4.2744e-001 56592 73745,73509,73483
 5.0000e-001 73581  3.4209e-001  1.8381e-001  7.5811e-002 56592 73379,73457,73405
 5.0000e-001 73558  7.6907e-001  2.4318e-001  3.1350e-001 56592 73379,73483,73457
 5.0000e-001 73535  1.4038e+000  2.0709e-001  8.1305e-003 56592 73405,73457,73431
 5.0000e-001 73699  2.8173e-001  1.9482e-001  2.5615e-001 56592 73483,73379,73673
 5.0000e-001 73722  4.3480e-001  2.2592e-001  3.8056e-001 56592 73745,73483,73673
 5.0000e-001 73771  4.4305e-001 -6.9823e-002  3.8231e-001 56592 73327,73509,73745
 5.0000e-001 73794  2.8738e-001  3.3463e-002  3.1611e-001 56592 73327,73745,73673
 5.0000e-001 74123  5.4977e-001  5.5916e-001  2.0212e-001 56152 74146,74002,73924
 5.0000e-001 74100  2.7068e-001  5.3273e-001  1.1262e-001 56152 74146,73924,73898
 5.0000e-001 74077  5.1487e-001  1.9557e-001  3.1839e-001 56152 73924,74002,73976
 5.0000e-001 74054  7.6980e-001  8.0132e-001  6.1887e-001 56152 73924,73976,73950
 5.0000e-001 74172  8.6640e-001  3.7681e-001  9.3478e-003 56152 74028,74002,74146
 5.0000e-001 74195  4.3001e-001  3.8735e-001 -6.7563e-002 56152 74028,74146,73898
 5.0000e-001 74345 -3.8198e-002  1.3819e-001 -1.0676e-001 55634 74218,74270,74244
 5.0000e-001 74322  1.9032e-001 -1.1433e-001 -1.2943e-001 55634 74218,74296,74270
 5.0000e-001 74823 -8.2648e-001 -6.5206e-001  4.1990e-001 55016 74918,74846,74581
 5.0000e-001 74800 -1.0799e+000 -4.1002e-001  3.2147e-001 55016 74846,74477,74633
 5.0000e-001 74777 -1.1122e+000 -1.1415e+000  5.8937e-001 55016 74918,74581,74555
 5.0000e-001 74754 -1.3608e+000 -7.8657e-001  8.6472e-001 55016 74990,74503,74477
 5.0000e-001 74731 -2.2128e+000 -5.8137e-001  7.3187e-001 55016 74451,74633,74477
 5.0000e-001 74708 -1.5479e+000 -1.0925e-002  4.8741e-001 55016 74451,74659,74633
 5.0000e-001 74685 -1.4758e+000 -1.3210e+000  1.4453e+000 55016 74503,74555,74529
 5.0000e-001 74872 -6.3570e-001 -3.9860e-001  1.1690e-001 55016 74607,74581,74846
 5.0000e-001 74895 -1.2246e+000 -6.9575e-001  2.5876e-001 55016 74607,74846,74633
 5.0000e-001 74944 -1.4544e+000 -7.3548e-001  4.5940e-001 55016 74477,74846,74918
 5.0000e-001 74967 -1.5461e+000 -7.4722e-001  5.7994e-001 55016 74990,74477,74918
 5.0000e-001 75016 -7.1447e-001 -4.9833e-001  1.0361e+000 55016 74555,74503,74990
 5.0000e-001 75039 -9.3537e-001 -5.6215e-001  7.0791e-001 55016 74555,74990,74918
 5.0000e-001 75287 -4.9220e-001 -7.1078e-001 -2.1758e-001 54726 75310,75140,75114
 5.0000e-001 75264 -5.8165e-001 -2.2594e-001 -2.8428e-001 54726 75310,75114,75088
 5.0000e-001 75241 -9.5548e-001 -9.9574e-002 -8.3579e-001 54726 75088,75192,75166
 5.0000e-001 75218 -1.4652e+000  3.9285e-001 -7.8496e-001 54726 75062,75192,75088
 5.0000e-001 75336 -4.7211e-001 -4.8326e-001 -5.7388e-001 54726 75166,75140,75310
 5.0000e-001 75359 -6.2914e-001  1.0129e-001 -5.0559e-001 54726 75166,75310,75088
 5.0000e-001 75946  1.8438e-001  6.7694e-001 -7.6862e-002 54322 75969,75701,75649
 5.0000e-001 75923 -7.9277e-001  5.4534e-002  1.8994e-001 54322 75969,75649,75623
 5.0000e-001 75900 -4.2635e-001  4.1753e-001 -4.0704e-001 54322 76041,75753,75701
 5.0000e-001 75877  2.0486e-001  1.8117e+000 -4.0718e-001 54322 75623,75805,75779
 5.0000e-001 75854 -5.1754e-001  5.8357e-001 -9.2332e-001 54322 75701,75753,75727
 5.0000e-001 75831  9.1426e-002  4.8101e-001 -3.5034e-002 54322 75649,75701,75675
 5.0000e-001 75995 -4.8114e-001  5.1163e-001 -3.0051e-001 54322 76041,75701,75969
 5.0000e-001 76018 -5.0069e-001  8.1849e-001 -8.1312e-002 54322 75779,75969,75623
 5.0000e-001 76067 -5.5635e-001  6.7827e-001 -4.0974e-001 54322 75779,75753,76041
 5.0000e-001 76090 -4.9897e-001  8.8369e-001 -2.7928e-001 54322 75779,76041,75969
 5.0000e-001 76468 -6.1686e-001  6.4442e-001  1.0628e-001 53868 76491,76272,76220
 5.0000e-001 76445 -8.4571e-001  7.3572e-001 -6.2422e-002 53868 76491,76220,76324
 5.0000e-001 76422 -4.7684e-001  1.4883e+000  1.1792e-001 53868 76220,76272,76246
 5.0000e-001 76399 -1.2366e+000  7.4743e-001 -4.7250e-002 53868 76194,76324,76220
 5.0000e-001 76376 -1.9552e+000  4.7801e-001 -4.2120e-001 53868 76194,76350,76324
 5.0000e-001 76517 -7.5803e-001  4.7308e-001 -2.2736e-003 53868 76298,76272,76491
 5.0000e-001 76540 -9.7560e-001  6.0991e-001 -1.6063e-001 53868 76298,76491,76324
 5.0000e-001 76690 -4.5747e-001  1.0939e+000 -2.0341e-001 53356 76589,76641,76615
 5.0000e-001 76667  1.0571e-003  1.4531e+000 -4.8467e-003 53356 76563,76641,76589
 5.0000e-001 76938 -1.7439e-001  8.5920e-001 -6.9741e-001 53009 77105,76961,76765
 5.0000e-001 76915 -2.2378e-002  8.9429e-001 -5.4849e-001 53009 76961,76713,76843
 5.0000e-001 76892 -2.8421e-001  8.6950e-001 -5.8236e-001 53009 77033,76817,76791
 5.0000e-001 76869 -4.6458e-001  7.3748e-001 -1.0166e+000 53009 77105,76765,76739
 5.0000e-001 76987 -6.9277e-002  1.3616e+000 -5.9545e-001 53009 76791,76765,76961
 5.0000e-001 77010 -2.1697e-001  9.9243e-001 -5.2676e-001 53009 77033,76791,76961
 5.0000e-001 77059 -3.5302e-001  8.6892e-001 -7.0447e-001 53009 76843,76817,77033
 5.0000e-001 77082 -3.1609e-001  9.1374e-001 -6.5502e-001 53009 76843,77033,76961
 5.0000e-001 77131  2.0600e-001  1.0452e+000 -6.3588e-001 53009 76713,76961,77105
 5.0000e-001 77154  1.6605e-001  1.0544e+000 -9.0673e-001 53009 76713,77105,76739
 5.0000e-001 77355  8.9997e-001 -5.1725e-001  3.8370e-001 52390 77378,77257,77231
 5.0000e-001 77332  8.0960e-001  1.0003e-002  2.8572e-001 52390 77378,77231,77179
 5.0000e-001 77309  7.9042e-001 -2.8008e-001  1.3936e-001 52390 77179,77231,77205
 5.0000e-001 77404  8.2203e-001 -9.9849e-002  1.2820e-001 52390 77283,77257,77378
 5.0000e-001 77427  8.2338e-001  5.9418e-001  6.7843e-002 52390 77283,77378,77179
 5.0000e-001 77677 -6.5661e-002  1.6276e+000 -9.4189e-001 51986 77700,77504,77478
 5.0000e-001 77654  5.0514e-001  1.9272e+000 -1.0557e+000 51986 77700,77478,77452
 5.0000e-001 77631  3.6613e-001  1.3372e+000 -5.6302e-001 51986 77772,77556,77530
 5.0000e-001 77608  7.5577e-003  1.5130e+000 -6.2195e-001 51986 77452,77582,77556
 5.0000e-001 77726  3.3835e-001  1.7022e+000 -6.4965e-001 51986 77530,77504,77700
 5.0000e-001 77749  4.4997e-001  1.5070e+000 -6.5710e-001 51986 77772,77530,77700
 5.0000e-001 77798  5.0101e-001  1.4310e+000 -7.1555e-001 51986 77452,77556,77772
 5.0000e-001 77821  5.7383e-001  1.4749e+000 -7.9629e-001 51986 77452,77772,77700
 5.0000e-001 78282  7.8920e-002  4.5356e-003 -2.5035e-004 51738 78008,78138,78060
 5.0000e-001 78259  6.6305e-002 -5.9930e-003  1.4296e-002 51738 78008,78164,78138
 5.0000e-001 78236  4.0893e-005 -1.4890e-002 -1.2546e-002 51738 78086,78138,78112
 5.0000e-001 78213  5.4625e-003 -5.9460e-003 -9.9606e-003 51738 78060,78138,78086
 5.0000e-001 78190  1.3014e-001  8.6585e-002 -2.2156e-002 51738 78008,78060,78034
 5.0000e-001 78432 -1.0705e+000  5.9799e-002 -3.9653e-002 51148 78305,78357,78331
 5.0000e-001 78409 -8.6300e-001  3.8819e-003 -8.7455e-002 51148 78305,78383,78357
 5.0000e-001 78891  1.6020e-001  3.0939e-001 -2.3814e-001 50808 78914,78695,78669
 5.0000e-001 78868  2.2192e-001  4.6620e-001 -2.1031e-001 50808 78914,78669,78643
 5.0000e-001 78845  1.4392e-001  2.2013e-001 -5.3682e-001 50808 78643,78773,78747
 5.0000e-001 78822  7.3035e-001  3.8916e-001 -2.6174e-001 50808 78617,78773,78643
 5.0000e-001 78799  2.2697e-001  7.1213e-001 -3.8593e-001 50808 78695,78747,78721
 5.0000e-001 78940  8.4625e-002  4.1237e-001 -3.4540e-001 50808 78747,78695,78914
 5.0000e-001 78963  1.5145e-001  5.0231e-001 -3.1433e-001 50808 78747,78914,78643
 5.0000e-001 79260 -1.3846e+000  2.6724e-001 -6.0207e-001 50468 79283,79090,79012
 5.0000e-001 79237 -1.1904e+000 -3.4030e-002 -5.8854e-001 50468 79283,79012,78986
 5.0000e-001 79214 -1.8444e+000  5.0149e-002 -8.2826e-001 50468 79012,79090,79038
 5.0000e-001 79191 -1.1751e+000 -8.6369e-002 -7.9223e-001 50468 78986,79142,79116
 5.0000e-001 79168 -1.9982e+000  2.4043e-001 -5.5124e-001 50468 79038,79090,79064
 5.0000e-001 79309 -1.4502e+000  9.5065e-002 -5.2877e-001 50468 79116,79090,79283
 5.0000e-001 79332 -1.2645e+000 -2.3316e-001 -5.2657e-001 50468 79116,79283,78986
 5.0000e-001 79889  5.9089e-001  1.7322e+000 -4.0214e-001 50064 79569,79725,79699
 5.0000e-001 79866  6.7866e-002  1.7509e+000 -8.1712e-001 50064 79543,79725,79569
 5.0000e-001 79843  9.8557e-001  1.2396e+000  7.5083e-001 50064 79621,79699,79673
 5.0000e-001 79820  7.6757e-001  6.7920e-001  6.1028e-002 50064 79595,79699,79621
 5.0000e-001 79797 -5.9195e-001  1.2479e+000 -4.3666e-001 50064 79569,79699,79595
 5.0000e-001 79774 -2.3088e-001  1.6924e+000 -7.8200e-001 50064 79517,79725,79543
 5.0000e-001 79751  4.4147e+000 -3.9295e-001  6.5679e-001 50064 79621,79673,79647
 5.0000e-001 80169  9.5409e-001  1.2789e+000 -3.8963e-001 49724 80019,80097,80071
 5.0000e-001 80146  6.9951e-001  2.2681e+000 -6.5069e-001 49724 79993,80097,80019
 5.0000e-001 80123  8.7489e-001  1.4801e+000 -1.0019e+000 49724 80019,80071,80045
 5.0000e-001 80626 -6.1629e-001 -3.2982e-002 -3.1052e-001 49277 80352,80482,80378
 5.0000e-001 80603 -7.5808e-001 -1.2875e-001 -1.0145e-001 49277 80352,80508,80482
 5.0000e-001 80580 -1.2278e+000  2.2002e-001 -4.0288e-001 49277 80378,80482,80456
 5.0000e-001 80557 -7.9752e-002 -3.5944e-001 -6.2243e-001 49277 80378,80430,80404
 5.0000e-001 80534 -2.1492e+000 -1.1636e-001 -1.5728e-001 49277 80378,80456,80430
 5.0000e-001 81230 -6.0232e-002 -1.8137e-001  1.9830e-001 48716 81253,80835,80809
 5.0000e-001 81207  5.0708e-002  1.3174e-001  2.8548e-001 48716 81397,81253,80809
 5.0000e-001 81184 -2.8605e-001  5.8444e-001 -1.7254e-001 48716 81325,80913,80887
 5.0000e-001 81161 -3.6388e-001 -7.4535e-002  4.1204e-001 48716 81397,80809,81017
 5.0000e-001 81138 -6.5856e-001  3.0454e-001 -2.7435e-001 48716 81469,80965,80913
 5.0000e-001 81115 -2.1305e-001 -2.5483e-002  1.9133e-001 48716 80835,80887,80861
 5.0000e-001 81092  1.4149e-002 -4.9898e-001  1.3497e+000 48716 80809,81043,81017
 5.0000e-001 81069 -4.6734e-001 -2.2445e-001 -6.7425e-001 48716 80913,80965,80939
 5.0000e-001 81279  1.7849e-001  1.3591e-001 -5.6069e-002 48716 80887,80835,81253
 5.0000e-001 81302 -4.6206e-001  4.7580e-001 -2.7326e-001 48716 81325,80887,81253
 5.0000e-001 81351 -3.5791e-001  3.9908e-001 -1.5291e-001 48716 81469,80913,81325
 5.0000e-001 81374 -4.7368e-001  1.0062e+000 -9.5888e-002 48716 80991,81325,81253
 5.0000e-001 81423 -6.5685e-001  6.1915e-001  4.2064e-001 48716 80991,81253,81397
 5.0000e-001 81446 -1.1670e+000  2.9342e-001  5.9811e-001 48716 80991,81397,81017
 5.0000e-001 81495 -1.2057e+000  5.6697e-001 -3.8690e-001 48716 80991,80965,81469
 5.0000e-001 81518 -9.7692e-001  5.9015e-001 -2.8157e-001 48716 80991,81469,81325
 5.0000e-001 81717 -3.8157e-001  7.2525e-001 -5.8180e-002 48262 81740,81567,81541
 5.0000e-001 81694 -1.3745e-001  8.1289e-001 -5.8221e-002 48262 81740,81541,81645
 5.0000e-001 81671 -3.5060e-001  4.4229e-001  1.5949e-002 48262 81567,81619,81593
 5.0000e-001 81766 -2.3761e-001  6.5704e-001  1.0178e-001 48262 81619,81567,81740
 5.0000e-001 81789  2.1893e-003  7.5006e-001  1.1430e-001 48262 81619,81740,81645
 5.0000e-001 81939  2.3373e-001  2.6239e+000 -3.0034e-001 47957 82034,81962,81864
 5.0000e-001 81916  3.7714e-001  1.6744e+000 -4.6803e-001 47957 82166,81962,81838
 5.0000e-001 81988 -3.4854e-001  1.6481e+000 -1.7277e-001 47957 82294,81962,81890
 5.0000e-001 82011  9.3016e-002  2.1186e+000  8.6950e-002 47957 81890,81962,81812
 5.0000e-001 82060  1.1648e-001  2.0311e+000 -4.8933e-001 47957 81838,81962,82034
 5.0000e-001 82192 -2.7732e-002  1.5641e+000  1.8836e-001 47957 81812,81962,82166
 5.0000e-001 82320  9.2597e-001  2.3205e+000  7.4147e-002 47957 81864,81962,82294
 5.0000e-001 82549 -8.5785e-001  9.0837e-001 -8.8998e-002 47617 82448,82500,82474
 5.0000e-001 82526 -7.5611e-001  1.8675e+000 -1.0737e-001 47617 82422,82500,82448
 5.0000e-001 82902  1.4172e-001  1.3090e-001 -4.8563e-002 47255 82729,82807,82755
 5.0000e-001 82879  2.2841e-001  2.2873e-001 -6.9301e-003 47255 82703,82807,82729
 5.0000e-001 82856  1.8639e-001  2.3604e-001 -5.6780e-002 47255 82755,82807,82781
 5.0000e-001 82833  2.1197e-001  2.2168e-001 -8.5850e-003 47255 82677,82807,82703
 5.0000e-001 83182  2.8117e-001  3.6035e-001  4.4080e-002 46680 83032,83084,83058
 5.0000e-001 83159  8.2319e-001  8.5265e-002  4.5972e-001 46680 83205,83084,83032
 5.0000e-001 83136 -2.0665e-001  4.3360e-001 -3.5918e-002 46680 83006,83110,83084
 5.0000e-001 83231  1.0129e+000  1.2677e-001  4.5527e-001 46680 83006,83084,83205
 5.0000e-001 83737 -8.5126e-001  1.7028e-002 -3.0213e-001 46290 83832,83760,83492
 5.0000e-001 83714 -2.4027e-001  2.4418e-001 -3.0204e-001 46290 83760,83440,83414
 5.0000e-001 83691 -4.4021e-001 -2.5418e-001 -3.7526e-001 46290 83832,83492,83466
 5.0000e-001 83668 -2.7842e-001  4.5969e-001  6.9380e-001 46290 83492,83570,83544
 5.0000e-001 83645 -7.4242e-001  2.9835e-001  8.2540e-002 46290 83414,83596,83570
 5.0000e-001 83622 -1.5420e+000  9.0255e-001  1.2624e+000 46290 83492,83544,83518
 5.0000e-001 83786 -1.2422e+000  1.2525e-001  1.5916e-001 46290 83570,83492,83760
 5.0000e-001 83809 -5.0808e-001  3.4384e-001  8.5921e-002 46290 83570,83760,83414
 5.0000e-001 83858 -2.9778e-001  1.4805e-001 -2.0506e-001 46290 83440,83760,83832
 5.0000e-001 83881  6.0885e-001  1.9269e-001 -4.4711e-001 46290 83440,83832,83466
 5.0000e-001 84161  1.5209e+000  1.3829e-001 -4.4827e-001 45829 84011,84063,84037
 5.0000e-001 84138 -1.1939e-001 -3.8790e-001 -4.4358e-001 45829 84011,84089,84063
 5.0000e-001 84115  9.4897e-001  6.7576e-002 -4.8600e-001 45829 83985,84089,84011
 5.0000e-001 84311  4.4989e-001  7.2002e-001  2.4863e-001 45631 84184,84236,84210
 5.0000e-001 84288  5.0187e-001  4.5634e-001 -1.7820e-002 45631 84184,84262,84236
 5.0000e-001 84657 -7.4939e-001  1.7437e+000 -2.9986e-001 45155 84680,84490,84412
 5.0000e-001 84634 -4.4158e-001  1.5649e+000 -3.6131e-001 45155 84680,84412,84360
 5.0000e-001 84611 -6.0775e-001  1.7723e+000 -2.1418e-001 45155 84412,84490,84438
 5.0000e-001 84588 -3.1878e-001  1.5099e+000 -2.4227e-001 45155 84334,84516,84360
 5.0000e-001 84565 -2.4338e-001  2.0947e+000 -1.1674e+000 45155 84360,84412,84386
 5.0000e-001 84542 -1.2587e+000  8.2877e-001 -7.0713e-001 45155 84438,84490,84464
 5.0000e-001 84706 -8.8765e-001  1.6017e+000 -2.4364e-001 45155 84516,84490,84680
 5.0000e-001 84729 -6.5685e-001  1.3604e+000 -2.7603e-001 45155 84516,84680,84360
 5.0000e-001 85077  3.6324e-001  1.3985e+000 -6.9380e-001 44508 85100,84754,84910
 5.0000e-001 85054  5.5634e-001  2.3296e+000 -6.6513e-001 44508 84754,84936,84910
 5.0000e-001 85031 -5.2777e-001  5.6849e-001  5.3009e-002 44508 85100,84910,84884
 5.0000e-001 85008  5.9179e-001  3.1081e+000 -1.5855e+000 44508 84780,84884,84832
 5.0000e-001 84985  2.5116e-001  2.5180e+000 -1.2477e+000 44508 84780,84832,84806
 5.0000e-001 84962 -4.9708e+000 -1.6423e+000  6.0485e-001 44508 84832,84884,84858
 5.0000e-001 85126 -3.6537e-001  2.6196e+000 -1.3530e+000 44508 84780,84754,85100
 5.0000e-001 85149 -1.0403e+000  1.7990e+000 -6.7254e-001 44508 84780,85100,84884
 5.0000e-001 85482  3.0107e-001  7.4410e-002 -2.5253e-001 44104 85335,85387,85361
 5.0000e-001 85459  2.3611e-001 -3.5911e-001 -1.6814e-001 44104 85309,85387,85335
 5.0000e-001 85436  3.6738e-001 -5.9103e-003 -1.5720e-001 44104 85257,85387,85309
 5.0000e-001 85413  1.6419e-001  9.2798e-003  4.4508e-002 44104 85257,85309,85283
 5.0000e-001 85811 -1.2336e+000  1.1509e+000 -2.4721e-001 43600 85586,85664,85612
 5.0000e-001 85788 -3.3066e-001  2.3428e+000 -7.4891e-001 43600 85586,85690,85664
 5.0000e-001 85765 -1.6267e+000  2.4525e+000 -8.6222e-001 43600 85586,85716,85690
 5.0000e-001 85742 -1.5597e+000  9.8775e-001 -1.8885e-001 43600 85612,85664,85638
 5.0000e-001 86010  5.1892e-001  2.4666e+000 -3.1080e-001 43224 85886,85938,85912
 5.0000e-001 85987  3.7635e-001  2.5040e+000 -5.0978e-001 43224 85834,85938,85886
 5.0000e-001 85964  1.1783e-001  8.0149e-001 -3.4602e-001 43224 85834,85886,85860
 5.0000e-001 86420 -4.7125e-001 -2.2611e-001  6.0435e-001 42820 86195,86299,86221
 5.0000e-001 86397 -1.8995e-001 -2.2886e-005  8.9252e-001 42820 86195,86325,86299
 5.0000e-001 86374 -2.0454e-001  2.8566e-001  4.9025e-001 42820 86221,86299,86273
 5.0000e-001 86351 -2.5164e-001  7.1924e-001  1.7358e-001 42820 86221,86273,86247
 5.0000e-001 86749  1.3757e+000  2.8899e+000 -7.8400e-001 42223 86550,86602,86576
 5.0000e-001 86726  2.0688e+000  1.9793e+000 -3.7333e-001 42223 86550,86628,86602
 5.0000e-001 86703  1.5316e+000  1.8494e+000 -1.1492e-002 42223 86524,86628,86550
 5.0000e-001 86680  3.6414e+000  8.3706e-001 -2.1406e+000 42223 86524,86654,86628
 5.0000e-001 87078  1.9380e+000  1.6826e+000 -9.7865e-002 41883 87173,87101,86905
 5.0000e-001 87055  2.1077e+000  4.3038e+000  2.3638e-001 41883 87101,86879,86853
 5.0000e-001 87032  1.6099e+000  3.1027e+000 -3.5191e-001 41883 86853,86983,86931
 5.0000e-001 87009  1.6798e+000  4.8561e+000 -1.5237e+000 41883 86931,86983,86957
 5.0000e-001 87127  2.9888e+000  3.7552e+000 -7.2290e-001 41883 86931,86905,87101
 5.0000e-001 87150  1.4317e+000  2.7708e+000 -2.7428e-001 41883 86931,87101,86853
 5.0000e-001 87199  2.3454e+000  3.4019e+000  5.1454e-001 41883 86879,87101,87173
 5.0000e-001 87558  5.6170e-002  2.7178e-001 -8.8023e-002 41471 87382,87460,87408
 5.0000e-001 87535 -2.1145e-001  5.5099e-001  9.2048e-002 41471 87382,87486,87460
 5.0000e-001 87512  2.6018e-001  1.8245e-001  1.0508e-002 41471 87408,87460,87434
 5.0000e-001 87806  2.7316e-001  2.1650e+000 -8.9984e-001 41017 87829,87607,87581
 5.0000e-001 87783  3.9495e-001  1.7188e+000  3.7264e-002 41017 87829,87581,87685
 5.0000e-001 87760  1.1452e+000  1.7575e+000 -1.5713e-001 41017 87581,87711,87685
 5.0000e-001 87737  2.5433e-001  1.2218e+000  3.1167e-001 41017 87633,87685,87659
 5.0000e-001 87855 -3.6487e-001  1.7903e+000 -6.3535e-001 41017 87633,87607,87829
 5.0000e-001 87878 -4.4322e-001  1.2483e+000  3.2188e-001 41017 87633,87829,87685
 5.0000e-001 88258  3.3503e+000 -3.5148e-001  1.7564e-001 40613 88281,88036,88010
 5.0000e-001 88235 -2.3897e-001  1.4918e+000  1.6000e+000 40613 88281,88010,88088
 5.0000e-001 88212 -1.3332e+000  4.5516e+000 -8.3449e-001 40613 87984,88088,88010
 5.0000e-001 88189 -1.5131e+000  3.2135e+000  2.3678e+000 40613 87984,88114,88088
 5.0000e-001 88166  1.6199e+000  2.8428e+000  2.2478e+000 40613 87984,88140,88114
 5.0000e-001 88307  5.7579e-001 -1.4246e+000 -6.1849e-002 40613 88062,88036,88281
 5.0000e-001 88330 -3.8891e+000 -4.5369e-002  1.5259e+000 40613 88062,88281,88088
 5.0000e-001 88649 -7.7092e-001  4.4232e+000  8.7912e-001 40095 88375,88505,88401
 5.0000e-001 88626  1.7793e+000  2.9832e+000  1.7208e+000 40095 88375,88531,88505
 5.0000e-001 88603 -4.4973e-001  2.7619e+000 -5.4186e-002 40095 88401,88505,88479
 5.0000e-001 88580 -3.5223e+000  9.1481e-002  2.0476e+000 40095 88427,88479,88453
 5.0000e-001 88557 -1.7531e+000 -1.7865e+000  8.0138e-001 40095 88401,88479,88427
 5.0000e-001 89078 -1.2826e+000 -2.2029e+000 -1.1515e+000 39897 89101,88833,88807
 5.0000e-001 89055 -1.3167e+000 -6.9453e-001 -2.6107e-001 39897 89101,88807,88911
 5.0000e-001 89032 -1.3915e+000  2.6221e-001 -4.4998e-001 39897 88781,88911,88807
 5.0000e-001 89009 -3.7185e-001  3.4865e-002 -1.2940e+000 39897 88781,88937,88911
 5.0000e-001 88986 -1.5386e+000  5.7243e-001 -1.0396e+000 39897 88833,88885,88859
 5.0000e-001 88963  1.3916e-001 -3.9670e-001 -9.6274e-001 39897 88755,88937,88781
 5.0000e-001 89127 -1.5437e+000 -5.9074e-001 -5.3283e-001 39897 88885,88833,89101
 5.0000e-001 89150 -9.4699e-001  1.5486e+000  4.8404e-001 39897 88885,89101,88911
 5.0000e-001 89300  6.7976e-001  1.2495e+000  5.9832e-002 39607 89453,89323,89199
 5.0000e-001 89277 -1.6601e-001  2.2621e+000 -3.5983e-002 39607 89525,89453,89199
 5.0000e-001 89349  1.3178e+000  1.4874e+000 -2.5378e-001 39607 89225,89199,89323
 5.0000e-001 89479  2.1810e+000  2.3847e+000 -5.4568e-001 39607 89251,89323,89453
 5.0000e-001 89502  7.6841e-001  2.8748e+000  5.9213e-001 39607 89251,89453,89173
 5.0000e-001 89551  2.0080e-001  1.6914e+000  7.6321e-001 39607 89173,89453,89525
 5.0000e-001 90264 -6.9496e-001  1.0951e+000 -7.3972e-001 39039 89996,90074,90048
 5.0000e-001 90241  6.0687e-002  1.8615e+000 -3.4030e-001 39039 89918,90074,89996
 5.0000e-001 90218 -9.0371e-001  1.0348e+000  1.3235e-001 39039 89918,89996,89944
 5.0000e-001 90195 -3.3794e+000  8.2740e-001  1.6101e-001 39039 89892,90074,89918
 5.0000e-001 90172  5.4075e-001  1.6438e+000 -5.4290e-001 39039 89996,90048,90022
 5.0000e-001 90149 -3.0772e+000  3.8282e+000 -3.7626e-001 39039 89892,90100,90074
 5.0000e-001 90126 -5.3950e-002  1.4118e+000 -1.1324e-001 39039 89944,89996,89970
 5.0000e-001 90770 -1.0545e+000  2.9556e-001  4.8223e-002 38635 90473,90603,90577
 5.0000e-001 90747 -1.8847e+000 -5.6749e-002  7.8992e-002 38635 90447,90603,90473
 5.0000e-001 90724 -2.0799e+000  2.4273e-001  6.3818e-001 38635 90499,90577,90551
 5.0000e-001 90701 -7.7321e-001  1.2099e+000 -1.1996e-001 38635 90473,90577,90499
 5.0000e-001 90678 -8.3898e-001  1.2799e+000  1.5360e-001 38635 90499,90551,90525
 5.0000e-001 90655 -5.9133e-003  5.2703e-002 -6.1000e-001 38635 90447,90629,90603
 5.0000e-001 90871 -1.7786e+000  3.5971e-001 -3.7846e-002 38231 90793,90845,90819
 5.0000e-001 91458  1.7649e+000  1.2134e+000  2.5349e-001 37534 91161,91317,91291
 5.0000e-001 91435  1.4516e+000  1.8061e+000  6.6560e-001 37534 91135,91317,91161
 5.0000e-001 91412  1.3770e+000  1.2627e+000 -4.2769e-001 37534 91187,91291,91239
 5.0000e-001 91389  1.3277e+000  1.0432e+000  3.9594e-001 37534 91161,91291,91187
 5.0000e-001 91366  1.4662e+000  1.3327e+000 -3.9718e-001 37534 91239,91291,91265
 5.0000e-001 91343  1.7041e+000  1.6839e+000 -5.7031e-001 37534 91187,91239,91213
 5.0000e-001 91915 -5.2055e-001  1.3957e+000  3.1277e-001 37080 91938,91745,91667
 5.0000e-001 91892 -1.1692e+000  1.7333e+000  1.1675e+000 37080 91938,91667,91797
 5.0000e-001 91869 -2.9438e+000  2.7728e+000 -2.7828e-001 37080 91641,91797,91667
 5.0000e-001 91846 -1.5737e+000  1.1218e+000  1.1286e+000 37080 91667,91719,91693
 5.0000e-001 91823 -1.6829e+000  6.5828e-001  6.3758e-001 37080 91667,91745,91719
 5.0000e-001 91964  2.8404e-001  2.7420e+000 -3.4370e-001 37080 91771,91745,91938
 5.0000e-001 91987 -6.7244e-001  2.1238e+000  6.2670e-001 37080 91771,91938,91797
 5.0000e-001 92235 -3.1478e+000 -2.6860e-001 -1.6004e-001 36397 92036,92088,92062
 5.0000e-001 92212 -2.5255e+000 -3.1678e-001 -3.9583e-001 36397 92036,92114,92088
 5.0000e-001 92189 -1.6360e+000 -4.7018e-002 -4.9942e-001 36397 92036,92140,92114
 5.0000e-001 92166 -1.2128e+000  3.2156e-002 -4.1840e-001 36397 92010,92140,92036
 5.0000e-001 92694 -1.6583e-001  1.3257e-002  7.6757e-003 36057 92446,92498,92472
 5.0000e-001 92671  2.5323e-001  5.6751e-001  3.7130e-001 36057 92446,92550,92498
 5.0000e-001 92648  3.6560e-001  3.2199e-001  3.6117e-001 36057 92446,92576,92550
 5.0000e-001 92625  3.9631e+000  5.8301e-001  2.0712e+000 36057 92420,92576,92446
 5.0000e-001 92602  5.8991e-002 -1.7062e-001 -3.8419e-001 36057 92498,92550,92524
 5.0000e-001 93023 -1.2199e+000  1.3387e+000 -5.4224e-002 35717 92876,92928,92902
 5.0000e-001 93000 -7.2566e-001  1.5293e+000  3.3855e-002 35717 92824,92928,92876
 5.0000e-001 92977  2.5762e-002  1.3949e+000  4.2053e-001 35717 92798,92928,92824
 5.0000e-001 92954  7.6153e-002  2.4376e+000 -1.3942e+000 35717 92824,92876,92850
 5.0000e-001 93499  3.5480e-001  9.4503e-001 -4.3538e-001 35405 93522,93309,93257
 5.0000e-001 93476  6.0182e-001  1.5001e+000 -5.4669e-001 35405 93666,93522,93257
 5.0000e-001 93453  1.3215e-001 -5.2594e-001 -7.5240e-001 35405 93594,93127,93335
 5.0000e-001 93430  7.1144e-002  1.5127e+000 -7.3789e-001 35405 93666,93257,93231
 5.0000e-001 93407 -5.1449e-001  1.5375e+000 -2.1076e+000 35405 93127,93179,93153
 5.0000e-001 93384 -6.3459e-001  2.9054e+000 -4.6314e-001 35405 93179,93231,93205
 5.0000e-001 93361  1.3207e+000  1.6643e+000  4.1800e-001 35405 93257,93309,93283
 5.0000e-001 93548  1.2857e+000  1.5206e+000  6.3029e-002 35405 93335,93309,93522
 5.0000e-001 93571  7.5945e-001  5.2107e-001 -4.4045e-001 35405 93594,93335,93522
 5.0000e-001 93620 -4.4101e-001  7.8761e-001 -7.1713e-001 35405 93179,93127,93594
 5.0000e-001 93643 -2.2267e-001  1.0424e+000 -7.8591e-001 35405 93738,93594,93522
 5.0000e-001 93692  6.9081e-002  1.1702e+000 -7.6234e-001 35405 93738,93522,93666
 5.0000e-001 93715 -6.0015e-002  1.3655e+000 -8.1751e-001 35405 93179,93666,93231
 5.0000e-001 93764 -1.9787e-001  1.1682e+000 -5.8699e-001 35405 93179,93594,93738
 5.0000e-001 93787 -1.5576e-001  1.1788e+000 -5.9327e-001 35405 93179,93738,93666
 5.0000e-001 94372  7.5039e-001  1.7769e+000 -4.4767e-001 34951 94395,94127,94075
 5.0000e-001 94349  1.0496e+000  1.8806e+000 -4.6191e-001 34951 94395,94075,94231
 5.0000e-001 94326  1.0791e+000  3.1434e+000  1.4237e+000 34951 94049,94231,94075
 5.0000e-001 94303  7.7870e-001 -1.8027e-001 -8.5049e-001 34951 94075,94127,94101
 5.0000e-001 94280 -2.8119e-002 -3.2369e-001 -1.1198e+000 34951 94127,94205,94153
 5.0000e-001 94257  2.1495e+000  3.5051e+000 -1.3122e-001 34951 94153,94205,94179
 5.0000e-001 94421  1.0223e+000  1.4572e+000 -2.0584e-001 34951 94205,94127,94395
 5.0000e-001 94444  1.6583e+000  1.7455e+000 -2.7761e-001 34951 94205,94395,94231
 5.0000e-001 94692  4.2673e-001  2.3836e+000  1.7903e+000 34397 94715,94519,94467
 5.0000e-001 94669 -5.2265e-001  2.1044e+000  2.3892e+000 34397 94715,94467,94597
 5.0000e-001 94646 -7.9717e-001  4.6752e-002  3.2628e+000 34397 94545,94597,94571
 5.0000e-001 94623  1.0046e+000  4.6077e+000 -1.7886e-001 34397 94467,94519,94493
 5.0000e-001 94741 -1.1199e+000  3.8302e+000  1.3844e+000 34397 94545,94519,94715
 5.0000e-001 94764 -1.7281e+000  2.8041e+000  2.6254e+000 34397 94545,94715,94597
 5.0000e-001 94985 -2.6232e+000  2.6046e+000 -2.6452e-001 33985 94835,94913,94887
 5.0000e-001 94962 -1.1860e+000  6.0398e+000 -2.9955e-001 33985 94809,94913,94835
 5.0000e-001 94939 -7.7942e-001  3.1885e+000 -6.0012e-001 33985 94835,94887,94861
 5.0000e-001 95186  4.9621e-001  1.9796e+000 -4.8770e-002 33645 95281,95209,95036
 5.0000e-001 95163 -2.4336e-001  1.2292e+000  4.1807e-001 33645 95209,95010,95088
 5.0000e-001 95140  4.9588e-001  1.5764e+000  1.7246e-001 33645 95010,95114,95088
 5.0000e-001 95235 -1.9481e-001  2.1678e+000  7.1474e-001 33645 95062,95036,95209
 5.0000e-001 95258  5.8838e-001  1.5735e+000  2.7816e-001 33645 95413,95209,95088
 5.0000e-001 95307 -5.0022e-001  3.1837e-001  5.4418e-001 33645 95010,95209,95281
 5.0000e-001 95439 -8.3561e-001  3.2029e-001  8.0678e-001 33645 95062,95209,95413
 5.0000e-001 95766 -1.1549e+000  2.6513e+000 -1.0503e+000 33141 95789,95593,95567
 5.0000e-001 95743 -7.1772e-001  1.9534e+000 -2.2778e-001 33141 95861,95789,95567
 5.0000e-001 95720 -8.5378e-001  2.1219e+000  1.2694e-001 33141 95861,95567,95671
 5.0000e-001 95697 -6.0884e-001  1.9650e+000  9.7671e-002 33141 95541,95671,95567
 5.0000e-001 95815 -6.8358e-001  4.0892e+000 -1.0074e+000 33141 95619,95593,95789
 5.0000e-001 95838 -2.9460e-001  2.8526e+000 -4.0759e-001 33141 95619,95789,95645
 5.0000e-001 95887 -3.5350e-001  2.6027e+000 -4.7351e-001 33141 95645,95789,95861
 5.0000e-001 95910 -7.0104e-001  2.6787e+000 -8.2722e-002 33141 95645,95861,95671
 5.0000e-001 96060 -2.0371e+000  2.2466e+000 -1.2445e-001 32487 95959,96011,95985
 5.0000e-001 96037 -1.6080e+000  5.0469e+000 -2.2725e-001 32487 95933,96011,95959
 5.0000e-001 96570  6.5576e-001  2.3428e+000  3.8027e-001 32033 96665,96593,96377
 5.0000e-001 96547 -2.7734e-002  3.0487e+000 -1.9058e-001 32033 96737,96593,96325
 5.0000e-001 96524  5.8859e-001  2.3991e+000  4.4054e-001 32033 96665,96377,96351
 5.0000e-001 96501  3.2647e-001  3.9456e+000 -2.5109e-001 32033 96737,96325,96299
 5.0000e-001 96478  5.0929e-001  2.8816e+000 -4.4235e-001 32033 96247,96429,96299
 5.0000e-001 96455  1.0336e+000  3.5644e+000 -7.4939e-001 32033 96247,96299,96273
 5.0000e-001 96619  9.2197e-001  2.0999e+000  9.8842e-002 32033 96809,96593,96403
 5.0000e-001 96642  1.0352e+000  2.4408e+000 -5.6653e-001 32033 96403,96593,96429
 5.0000e-001 96691  7.2012e-001  2.4605e+000  3.5424e-001 32033 96325,96593,96665
 5.0000e-001 96714  6.6300e-001  2.5430e+000  4.1401e-001 32033 96325,96665,96351
 5.0000e-001 96763  3.3344e-001  2.6960e+000 -6.1017e-001 32033 96429,96593,96737
 5.0000e-001 96786  4.7149e-001  3.1421e+000 -5.5166e-001 32033 96429,96737,96299
 5.0000e-001 96835  1.8710e+000  2.8174e+000  4.1532e-001 32033 96377,96593,96809
 5.0000e-001 97064  5.0925e+000  4.2018e+000  3.8381e+000 31671 97087,96989,96963
 5.0000e-001 97041  8.8335e-001  4.2264e+000 -1.1181e+000 31671 97087,96963,96937
 5.0000e-001 97113 -4.3143e+000  4.6789e+000  2.3315e+000 31671 97159,97087,97015
 5.0000e-001 97136  2.4579e+000  5.7824e+000  2.1999e+000 31671 97015,97087,96937
 5.0000e-001 97185  1.0524e+000 -3.7126e+000  2.3018e+000 31671 96989,97087,97159
 5.0000e-001 97563 -3.3462e+000  1.3954e+000  3.6438e-001 31117 97586,97367,97341
 5.0000e-001 97540 -2.9331e+000  1.0155e+000 -4.0149e-002 31117 97658,97586,97341
 5.0000e-001 97517 -2.0980e+000  3.2252e-001  2.9389e-001 31117 97658,97341,97315
 5.0000e-001 97494 -3.2060e+000  5.7765e-001  1.2889e+000 31117 97289,97445,97315
 5.0000e-001 97471 -8.9073e-001  2.1726e-002  2.4154e-001 31117 97367,97419,97393
 5.0000e-001 97612 -1.0372e+000  7.2257e-001 -1.8646e-001 31117 97419,97367,97586
 5.0000e-001 97635 -4.4487e+000 -4.5830e-003 -8.7794e-001 31117 97419,97586,97445
 5.0000e-001 97684 -4.1961e+000  4.4864e-001  2.1808e-001 31117 97445,97586,97658
 5.0000e-001 97707 -3.2635e+000 -1.8499e-001  5.4765e-001 31117 97445,97658,97315
 5.0000e-001 98215  2.3549e-001  1.6834e+000 -4.8037e-002 30563 98238,97996,97944
 5.0000e-001 98192  8.5191e-001  2.2651e+000  1.9448e-001 30563 98310,98238,97944
 5.0000e-001 98169  1.3578e+000  1.7777e+000  9.1651e-001 30563 98310,97944,97918
 5.0000e-001 98146 -2.7623e-003  1.9912e+000  1.1523e+000 30563 97892,98074,97918
 5.0000e-001 98123 -1.1591e-001  3.9140e+000 -1.0938e+000 30563 97996,98048,98022
 5.0000e-001 98100  1.2050e+000  2.5194e+000 -7.4285e-001 30563 97944,97996,97970
 5.0000e-001 98264  4.5925e-001  2.0776e+000 -1.4015e-001 30563 98048,97996,98238
 5.0000e-001 98287 -9.8163e-002  2.1358e+000  7.3044e-002 30563 98048,98238,98074
 5.0000e-001 98336 -4.3747e-001  1.6398e+000  3.8635e-001 30563 98074,98238,98310
 5.0000e-001 98359  3.0315e-001  1.3357e+000  9.9392e-001 30563 98074,98310,97918
 5.0000e-001 98607 -1.5861e+000  2.5144e+000  1.3431e-002 30073 98630,98460,98408
 5.0000e-001 98584 -1.9260e+000  2.8310e+000  4.9936e-002 30073 98630,98408,98382
 5.0000e-001 98561 -1.2222e+000  3.3221e+000 -4.8289e-001 30073 98382,98512,98486
 5.0000e-001 98538 -6.1113e-001  2.7819e+000  8.2528e-002 30073 98408,98460,98434
 5.0000e-001 98656 -1.4638e+000  2.7032e+000 -4.0522e-002 30073 98486,98460,98630
 5.0000e-001 98679 -1.7094e+000  3.1027e+000 -4.6119e-002 30073 98486,98630,98382
 5.0000e-001 99157 -2.8939e-002  2.7194e+000  8.5679e-001 29669 99180,98837,98811
 5.0000e-001 99134  1.0042e+000  3.0895e+000 -1.9589e-001 29669 99324,99180,98811
 5.0000e-001 99111  1.9828e-001  3.9994e+000 -6.0587e-001 29669 99252,98863,98837
 5.0000e-001 99088  3.5427e-001  3.1527e+000 -1.2949e-001 29669 99324,98811,98993
 5.0000e-001 99065 -3.4555e+000  1.6785e+000 -4.2377e+000 29669 98863,98941,98915
 5.0000e-001 99042  3.6844e+000  2.3900e+000 -3.5075e+000 29669 98863,98915,98889
 5.0000e-001 99019  5.8435e-001  3.3234e+000  2.6657e-001 29669 98785,98993,98811
 5.0000e-001 99206  4.4461e-001  2.9909e+000 -2.8967e-001 29669 99252,98837,99180
 5.0000e-001 99229  3.5104e+000  4.8300e+000 -1.4297e+000 29669 98941,99180,98967
 5.0000e-001 99278  2.0570e-001  4.6664e+000 -4.2597e-001 29669 98941,98863,99252
 5.0000e-001 99301  9.0275e-001  4.2578e+000  1.0314e-002 29669 98941,99252,99180
 5.0000e-001 99350  2.7444e-001  3.0445e+000 -4.9543e-001 29669 98967,99180,99324
 5.0000e-001 99373 -1.2400e-001  3.2887e+000 -4.6496e-001 29669 98967,99324,98993
 5.0000e-001 99958  1.7827e+000  3.2372e+000 -7.2757e-001 29051 99981,99765,99739
 5.0000e-001 99935  1.6089e+000  2.2022e+000 -7.6405e-001 29051 99981,99739,99661
 5.0000e-001 99912  3.2813e+000  6.3887e+000  3.6196e-001 29051 99765,99817,99791
 5.0000e-001 99889  3.3216e+000  4.2576e+000  2.8189e+000 29051 99635,99817,99661
 5.0000e-001 99866  9.8012e-001  3.9766e+000  4.7382e-002 29051 99661,99739,99687
 5.0000e-001 99843  4.2444e+000  3.6980e+000  1.1632e+000 29051 99687,99739,99713
 5.0000e-001 100007  1.7578e+000  2.3682e+000 -5.6469e-001 29051 99817,99765,99981
 5.0000e-001 100030  1.8863e+000  1.7696e+000 -5.3495e-001 29051 99817,99981,99661
 5.0000e-001 100278  1.1864e+000  3.1996e+000  1.7022e-001 28525 100445,100301,100131
 5.0000e-001 100255  1.3669e+000  3.4707e+000 -7.8286e-001 28525 100373,100301,100079
 5.0000e-001 100232  1.5507e+000  3.4176e+000 -6.3804e-001 28525 100373,100079,100053
 5.0000e-001 100209  1.3520e+000  2.5530e+000  6.9404e-001 28525 100445,100131,100105
 5.0000e-001 100327  3.2109e+000  3.4143e+000 -7.8863e-001 28525 100517,100301,100157
 5.0000e-001 100350  4.0837e-001  1.1489e+000 -1.8881e+000 28525 100157,100301,100183
 5.0000e-001 100399  1.0385e+000  3.4600e+000 -7.9068e-001 28525 100183,100301,100373
 5.0000e-001 100422  1.2575e+000  3.4106e+000 -6.7227e-001 28525 100183,100373,100053
 5.0000e-001 100471  1.4107e+000  4.4615e+000 -1.3621e-001 28525 100079,100301,100445
 5.0000e-001 100494  1.4106e+000  3.9988e+000  5.9769e-001 28525 100079,100445,100105
 5.0000e-001 100543  2.0779e+000  2.5316e+000 -1.6344e-001 28525 100131,100301,100517
 5.0000e-001 101209 -3.6101e+000  2.1533e+000  9.4750e-001 28185 100938,101016,100990
 5.0000e-001 101186 -2.6795e+000  1.2684e+000  2.5140e-001 28185 100912,101016,100938
 5.0000e-001 101163 -2.1277e-001  2.3931e+000 -7.9942e-003 28185 100912,101068,101016
 5.0000e-001 101140 -2.9526e+000  2.1201e-001 -9.5577e-001 28185 100886,101068,100912
 5.0000e-001 101117 -1.1232e+000  8.0192e-001  3.5907e-001 28185 101016,101068,101042
 5.0000e-001 101094 -7.6364e+000  8.5742e-001  9.8169e-001 28185 100938,100990,100964
 5.0000e-001 101408  9.4364e-001  2.2967e+000  3.5341e-002 27781 101503,101431,101310
 5.0000e-001 101385  6.4014e-001  3.4633e+000 -2.9314e-002 27781 101431,101258,101232
 5.0000e-001 101362  1.3743e+000  2.1040e+000 -1.6851e-001 27781 101503,101310,101284
 5.0000e-001 101457  1.1971e+000  2.7429e+000 -3.2389e-001 27781 101336,101310,101431
 5.0000e-001 101480  1.6027e+000  4.2036e+000 -9.4650e-001 27781 101575,101431,101232
 5.0000e-001 101529  1.1676e+000  2.6392e+000 -8.3849e-002 27781 101258,101431,101503
 5.0000e-001 101552  8.7851e-001  1.0222e+000  5.2101e-003 27781 101705,101503,101284
 5.0000e-001 101601  6.8040e-001  2.4130e+000 -6.1977e-001 27781 101336,101431,101575
 5.0000e-001 101731  1.2420e+000  2.6147e+000  7.7686e-002 27781 101258,101503,101705
 5.0000e-001 102237 -1.7615e+000  8.2811e-001  4.0045e-001 27419 102476,102260,101992
 5.0000e-001 102214 -1.3750e+000  7.4272e-001  2.4950e-001 27419 102260,101940,101914
 5.0000e-001 102191 -1.8986e+000  6.9874e-001  4.6929e-001 27419 102404,102332,102096
 5.0000e-001 102168 -1.5347e+000  7.2764e-001  8.8340e-002 27419 102404,102096,102044
 5.0000e-001 102145 -1.5735e+000  6.9381e-001  5.0512e-001 27419 102476,101992,101966
 5.0000e-001 102122  2.6542e-001  1.7311e-001 -2.1334e-002 27419 102044,102096,102070
 5.0000e-001 102286 -2.4786e+000  4.3450e-001  7.3646e-001 27419 102018,101992,102260
 5.0000e-001 102309 -1.6534e+000  8.2707e-001  4.2463e-001 27419 102332,102018,102260
 5.0000e-001 102358 -1.8559e+000  3.8641e-001  6.8069e-001 27419 101914,102096,102332
 5.0000e-001 102381 -1.6913e+000  7.3252e-001  4.0987e-001 27419 101914,102332,102260
 5.0000e-001 102430 -1.1101e+000  9.1585e-001  2.7674e-001 27419 102018,102332,102404
 5.0000e-001 102453 -8.8175e-001  9.5464e-001 -1.4342e-001 27419 102018,102404,102044
 5.0000e-001 102502 -1.4955e+000  8.8877e-001  4.9133e-001 27419 101940,102260,102476
 5.0000e-001 102525 -5.3551e-001  1.1610e+000  6.1062e-001 27419 101940,102476,101966
 5.0000e-001 103031  3.0892e+000  2.4928e-001 -5.5605e-002 26715 102708,102786,102760
 5.0000e-001 103008  3.8267e+000  1.7420e-002 -4.8478e-001 26715 102708,102890,102786
 5.0000e-001 102985  2.3659e-001  2.9749e+000 -2.0509e+000 26715 102838,102890,102864
 5.0000e-001 102962  2.5545e+000  6.7540e-001 -2.4488e+000 26715 102786,102890,102838
 5.0000e-001 102939 -4.4617e+000 -2.3152e+000 -2.4028e+000 26715 102786,102838,102812
 5.0000e-001 102916  2.7880e+000  4.3301e-002 -4.7797e-001 26715 102708,102760,102734
 5.0000e-001 103279 -2.9231e+000  1.2264e+000 -2.4132e-001 26303 103302,103158,103080
 5.0000e-001 103256 -2.7744e+000  2.3542e-001 -4.5393e-001 26303 103302,103080,103054
 5.0000e-001 103233 -1.9956e+000  1.4453e+000 -6.4737e-001 26303 103080,103158,103106
 5.0000e-001 103210 -5.3824e+000  3.5480e-001 -8.3207e-001 26303 103106,103158,103132
 5.0000e-001 103328 -2.5973e+000  1.6628e-001  2.0036e-001 26303 103184,103158,103302
 5.0000e-001 103351 -2.4631e+000 -7.7627e-001 -3.2350e-001 26303 103184,103302,103054
 5.0000e-001 103501 -3.8101e+000 -1.8100e+000 -4.1838e-001 25849 103374,103426,103400
 5.0000e-001 103478 -4.5807e+000 -1.6404e+000 -6.3938e-002 25849 103374,103452,103426
 5.0000e-001 104090  7.9162e-001  1.3984e+000  6.5851e-001 25445 103793,103871,103819
 5.0000e-001 104067  1.4230e+000  1.4327e+000  3.8930e-001 25445 103793,103949,103871
 5.0000e-001 104044  1.2235e+000  1.6271e+000 -5.0626e-002 25445 103871,103949,103923
 5.0000e-001 104021  1.2742e+000  1.5352e+000  7.5787e-001 25445 103819,103871,103845
 5.0000e-001 103998  3.2554e-001  9.9872e-001  4.0111e-001 25445 103767,103949,103793
 5.0000e-001 103975  2.0512e+000  1.1219e+000 -1.1244e-001 25445 103871,103923,103897
 5.0000e-001 104419  8.3266e-003  1.5131e+000 -3.1115e-001 25083 104220,104298,104272
 5.0000e-001 104396 -1.2944e+000  5.1256e-001  1.4611e-001 25083 104220,104324,104298
 5.0000e-001 104373  5.2161e-001  8.6801e-001  2.9558e-001 25083 104220,104272,104246
 5.0000e-001 104350 -7.2773e-001  2.1645e+000  7.0332e-001 25083 104194,104324,104220
 5.0000e-001 105102  6.2393e-001  7.0572e-001 -5.8116e-002 24793 104785,104863,104837
 5.0000e-001 105079  6.2258e-001  6.8292e-001 -8.1964e-002 24793 104759,104863,104785
 5.0000e-001 105056  3.0264e-001  7.4149e-001 -2.0227e-001 24793 104759,104915,104863
 5.0000e-001 105033 -2.3527e-002  1.0824e+000  1.2992e-001 24793 104733,104915,104759
 5.0000e-001 105010 -4.3421e-001  2.9357e-001  4.5802e-001 24793 104863,104915,104889
 5.0000e-001 104987 -6.2668e-002  4.1538e-001  1.9272e-001 24793 104681,104915,104733
 5.0000e-001 104964  8.6410e-001  6.0650e-001  1.1102e-001 24793 104785,104837,104811
 5.0000e-001 104941  6.4845e-001  7.1988e-001 -3.3795e-001 24793 104681,104733,104707
 5.0000e-001 105252  1.7357e+000  8.3460e-001  1.0594e-001 24389 105477,105275,105177
 5.0000e-001 105229  4.4663e+000  2.3250e+000  9.9841e-001 24389 105347,105275,105151
 5.0000e-001 105301  9.2003e-001  3.7722e+000  6.0393e-001 24389 105203,105177,105275
 5.0000e-001 105324 -1.3881e+000  2.3176e+000 -1.9065e-002 24389 105203,105275,105125
 5.0000e-001 105373  3.5132e-001  5.3907e+000  1.2395e+000 24389 105125,105275,105347
 5.0000e-001 105503  1.3089e+000  1.3578e-001 -1.1712e-001 24389 105151,105275,105477
 5.0000e-001 106088 -1.4409e+000  1.5613e+000  2.0494e+000 23735 105791,105921,105895
 5.0000e-001 106065 -4.4160e+000  3.4165e-001  1.9787e+000 23735 105765,105921,105791
 5.0000e-001 106042 -1.8180e+000  1.7239e+000  1.3549e+000 23735 105765,105947,105921
 5.0000e-001 106019 -5.7039e+000 -5.6427e-002  2.3196e+000 23735 105817,105895,105869
 5.0000e-001 105996 -3.0533e+000  9.4364e-001  2.3655e+000 23735 105791,105895,105817
 5.0000e-001 105973 -2.9694e+000  1.4001e+000  1.5946e+000 23735 105817,105869,105843
 5.0000e-001 106417  2.7247e+000  5.1828e+000 -7.7545e-001 23295 106218,106296,106270
 5.0000e-001 106394  1.4298e+000  2.4207e+000 -2.9903e-001 23295 106218,106322,106296
 5.0000e-001 106371  1.6304e+000  2.3522e+000 -2.6619e-001 23295 106218,106270,106244
 5.0000e-001 106348  1.8536e+000  2.6014e+000  5.2764e-002 23295 106192,106322,106218
 5.0000e-001 106746  1.0079e+000  2.2255e+000  6.0933e-001 23005 106521,106599,106547
 5.0000e-001 106723  1.3679e+000  2.8670e+000  4.1234e-001 23005 106521,106651,106599
 5.0000e-001 106700  5.1156e-001  1.5822e+000  8.3705e-002 23005 106547,106599,106573
 5.0000e-001 106677  1.4741e+000  2.2523e+000  1.2247e+000 23005 106599,106651,106625
 5.0000e-001 107331  6.5833e+000  5.6896e+000 -7.5008e-001 22601 107060,107190,107138
 5.0000e-001 107308  5.5031e+000  1.5711e+000 -1.2903e+000 22601 107034,107190,107060
 5.0000e-001 107285  2.6666e+000  4.5176e+000  8.9608e-001 22601 107060,107138,107112
 5.0000e-001 107262  3.1516e+000  2.1757e+000  1.1657e+000 22601 107008,107190,107034
 5.0000e-001 107239  5.1157e+000  3.7468e+000  9.9123e-001 22601 107060,107112,107086
 5.0000e-001 107216  2.3063e+000  7.1691e-001  1.2241e+000 22601 107138,107190,107164
 5.0000e-001 107807 -7.4416e-001  1.5876e+000 -3.0870e-001 22031 107974,107902,107617
 5.0000e-001 107784 -1.2607e+000  1.8412e+000 -6.2317e-001 22031 107830,107565,107513
 5.0000e-001 107761 -4.7037e-001  1.5122e+000 -5.6563e-001 22031 108046,107830,107513
 5.0000e-001 107738 -4.1438e-001  2.1086e+000  7.7540e-002 22031 107974,107617,107591
 5.0000e-001 107715 -5.3675e-001  1.0914e+000 -3.1479e-001 22031 108046,107513,107461
 5.0000e-001 107692 -4.3761e+000  2.7115e+000 -1.3742e+000 22031 107513,107565,107539
 5.0000e-001 107669 -1.3513e-001  6.6066e-001 -8.3723e-001 22031 107461,107513,107487
 5.0000e-001 107856 -1.4551e+000  1.9769e+000 -3.6997e-001 22031 107902,107565,107830
 5.0000e-001 107879 -9.5342e-001  1.1614e+000  2.2585e-001 22031 107643,107830,107435
 5.0000e-001 107928 -2.8599e+000  3.3672e+000 -1.8462e+000 22031 107643,107617,107902
 5.0000e-001 107951 -1.7315e+000  1.7487e+000  2.4750e-001 22031 107643,107902,107830
 5.0000e-001 108000 -1.2952e+000  2.3219e+000 -3.2811e-001 22031 107565,107902,107974
 5.0000e-001 108023 -1.1892e+000  2.1219e+000 -2.1909e-001 22031 107565,107974,107591
 5.0000e-001 108072 -5.7083e-001  9.3547e-001 -2.5700e-002 22031 107435,107830,108046
 5.0000e-001 108095 -8.1692e-001  2.6955e-001  2.4192e-001 22031 107435,108046,107461
 5.0000e-001 108196 -3.2952e+000  1.7626e+000  2.1968e-001 21783 108118,108170,108144
 5.0000e-001 108655  3.3892e+000  3.4835e+000 -5.1395e-001 21379 108407,108485,108459
 5.0000e-001 108632  2.6906e+000  4.4902e+000 -8.1559e-001 21379 108407,108511,108485
 5.0000e-001 108609  3.5351e-001  9.0081e-001 -4.0138e+000 21379 108381,108511,108407
 5.0000e-001 108586  5.0089e+000  7.8980e-001 -2.4240e+000 21379 108381,108537,108511
 5.0000e-001 108563  4.5612e+000  4.9796e+000 -1.0567e+000 21379 108407,108459,108433
 5.0000e-001 109082 -7.4212e-001  5.9370e+000 -2.7519e-001 20974 109105,108863,108811
 5.0000e-001 109059 -2.5750e+000  5.2330e+000 -7.4461e-001 20974 109105,108811,108759
 5.0000e-001 109036 -6.0324e-001  1.5350e+000  7.2083e-001 20974 109177,108889,108863
 5.0000e-001 109013  9.5472e-001  3.7898e+000 -5.7058e-001 20974 108811,108863,108837
 5.0000e-001 108990 -4.6982e+000  2.5638e+000  6.2562e-001 20974 108759,108941,108915
 5.0000e-001 108967 -2.7418e+000  3.0382e+000 -2.0647e-001 20974 108759,108811,108785
 5.0000e-001 109131 -1.9078e+000  3.1588e+000 -2.9892e-001 20974 109177,108863,109105
 5.0000e-001 109154 -1.4289e+000  6.3963e+000 -1.3073e+000 20974 108915,109105,108759
 5.0000e-001 109203  2.0561e-001  2.8673e+000 -7.2544e-001 20974 108915,108889,109177
 5.0000e-001 109226 -1.3631e-001  6.1809e+000 -1.7039e+000 20974 108915,109177,109105
 5.0000e-001 109496 -1.2133e+000  1.7634e+000 -9.9866e-002 20470 109271,109375,109297
 5.0000e-001 109473 -1.2052e+000  2.1898e+000 -3.2622e-001 20470 109271,109401,109375
 5.0000e-001 109450 -1.7170e+000  8.4111e-001 -3.9679e-001 20470 109297,109375,109349
 5.0000e-001 109427 -2.7042e+000 -1.2715e+000  7.6784e-001 20470 109297,109349,109323
 5.0000e-001 109955  1.1364e+000  4.7576e+000  2.4934e+000 20123 110050,109733,109707
 5.0000e-001 109932 -9.2318e-001  2.5731e+000  1.3839e+000 20123 110050,109707,109681
 5.0000e-001 109909  1.4478e+000  2.7712e+000  2.0955e+000 20123 109978,109759,109733
 5.0000e-001 109886  2.2200e-001  1.4942e+000  1.5245e+000 20123 110122,109978,109733
 5.0000e-001 109863  1.3389e+000  9.6680e-001  6.2972e-001 20123 109785,109837,109811
 5.0000e-001 110004  9.0759e-001  1.8246e+000  1.3420e+000 20123 109785,109759,109978
 5.0000e-001 110027  4.8559e-001  1.3048e+000  6.6760e-001 20123 109785,109978,109837
 5.0000e-001 110076 -2.0794e-001  2.1075e+000  1.2573e+000 20123 110122,109733,110050
 5.0000e-001 110099 -6.3597e-002  1.6458e+000  4.0827e-001 20123 109837,110050,109681
 5.0000e-001 110148  1.0502e+000  2.3650e+000  1.1689e+000 20123 109837,109978,110122
 5.0000e-001 110171  6.5960e-001  2.8961e+000  8.9350e-001 20123 109837,110122,110050
 5.0000e-001 110500  3.6755e+000  1.4363e+000 -7.0290e-001 19511 110301,110379,110353
 5.0000e-001 110477  4.1581e+000  2.3222e+000 -9.2222e-001 19511 110301,110405,110379
 5.0000e-001 110454  1.7904e+000  1.3211e+000 -8.5118e-001 19511 110275,110405,110301
 5.0000e-001 110431  3.1323e+000  1.7580e+000  1.6516e+000 19511 110301,110353,110327
 5.0000e-001 110957 -2.6908e+000  2.1264e+000 -9.2759e-001 19107 110683,110735,110709
 5.0000e-001 110934 -2.3671e+000 -6.7341e-001 -2.0145e+000 19107 110683,110813,110735
 5.0000e-001 110911 -1.4117e+000  2.5896e-001 -1.5148e+000 19107 110735,110813,110761
 5.0000e-001 110888 -9.1060e+000 -2.4883e+000 -3.4561e+000 19107 110683,110839,110813
 5.0000e-001 110865 -1.4023e+000 -1.4323e-001 -2.1807e+000 19107 110761,110813,110787
 5.0000e-001 111335 -1.5689e+000 -3.3982e-002 -6.4413e-001 18653 111087,111165,111139
 5.0000e-001 111312 -7.1901e-001 -1.8286e-001 -7.0638e-001 18653 111087,111217,111165
 5.0000e-001 111289 -2.5536e-001  4.9050e-003 -6.3906e-001 18653 111061,111217,111087
 5.0000e-001 111266 -1.0792e+000  1.7733e+000 -9.6170e-001 18653 111087,111139,111113
 5.0000e-001 111243 -3.8908e-001  6.2225e-002  4.4092e-002 18653 111165,111217,111191
 5.0000e-001 111735 -8.4827e-001 -2.7448e-002 -3.4371e-001 18213 111461,111513,111487
 5.0000e-001 111712 -2.0007e+000 -1.1241e+000  1.4688e-001 18213 111461,111617,111513
 5.0000e-001 111689 -1.8017e+000 -7.8399e-001 -3.7974e-001 18213 111513,111617,111591
 5.0000e-001 111666 -1.1323e+000 -2.1735e-001 -1.1897e-001 18213 111513,111591,111539
 5.0000e-001 111643 -1.0286e+000 -6.3273e-001 -1.0520e-001 18213 111539,111591,111565
 5.0000e-001 111885 -1.2993e+000  1.3510e+000 -1.6825e-001 17659 111784,111836,111810
 5.0000e-001 111862  7.1627e-001  1.5905e+000 -2.9883e-002 17659 111758,111836,111784
 5.0000e-001 112287  3.6709e+000  2.0337e+000  7.8130e-002 17411 112065,112169,112143
 5.0000e-001 112264  4.1596e+000  1.8110e+000 -2.7655e-002 17411 112039,112169,112065
 5.0000e-001 112241  5.2803e+000  3.5111e+000  9.7293e-001 17411 112013,112169,112039
 5.0000e-001 112218  1.4163e+000  1.7539e+000  2.0012e-001 17411 112091,112143,112117
 5.0000e-001 112195  3.3798e+000  1.5882e+000 -1.7502e-001 17411 112065,112143,112091
 5.0000e-001 112508 -1.2709e+000  2.4257e+000  2.5858e-001 17007 112384,112436,112410
 5.0000e-001 112485 -7.7415e-001  2.9462e+000  4.8235e-001 17007 112332,112436,112384
 5.0000e-001 112462 -1.2762e+000  1.9405e+000  3.1142e-001 17007 112332,112384,112358
 5.0000e-001 112658 -5.2187e+000 -7.3467e-001  6.3409e-001 16553 112557,112609,112583
 5.0000e-001 112635 -3.9603e+000 -4.4254e-001  8.0956e-001 16553 112531,112609,112557
 5.0000e-001 112761 -4.0884e+000  5.9257e+000 -1.2147e+000 16355 112683,112735,112709
 5.0000e-001 112913 -2.5885e+000  2.8582e+000  2.1189e-001 15949 112786,112838,112812
 5.0000e-001 112890 -7.6339e-001  5.9926e+000 -6.5503e-001 15949 112786,112864,112838
 5.0000e-001 113065 -1.4944e+000 -1.9476e+000 -2.6074e-001 15609 112938,112990,112964
 5.0000e-001 113042  3.7370e-001 -5.0820e-001  3.7546e-001 15609 112938,113016,112990
 5.0000e-001 113420  2.5164e+000  2.9306e+000  6.6224e-001 15284 113247,113325,113299
 5.0000e-001 113397  2.3524e+000  2.5430e+000  5.7041e-001 15284 113195,113325,113247
 5.0000e-001 113374  2.6095e+000  2.6826e+000  5.0169e-001 15284 113195,113247,113221
 5.0000e-001 113351  2.9223e+000  4.4547e+000  9.4483e-001 15284 113247,113299,113273
 5.0000e-001 113521  1.5874e+000  2.7921e+000 -1.0249e+000 202 113443,113495,113469
 1.0000e+000 65564  2.7282e-001  7.0480e+000  6.6921e-001 65155 65414,65466,65440
 1.0000e+000 65541 -9.3021e-001  1.5632e+000  3.4220e-001 65155 65414,65492,65466
 1.0000e+000 65518  3.3495e-002  1.9872e+000  2.7582e-001 65155 65388,65492,65414
 1.0000e+000 65883 -2.1094e-001  7.5863e-001  5.6798e-003 64957 65635,65739,65713
 1.0000e+000 65860 -7.7010e-002  1.3134e+000  1.4616e-003 64957 65635,65765,65739
 1.0000e+000 65837  1.0698e-001  1.3800e+000  1.4902e-002 64957 65609,65765,65635
 1.0000e+000 65814 -1.7030e-001  1.0014e+000 -3.2396e-001 64957 65635,65713,65687
 1.0000e+000 65791 -7.0261e-002  1.1744e+000 -2.3164e-001 64957 65635,65687,65661
 1.0000e+000 65984 -1.8066e-001  3.0701e-001  9.8903e-002 64781 65906,65958,65932
 1.0000e+000 66232  3.8179e-001  4.2249e-001 -3.9288e-001 64469 66007,66059,66033
 1.0000e+000 66209 -2.5431e-001 -8.3140e-002 -6.1550e-001 64469 66007,66085,66059
 1.0000e+000 66186  1.4278e-001  9.2725e-001 -2.6113e-001 64469 66007,66137,66085
 1.0000e+000 66163 -6.0473e-001 -8.0208e-003 -1.1690e+000 64469 66085,66137,66111
 1.0000e+000 66504 -2.9770e-002  1.1902e+000 -8.3988e-002 64271 66279,66383,66305
 1.0000e+000 66481 -9.6901e-002  1.2207e+000  3.0485e-003 64271 66279,66409,66383
 1.0000e+000 66458 -2.9378e-001  1.6871e+000 -1.2929e-001 64271 66305,66357,66331
 1.0000e+000 66435  1.0958e-001  1.5956e+000 -1.4434e-001 64271 66305,66383,66357
 1.0000e+000 66705 -1.2676e-002  1.8073e+000 -3.3536e-001 64073 66728,66581,66555
 1.0000e+000 66682  2.5034e-001  1.6901e+000 -3.2518e-001 64073 66728,66555,66529
 1.0000e+000 66659 -6.4310e-001  2.1402e+000  4.8555e-001 64073 66581,66633,66607
 1.0000e+000 66754 -1.0291e-001  1.7363e+000 -3.0452e-001 64073 66633,66581,66728
 1.0000e+000 66777  2.2587e-002  1.5105e+000 -2.4709e-001 64073 66633,66728,66529
 1.0000e+000 66951  2.5237e-001 -1.3714e-002  3.2628e-001 63783 66824,66876,66850
 1.0000e+000 66928 -9.2077e-001  6.9426e-001 -1.2136e-001 63783 66824,66902,66876
 1.0000e+000 67201  5.5604e-001  1.7391e+000 -5.3222e-002 63585 66976,67080,67054
 1.0000e+000 67178  2.5255e-001  1.6202e+000 -1.5774e-001 63585 66976,67106,67080
 1.0000e+000 67155  7.6845e-002  8.3296e-001  1.4288e-001 63585 66976,67054,67028
 1.0000e+000 67132  2.0349e-001  1.0721e+000  3.0575e-001 63585 66976,67028,67002
 1.0000e+000 67654 -1.3548e-001  1.0990e+000 -9.6315e-003 63295 67357,67487,67383
 1.0000e+000 67631 -2.2500e-001  1.3696e+000 -3.3504e-001 63295 67331,67487,67357
 1.0000e+000 67608  8.4465e-002  1.8139e+000  3.1817e-002 63295 67331,67513,67487
 1.0000e+000 67585 -1.3916e-002  1.9286e+000 -6.8628e-002 63295 67435,67487,67461
 1.0000e+000 67562  6.1566e-002  1.8897e+000  4.2629e-003 63295 67383,67487,67435
 1.0000e+000 67539 -2.7343e-002  1.5759e+000 -8.4427e-002 63295 67383,67435,67409
 1.0000e+000 67853 -5.2381e-002  1.2264e+000 -2.8933e-002 62891 67876,67703,67677
 1.0000e+000 67830  7.0872e-002  1.5347e+000 -5.7245e-002 62891 67876,67677,67781
 1.0000e+000 67807 -1.0004e-001  1.0259e+000 -9.3021e-002 62891 67948,67729,67703
 1.0000e+000 67902  1.4771e-002  1.1851e+000 -1.9026e-001 62891 67948,67703,67876
 1.0000e+000 67925  3.6858e-001  1.2813e+000 -2.5536e-001 62891 67755,67876,67781
 1.0000e+000 67974  9.4449e-002  8.2466e-001 -6.9647e-002 62891 67755,67729,67948
 1.0000e+000 67997  1.0548e-001  9.0161e-001 -1.3857e-001 62891 67755,67948,67876
 1.0000e+000 68218 -7.6790e-002 -2.0872e-002 -1.6542e-002 62693 68042,68120,68068
 1.0000e+000 68195  3.8050e-002  1.2408e-002 -4.7494e-002 62693 68042,68146,68120
 1.0000e+000 68172  2.6450e-001 -2.0613e-001 -7.3370e-002 62693 68068,68120,68094
 1.0000e+000 68468  3.3826e+000  3.8844e+000  1.5184e+000 62289 68491,68295,68269
 1.0000e+000 68445  7.1068e-001  3.0094e+000  9.9782e-001 62289 68563,68491,68269
 1.0000e+000 68422 -2.8908e-001  2.3285e+000  6.8585e-001 62289 68563,68269,68243
 1.0000e+000 68399  1.8593e+000  2.9285e+000 -8.9378e-001 62289 68295,68347,68321
 1.0000e+000 68517  1.3050e+000  3.9473e+000 -1.5701e-002 62289 68347,68295,68491
 1.0000e+000 68540  1.7157e-001  3.2392e+000  2.8664e-001 62289 68347,68491,68373
 1.0000e+000 68589  1.3934e+000  1.7789e+000  1.5561e-001 62289 68373,68491,68563
 1.0000e+000 68612  9.0215e-001  1.4684e+000 -2.4870e-002 62289 68373,68563,68243
 1.0000e+000 68911  4.1293e-002  1.3479e+000 -1.2154e-001 62091 69222,68934,68741
 1.0000e+000 68888 -2.8892e-001  1.3403e+000 -1.2938e-001 62091 69006,68934,68689
 1.0000e+000 68865 -4.6048e-001  1.1233e+000 -2.9182e-001 62091 69006,68689,68663
 1.0000e+000 68842  2.3860e-001  1.5311e+000  1.8502e-001 62091 69078,68793,68767
 1.0000e+000 68819  8.4408e-002  1.3854e+000 -2.8314e-001 62091 69222,68741,68715
 1.0000e+000 68960  2.8122e-001  1.4370e+000 -1.7160e-001 62091 68767,68741,68934
 1.0000e+000 68983  9.7797e-002  1.6298e+000 -2.1007e-002 62091 69078,68767,68934
 1.0000e+000 69032 -2.4293e-001  1.4414e+000 -8.2837e-002 62091 69150,69006,68637
 1.0000e+000 69055 -2.4071e-001  1.4052e+000 -1.3195e-001 62091 68637,69006,68663
 1.0000e+000 69104  1.0292e-001  1.2139e+000 -3.3390e-002 62091 68637,68793,69078
 1.0000e+000 69127 -2.0472e-001  1.3995e+000 -1.0416e-001 62091 69150,68637,69078
 1.0000e+000 69176 -1.2767e-001  1.3349e+000 -5.6218e-002 62091 68934,69006,69150
 1.0000e+000 69199  8.9819e-003  1.3952e+000 -1.1513e-001 62091 68934,69150,69078
 1.0000e+000 69248 -3.1938e-002  1.1641e+000 -1.3120e-001 62091 68689,68934,69222
 1.0000e+000 69271 -8.0369e-003  1.1138e+000 -2.4237e-001 62091 68689,69222,68715
 1.0000e+000 69521 -1.2667e+000  9.5282e-001  4.8503e-001 61893 69544,69348,69296
 1.0000e+000 69498 -5.0083e-001  1.5145e+000  1.6299e-001 61893 69544,69296,69400
 1.0000e+000 69475  1.3251e-001  8.0454e-001 -5.1370e-001 61893 69296,69426,69400
 1.0000e+000 69452 -2.0782e-001  4.8150e+000  3.3934e-001 61893 69296,69348,69322
 1.0000e+000 69570 -9.0013e-001  3.1018e-002  1.2717e+000 61893 69374,69348,69544
 1.0000e+000 69593  5.8435e-001  8.8403e-001  8.2772e-001 61893 69374,69544,69400
 1.0000e+000 70046 -1.4909e-001  1.1777e+000 -2.0594e-002 61467 69749,69905,69879
 1.0000e+000 70023 -1.9571e-001  9.5298e-001 -2.8522e-001 61467 69723,69905,69749
 1.0000e+000 70000 -2.9229e-001  1.1265e+000 -1.7037e-002 61467 70069,69827,69775
 1.0000e+000 69977  8.4192e-002  1.8244e+000 -2.6590e-001 61467 70069,69775,69749
 1.0000e+000 69954 -6.3519e-002  6.4945e-001  1.8103e-002 61467 70141,69853,69827
 1.0000e+000 69931 -3.8707e-001  1.4157e+000  4.5404e-001 61467 69775,69827,69801
 1.0000e+000 70095 -1.6044e-001  7.7488e-001  1.0020e-001 61467 70141,69827,70069
 1.0000e+000 70118 -1.7805e-001  1.1126e+000 -3.1902e-003 61467 69879,70069,69749
 1.0000e+000 70167 -1.4173e-001  8.3824e-001  8.3438e-003 61467 69879,69853,70141
 1.0000e+000 70190 -1.0812e-001  1.1347e+000  8.9914e-002 61467 69879,70141,70069
 1.0000e+000 70291  1.3882e-001  2.1250e+000  2.3039e-001 61013 70213,70265,70239
 1.0000e+000 70441 -3.0497e+000  1.6773e+000 -3.3319e-001 60651 70340,70392,70366
 1.0000e+000 70418 -2.7320e+000 -5.4224e-001  5.2722e-001 60651 70314,70392,70340
 1.0000e+000 70642 -1.2848e-001  1.1570e+000  3.8579e-001 60311 70665,70492,70466
 1.0000e+000 70619  3.8192e-002  1.5202e+000  3.2828e-001 60311 70665,70466,70570
 1.0000e+000 70596 -4.9966e-001  6.1928e-001  7.2790e-002 60311 70492,70544,70518
 1.0000e+000 70691  1.0777e-002  8.1463e-001 -5.0875e-003 60311 70544,70492,70665
 1.0000e+000 70714  2.6236e-001  1.3787e+000 -7.7007e-002 60311 70544,70665,70570
 1.0000e+000 70964 -2.6586e-001  9.1540e-001  1.4319e-001 59907 70987,70765,70739
 1.0000e+000 70941 -5.8482e-002  1.3806e+000 -1.2908e-002 59907 71059,70987,70739
 1.0000e+000 70918  4.3231e-002  1.9199e+000 -7.1688e-002 59907 71059,70739,70869
 1.0000e+000 70895  2.1812e-002  1.4427e+000 -7.4389e-002 59907 70817,70869,70843
 1.0000e+000 71013  1.8878e-002  9.9656e-001 -1.5296e-001 59907 70791,70765,70987
 1.0000e+000 71036 -3.0158e-002  1.1166e+000 -1.8101e-001 59907 70791,70987,70817
 1.0000e+000 71085  5.2445e-002  1.0192e+000 -9.9690e-002 59907 70817,70987,71059
 1.0000e+000 71108 -5.6614e-002  1.2590e+000 -6.4373e-002 59907 70817,71059,70869
 1.0000e+000 71441  1.6764e+000  4.5514e+000 -5.5933e-002 59417 71464,71242,71216
 1.0000e+000 71418  1.2494e+000  3.3330e+000  4.0154e-001 59417 71464,71216,71320
 1.0000e+000 71395  7.3633e-001  1.9680e+000  6.4887e-001 59417 71216,71346,71320
 1.0000e+000 71372 -1.5401e+000  2.8789e+000  1.8483e+000 59417 71268,71320,71294
 1.0000e+000 71490  1.6372e+000  4.3566e+000  1.3636e+000 59417 71268,71242,71464
 1.0000e+000 71513  4.6221e-001  2.1180e+000  1.9568e+000 59417 71268,71464,71320
 1.0000e+000 71712  3.0860e-001  1.6253e+000  7.6817e-002 58913 71562,71614,71588
 1.0000e+000 71689  6.1356e-001  1.2410e+000 -3.5114e-001 58913 71536,71614,71562
 1.0000e+000 71666  7.5036e-001  1.1341e+000 -2.9688e-001 58913 71536,71640,71614
 1.0000e+000 72171  3.3943e-001 -1.2071e-001 -1.1403e+000 58409 72194,72027,72001
 1.0000e+000 72148 -5.2521e-001 -5.3110e-002 -2.4595e-001 58409 72194,72001,71949
 1.0000e+000 72125 -4.2153e-001 -6.5374e-001  5.5726e-001 58409 71923,72053,71949
 1.0000e+000 72102  1.1103e+000  8.4389e-001 -6.3933e-001 58409 71949,72001,71975
 1.0000e+000 72079 -1.5480e+000 -5.9455e-001  1.0191e+000 58409 71897,72053,71923
 1.0000e+000 72220 -8.5562e-001 -5.6590e-001 -1.0375e+000 58409 72053,72027,72194
 1.0000e+000 72243 -1.3337e+000 -1.7994e-001 -2.2621e-001 58409 72053,72194,71949
 1.0000e+000 72491 -2.2950e+000 -6.3284e-001 -1.4635e+000 57855 72514,72318,72292
 1.0000e+000 72468  1.6092e+000  1.0778e+000 -1.7810e+000 57855 72514,72292,72266
 1.0000e+000 72445 -1.2500e+000  3.7330e-001  1.8282e-001 57855 72318,72396,72370
 1.0000e+000 72422 -3.0399e+000  1.4413e+000 -7.6338e-001 57855 72318,72370,72344
 1.0000e+000 72540 -2.6570e+000 -1.2511e-001 -9.1791e-001 57855 72396,72318,72514
 1.0000e+000 72563 -2.2850e+000 -1.8255e-001 -1.0064e+000 57855 72396,72514,72266
 1.0000e+000 72811  1.1133e+000  4.6288e-001 -4.6564e-001 57401 72612,72690,72638
 1.0000e+000 72788 -2.0030e-002 -4.6117e-003  1.6163e-001 57401 72586,72690,72612
 1.0000e+000 72765 -6.0342e-001 -4.2484e-001 -8.2976e-001 57401 72638,72690,72664
 1.0000e+000 72742  2.1893e-001  9.7088e-001 -1.1394e-001 57401 72586,72716,72690
 1.0000e+000 73144  1.6471e-001  8.8242e-001 -1.9747e-001 57004 72919,72997,72945
 1.0000e+000 73121  2.6466e-001  1.6054e+000 -3.9634e-001 57004 72919,73049,72997
 1.0000e+000 73098  2.6437e-001  1.1935e+000 -3.9560e-001 57004 72945,72997,72971
 1.0000e+000 73075  3.5723e-001  2.0226e+000 -5.3841e-001 57004 72997,73049,73023
 1.0000e+000 73650  6.1485e-001 -1.8262e-001  3.8298e-001 56592 73673,73379,73353
 1.0000e+000 73627  1.9972e+000  3.8398e-001  4.5608e-001 56592 73673,73353,73327
 1.0000e+000 73604  1.1273e+000  1.1546e-001  9.8725e-001 56592 73745,73509,73483
 1.0000e+000 73581  1.0083e+000  7.4866e-001  3.6197e-001 56592 73379,73457,73405
 1.0000e+000 73558  1.4185e+000  6.5068e-001  9.1463e-001 56592 73379,73483,73457
 1.0000e+000 73535  3.1752e+000  4.4714e-001  3.3410e-002 56592 73405,73457,73431
 1.0000e+000 73699  1.0012e+000  4.0901e-001  8.0020e-001 56592 73483,73379,73673
 1.0000e+000 73722  1.0836e+000  4.2183e-001  8.8187e-001 56592 73745,73483,73673
 1.0000e+000 73771  1.1425e+000 -3.8744e-001  1.0915e+000 56592 73327,73509,73745
 1.0000e+000 73794  1.1646e+000 -7.0540e-002  9.2280e-001 56592 73327,73745,73673
 1.0000e+000 74123  2.4183e+000  1.9963e+000  7.1541e-001 56152 74146,74002,73924
 1.0000e+000 74100  1.6550e+000  1.9808e+000  4.0201e-001 56152 74146,73924,73898
 1.0000e+000 74077  2.3149e+000  9.0640e-001  1.0641e+000 56152 73924,74002,73976
 1.0000e+000 74054  2.7766e+000  2.0019e+000  1.5419e+000 56152 73924,73976,73950
 1.0000e+000 74172  3.2312e+000  1.3645e+000  2.0730e-001 56152 74028,74002,74146
 1.0000e+000 74195  2.0626e+000  1.5165e+000 -8.3660e-002 56152 74028,74146,73898
 1.0000e+000 74345 -2.4732e+000 -3.9227e-001 -1.1324e-001 55634 74218,74270,74244
 1.0000e+000 74322 -1.3549e+000 -2.3081e-001 -4.2550e-001 55634 74218,74296,74270
 1.0000e+000 74823  5.5269e-002 -1.2719e+000  6.7167e-001 55016 74918,74846,74581
 1.0000e+000 74800 -5.9055e-001 -8.8159e-001  3.3531e-001 55016 74846,74477,74633
 1.0000e+000 74777 -1.0667e+000 -2.5317e+000  1.1609e+000 55016 74918,74581,74555
 1.0000e+000 74754 -1.7527e+000 -1.5394e+000  1.6916e+000 55016 74990,74503,74477
 1.0000e+000 74731 -1.3592e+000 -1.1307e+000  4.0946e-001 55016 74451,74633,74477
 1.0000e+000 74708 -2.0268e+000 -1.0250e+000  4.0212e-001 55016 74451,74659,74633
 1.0000e+000 74685 -2.4025e+000 -2.9814e+000  3.2336e+000 55016 74503,74555,74529
 1.0000e+000 74872  3.8887e-001 -9.1837e-001  8.1950e-003 55016 74607,74581,74846
 1.0000e+000 74895 -6.4568e-001 -1.6019e+000  3.1472e-001 55016 74607,74846,74633
 1.0000e+000 74944 -1.9662e+000 -1.6674e+000  7.1330e-001 55016 74477,74846,74918
 1.0000e+000 74967 -2.1564e+000 -1.4692e+000  1.0788e+000 55016 74990,74477,74918
 1.0000e+000 75016 -3.4999e-001 -9.1093e-001  2.1013e+000 55016 74555,74503,74990
 1.0000e+000 75039 -8.4190e-001 -1.0894e+000  1.3932e+000 55016 74555,74990,74918
 1.0000e+000 75287 -2.0092e+000 -2.7430e+000  1.6631e-001 54726 75310,75140,75114
 1.0000e+000 75264 -2.3481e+000 -1.6449e+000 -5.3206e-002 54726 75310,75114,75088
 1.0000e+000 75241 -3.4854e+000 -1.6283e+000 -1.3523e+000 54726 75088,75192,75166
 1.0000e+000 75218 -6.2615e+000 -2.9169e-001 -1.4198e+000 54726 75062,75192,75088
 1.0000e+000 75336 -1.6809e+000 -2.1695e+000 -5.5575e-001 54726 75166,75140,75310
 1.0000e+000 75359 -2.3308e+000 -9.7509e-001 -4.8988e-001 54726 75166,75310,75088
 1.0000e+000 75946 -8.3293e-002  1.7612e-001  1.3632e-001 54322 75969,75701,75649
 1.0000e+000 75923 -6.1163e-001 -1.7622e-001  2.9045e-001 54322 75969,75649,75623
 1.0000e+000 75900 -3.4397e-001  6.3347e-003 -8.7505e-002 54322 76041,75753,75701
 1.0000e+000 75877 -1.2171e-001  8.1323e-001 -6.4316e-002 54322 75623,75805,75779
 1.0000e+000 75854 -3.6985e-001  6.6064e-002 -2.6602e-001 54322 75701,75753,75727
 1.0000e+000 75831 -1.5178e-001 -2.6513e-002  6.5389e-002 54322 75649,75701,75675
 1.0000e+000 75995 -4.5157e-001  7.5609e-002  1.1680e-002 54322 76041,75701,75969
 1.0000e+000 76018 -4.5344e-001  2.4945e-001  1.0301e-001 54322 75779,75969,75623
 1.0000e+000 76067 -3.0214e-001  1.9119e-001 -1.2452e-001 54322 75779,75753,76041
 1.0000e+000 76090 -3.6412e-001  3.2755e-001 -2.2146e-002 54322 75779,76041,75969
 1.0000e+000 76468 -2.2937e-001  2.3932e-001  3.3198e-002 53868 76491,76272,76220
 1.0000e+000 76445 -3.0351e-001  2.7956e-001 -3.2175e-002 53868 76491,76220,76324
 1.0000e+000 76422 -1.4105e-001  4.4291e-001  2.8285e-003 53868 76220,76272,76246
 1.0000e+000 76399 -3.9502e-001  4.7861e-001  6.3860e-002 53868 76194,76324,76220
 1.0000e+000 76376 -9.0817e-001  2.7336e-001 -7.6289e-002 53868 76194,76350,76324
 1.0000e+000 76517 -2.7797e-001  1.6768e-001  2.7158e-003 53868 76298,76272,76491
 1.0000e+000 76540 -3.4606e-001  2.2615e-001 -5.9338e-002 53868 76298,76491,76324
 1.0000e+000 76690 -1.9159e-001  4.1759e-001 -8.1363e-002 53356 76589,76641,76615
 1.0000e+000 76667  2.9274e-002  7.9286e-001  1.5429e-002 53356 76563,76641,76589
 1.0000e+000 76938 -3.0178e-001  4.9312e-001 -6.0071e-001 53009 77105,76961,76765
 1.0000e+000 76915  9.1160e-002  5.8205e-001 -3.2174e-001 53009 76961,76713,76843
 1.0000e+000 76892 -2.4697e-001  5.7170e-001 -1.8290e-001 53009 77033,76817,76791
 1.0000e+000 76869 -7.8394e-001  1.4897e-001 -1.0624e+000 53009 77105,76765,76739
 1.0000e+000 76987 -7.1113e-002  1.2505e+000 -4.2883e-001 53009 76791,76765,76961
 1.0000e+000 77010 -2.6498e-001  6.2984e-001 -3.3526e-001 53009 77033,76791,76961
 1.0000e+000 77059 -1.2046e-002  6.8134e-001 -2.2669e-001 53009 76843,76817,77033
 1.0000e+000 77082 -5.2438e-002  7.0983e-001 -3.6758e-001 53009 76843,77033,76961
 1.0000e+000 77131  1.9965e-001  8.2009e-001 -3.7739e-001 53009 76713,76961,77105
 1.0000e+000 77154  1.1796e-001  7.7491e-001 -7.6356e-001 53009 76713,77105,76739
 1.0000e+000 77355  2.5515e+000 -2.0939e+000  1.4506e+000 52390 77378,77257,77231
 1.0000e+000 77332  2.0171e+000 -9.4453e-001  1.0452e+000 52390 77378,77231,77179
 1.0000e+000 77309  2.5623e+000 -2.1640e+000 -5.4519e-001 52390 77179,77231,77205
 1.0000e+000 77404  2.8728e+000 -1.2651e+000  9.9304e-001 52390 77283,77257,77378
 1.0000e+000 77427  2.4430e+000  1.2430e-001  6.2691e-001 52390 77283,77378,77179
 1.0000e+000 77677 -1.0045e+000  2.2443e+000 -1.2557e+000 51986 77700,77504,77478
 1.0000e+000 77654  2.8528e-001  3.1611e+000 -1.6739e+000 51986 77700,77478,77452
 1.0000e+000 77631 -7.3997e-002  1.4439e+000 -4.4835e-001 51986 77772,77556,77530
 1.0000e+000 77608 -3.1566e-001  1.2112e+000 -6.9287e-001 51986 77452,77582,77556
 1.0000e+000 77726 -1.0564e-001  2.1785e+000 -5.5789e-001 51986 77530,77504,77700
 1.0000e+000 77749  1.7787e-001  1.9869e+000 -6.1422e-001 51986 77772,77530,77700
 1.0000e+000 77798  2.2011e-001  1.6757e+000 -8.9445e-001 51986 77452,77556,77772
 1.0000e+000 77821  3.7271e-001  1.8183e+000 -1.0359e+000 51986 77452,77772,77700
 1.0000e+000 78282 -7.5966e-001  6.5306e-001  4.4988e-001 51738 78008,78138,78060
 1.0000e+000 78259 -1.3099e+000  8.3669e-001 -6.8859e-001 51738 78008,78164,78138
 1.0000e+000 78236 -4.0979e-001  2.1709e-002  1.4465e-001 51738 78086,78138,78112
 1.0000e+000 78213 -2.9154e-001  1.3037e-002  2.8183e-001 51738 78060,78138,78086
 1.0000e+000 78190 -1.9199e+000  4.1237e+000  1.3073e+000 51738 78008,78060,78034
 1.0000e+000 78432 -4.4144e-001 -1.0646e-001 -6.9822e-003 51148 78305,78357,78331
 1.0000e+000 78409 -3.7031e-001 -1.4532e-002 -3.8509e-002 51148 78305,78383,78357
 1.0000e+000 78891 -1.0249e-001 -1.8860e-002  1.8912e-001 50808 78914,78695,78669
 1.0000e+000 78868 -2.7468e-002  1.4943e-001  1.6997e-001 50808 78914,78669,78643
 1.0000e+000 78845 -3.2637e-002  1.2404e-001  2.1216e-002 50808 78643,78773,78747
 1.0000e+000 78822  2.2218e-001  2.4858e-001  1.3928e-001 50808 78617,78773,78643
 1.0000e+000 78799 -3.8806e-002  2.1142e-001  8.4280e-002 50808 78695,78747,78721
 1.0000e+000 78940 -7.8141e-002  1.1096e-001  8.4538e-002 50808 78747,78695,78914
 1.0000e+000 78963 -6.6685e-002  1.8894e-001  8.0384e-002 50808 78747,78914,78643
 1.0000e+000 79260 -4.7254e-001 -9.1538e-002 -2.0897e-001 50468 79283,79090,79012
 1.0000e+000 79237 -4.3398e-001 -9.3435e-002 -1.9870e-001 50468 79283,79012,78986
 1.0000e+000 79214 -6.2796e-001 -1.6306e-001 -2.6468e-001 50468 79012,79090,79038
 1.0000e+000 79191 -3.9775e-001 -8.8484e-003 -3.0514e-001 50468 78986,79142,79116
 1.0000e+000 79168 -5.9883e-001 -1.3042e-001 -2.3939e-001 50468 79038,79090,79064
 1.0000e+000 79309 -5.0987e-001 -8.5974e-002 -2.1092e-001 50468 79116,79090,79283
 1.0000e+000 79332 -4.6313e-001 -8.0174e-002 -1.9787e-001 50468 79116,79283,78986
 1.0000e+000 79889  1.6952e+000  1.8525e+000 -6.9575e-001 50064 79569,79725,79699
 1.0000e+000 79866  1.0012e-001  9.4894e-001 -1.7519e+000 50064 79543,79725,79569
 1.0000e+000 79843  1.4694e+000  8.3157e-001 -6.3422e-001 50064 79621,79699,79673
 1.0000e+000 79820  1.5519e+000  1.0077e+000 -8.4452e-001 50064 79595,79699,79621
 1.0000e+000 79797  8.0203e-001  1.2400e+000 -1.1225e+000 50064 79569,79699,79595
 1.0000e+000 79774  1.7300e+000  3.2204e+000 -1.1428e-001 50064 79517,79725,79543
 1.0000e+000 79751  6.1451e-001  8.6450e-001 -7.2106e-001 50064 79621,79673,79647
 1.0000e+000 80169  1.4764e+000  1.9030e+000 -8.7684e-001 49724 80019,80097,80071
 1.0000e+000 80146  1.1742e+000  3.1528e+000 -1.1953e+000 49724 79993,80097,80019
 1.0000e+000 80123  8.5996e-001  1.6762e+000 -9.5130e-001 49724 80019,80071,80045
 1.0000e+000 80626 -8.6731e-001 -3.1807e-001 -1.6181e-001 49277 80352,80482,80378
 1.0000e+000 80603 -7.3342e-001 -2.9958e-001  6.5752e-002 49277 80352,80508,80482
 1.0000e+000 80580 -8.8063e-001 -1.9716e-001 -1.4347e-001 49277 80378,80482,80456
 1.0000e+000 80557 -7.6785e-001 -6.7816e-001 -7.9879e-002 49277 80378,80430,80404
 1.0000e+000 80534 -1.2904e+000 -3.4054e-001 -6.0445e-003 49277 80378,80456,80430
 1.0000e+000 81230  1.6183e-001 -8.3485e-001  6.8577e-001 48716 81253,80835,80809
 1.0000e+000 81207  4.9289e-001 -1.4597e-001  5.2323e-001 48716 81397,81253,80809
 1.0000e+000 81184 -3.8727e-001  1.1905e+000 -1.1857e-001 48716 81325,80913,80887
 1.0000e+000 81161 -2.1830e-001 -5.4610e-001  7.4900e-001 48716 81397,80809,81017
 1.0000e+000 81138 -6.5050e-001  8.8320e-001 -1.0418e-001 48716 81469,80965,80913
 1.0000e+000 81115 -5.3061e-001 -6.6427e-002  1.0709e+000 48716 80835,80887,80861
 1.0000e+000 81092  2.2816e-001 -1.4899e+000  2.5833e+000 48716 80809,81043,81017
 1.0000e+000 81069 -6.5522e-001 -2.0320e-001 -8.5861e-001 48716 80913,80965,80939
 1.0000e+000 81279  9.0503e-001 -1.1148e-002  7.1663e-002 48716 80887,80835,81253
 1.0000e+000 81302 -2.8159e-001  1.1699e+000 -3.0221e-001 48716 81325,80887,81253
 1.0000e+000 81351 -4.3892e-001  9.9490e-001 -1.7267e-002 48716 81469,80913,81325
 1.0000e+000 81374 -4.7312e-001  1.3707e+000 -5.5376e-002 48716 80991,81325,81253
 1.0000e+000 81423 -7.4580e-001  7.5628e-001  7.7703e-001 48716 80991,81253,81397
 1.0000e+000 81446 -1.6312e+000  1.3798e-001  1.0929e+000 48716 80991,81397,81017
 1.0000e+000 81495 -1.0504e+000  1.1199e+000 -2.0605e-001 48716 80991,80965,81469
 1.0000e+000 81518 -8.9082e-001  1.1775e+000 -1.3331e-001 48716 80991,81469,81325
 1.0000e+000 81717 -1.6122e-001  1.8054e-001 -4.1504e-002 48262 81740,81567,81541
 1.0000e+000 81694 -3.0680e-002  2.4240e-001 -5.9163e-002 48262 81740,81541,81645
 1.0000e+000 81671 -1.6860e-001 -3.7293e-002 -1.9404e-002 48262 81567,81619,81593
 1.0000e+000 81766 -8.6118e-002  1.2918e-001  4.6898e-002 48262 81619,81567,81740
 1.0000e+000 81789  3.7650e-002  1.8504e-001  3.5073e-002 48262 81619,81740,81645
 1.0000e+000 81939  1.9036e+000  2.4346e+000 -6.0230e-002 47957 82034,81962,81864
 1.0000e+000 81916  6.9715e-001  1.8569e+000 -3.2179e-001 47957 82166,81962,81838
 1.0000e+000 81988  2.0510e+000  2.4053e+000  5.8142e-001 47957 82294,81962,81890
 1.0000e+000 82011  1.7683e+000  2.5251e+000  3.0300e-001 47957 81890,81962,81812
 1.0000e+000 82060  1.7715e+000  2.2135e+000  1.4274e-002 47957 81838,81962,82034
 1.0000e+000 82192  9.3515e-001  2.0473e+000  5.9755e-001 47957 81812,81962,82166
 1.0000e+000 82320  2.8517e+000  2.3018e+000  2.3707e-001 47957 81864,81962,82294
 1.0000e+000 82549 -3.8649e-001  1.1550e-001 -7.5976e-002 47617 82448,82500,82474
 1.0000e+000 82526 -2.4149e-001  7.4524e-001 -4.5057e-002 47617 82422,82500,82448
 1.0000e+000 82902 -1.7380e+000 -1.2885e-001  9.6235e-002 47255 82729,82807,82755
 1.0000e+000 82879 -2.5676e+000 -2.7370e-001 -3.9512e-001 47255 82703,82807,82729
 1.0000e+000 82856 -1.5297e+000 -8.7125e-002 -1.3074e-001 47255 82755,82807,82781
 1.0000e+000 82833 -4.0386e+000 -9.0419e-001 -5.4329e-001 47255 82677,82807,82703
 1.0000e+000 83182  1.1735e-001 -6.5954e-001  3.7691e-001 46680 83032,83084,83058
 1.0000e+000 83159  6.0681e-001 -3.4100e-001  6.6088e-001 46680 83205,83084,83032
 1.0000e+000 83136 -3.9764e-001  2.1460e-001  4.3557e-001 46680 83006,83110,83084
 1.0000e+000 83231  1.1876e+000  8.8355e-002  8.6447e-001 46680 83006,83084,83205
 1.0000e+000 83737 -1.4615e+000 -4.1476e-001  2.2091e-001 46290 83832,83760,83492
 1.0000e+000 83714 -1.2439e+000 -1.4348e-001  1.4725e-001 46290 83760,83440,83414
 1.0000e+000 83691 -1.0949e+000 -6.4932e-001  1.5470e-001 46290 83832,83492,83466
 1.0000e+000 83668 -1.2010e+000 -1.1570e+000  6.0746e-001 46290 83492,83570,83544
 1.0000e+000 83645 -2.0924e+000 -5.0548e-001  1.1352e-001 46290 83414,83596,83570
 1.0000e+000 83622 -1.4063e+000 -7.6377e-001  9.3682e-001 46290 83492,83544,83518
 1.0000e+000 83786 -1.5419e+000 -3.6976e-001  3.2431e-001 46290 83570,83492,83760
 1.0000e+000 83809 -1.3597e+000 -4.2343e-001  1.6331e-001 46290 83570,83760,83414
 1.0000e+000 83858 -9.8259e-001 -1.9352e-001  3.3777e-001 46290 83440,83760,83832
 1.0000e+000 83881 -2.8237e-001 -3.0059e-001  1.7104e-001 46290 83440,83832,83466
 1.0000e+000 84161  1.3740e-001 -4.2356e-001  1.1638e-002 45829 84011,84063,84037
 1.0000e+000 84138 -2.4484e-001 -4.4669e-001 -7.9083e-002 45829 84011,84089,84063
 1.0000e+000 84115  6.3421e-002 -3.1406e-001 -6.7780e-002 45829 83985,84089,84011
 1.0000e+000 84311 -2.6586e+000  6.3546e-001  5.6389e-002 45631 84184,84236,84210
 1.0000e+000 84288 -3.0722e+000 -2.1546e-001  1.8886e-001 45631 84184,84262,84236
 1.0000e+000 84657 -3.2748e-001  1.9405e-001 -9.7612e-002 45155 84680,84490,84412
 1.0000e+000 84634 -2.8708e-001  2.1651e-001 -8.7506e-002 45155 84680,84412,84360
 1.0000e+000 84611 -3.5271e-001  1.5513e-001 -1.7535e-002 45155 84412,84490,84438
 1.0000e+000 84588 -1.4749e-001  3.1773e-001 -8.0294e-002 45155 84334,84516,84360
 1.0000e+000 84565 -2.1987e-001  4.0212e-001 -4.3147e-001 45155 84360,84412,84386
 1.0000e+000 84542 -4.9453e-001 -9.3289e-002 -1.5050e-001 45155 84438,84490,84464
 1.0000e+000 84706 -3.6328e-001  2.2272e-001 -9.7716e-002 45155 84516,84490,84680
 1.0000e+000 84729 -3.3531e-001  2.3610e-001 -9.0313e-002 45155 84516,84680,84360
 1.0000e+000 85077 -6.2221e-002 -1.1800e-001 -2.6783e-001 44508 85100,84754,84910
 1.0000e+000 85054 -1.0523e-001  2.9949e-001 -1.6213e-001 44508 84754,84936,84910
 1.0000e+000 85031 -4.3796e-001 -5.0894e-001  1.1003e-001 44508 85100,84910,84884
 1.0000e+000 85008 -2.0350e-001  3.8205e-001 -4.7419e-001 44508 84780,84884,84832
 1.0000e+000 84985 -2.4041e-001  3.3138e-001 -4.1693e-001 44508 84780,84832,84806
 1.0000e+000 84962 -1.4451e+000 -7.6781e-001  6.4544e-002 44508 84832,84884,84858
 1.0000e+000 85126 -3.6956e-001  4.7995e-001 -5.5785e-001 44508 84780,84754,85100
 1.0000e+000 85149 -6.5243e-001  8.4794e-002 -2.1258e-001 44508 84780,85100,84884
 1.0000e+000 85482  1.8663e-001  4.2432e-002 -6.2904e-002 44104 85335,85387,85361
 1.0000e+000 85459  1.7056e-001 -1.7174e-001 -2.5100e-002 44104 85309,85387,85335
 1.0000e+000 85436  1.5387e-001 -1.1840e-001 -6.1871e-002 44104 85257,85387,85309
 1.0000e+000 85413  1.0930e-001  7.0447e-003  2.1101e-002 44104 85257,85309,85283
 1.0000e+000 85811 -4.7457e-001 -3.5250e-002 -1.3397e-001 43600 85586,85664,85612
 1.0000e+000 85788 -2.3481e-001  4.4429e-001 -2.1397e-001 43600 85586,85690,85664
 1.0000e+000 85765 -4.9520e-001  5.7149e-001 -2.8937e-001 43600 85586,85716,85690
 1.0000e+000 85742 -5.5425e-001 -6.7564e-003 -2.3432e-001 43600 85612,85664,85638
 1.0000e+000 86010  2.5578e-001  5.5543e-001 -1.6710e-001 43224 85886,85938,85912
 1.0000e+000 85987  1.9150e-001  3.6680e-001 -1.6039e-001 43224 85834,85938,85886
 1.0000e+000 85964  2.4385e-001 -3.4581e-001 -1.5384e-001 43224 85834,85886,85860
 1.0000e+000 86420  2.4726e+000  1.2705e+000  6.3712e-002 42820 86195,86299,86221
 1.0000e+000 86397  2.4476e+000  2.2628e+000 -5.3870e-001 42820 86195,86325,86299
 1.0000e+000 86374  1.9727e+000  1.4651e+000  2.9650e-001 42820 86221,86299,86273
 1.0000e+000 86351  1.4946e+000  8.8869e-001 -8.4089e-002 42820 86221,86273,86247
 1.0000e+000 86749  7.5458e-001  3.0851e-001  1.2279e-002 42223 86550,86602,86576
 1.0000e+000 86726  2.0491e+000 -2.3075e-001  2.6176e-001 42223 86550,86628,86602
 1.0000e+000 86703  8.0552e-001 -6.1642e-001  7.7982e-001 42223 86524,86628,86550
 1.0000e+000 86680  1.4119e+000  9.0788e-001  6.5820e-001 42223 86524,86654,86628
 1.0000e+000 87078  6.4746e-001  5.7224e-002  2.1319e-001 41883 87173,87101,86905
 1.0000e+000 87055  7.3382e-001  1.5480e+000  1.3701e-001 41883 87101,86879,86853
 1.0000e+000 87032  2.9712e-001  6.6802e-001  8.9880e-003 41883 86853,86983,86931
 1.0000e+000 87009  2.8894e-001  9.3377e-001 -2.0329e-001 41883 86931,86983,86957
 1.0000e+000 87127  9.8045e-001  7.1293e-001  1.3550e-002 41883 86931,86905,87101
 1.0000e+000 87150  2.7467e-001  4.8673e-001  1.8523e-002 41883 86931,87101,86853
 1.0000e+000 87199  6.5898e-001  6.8722e-001  4.2722e-001 41883 86879,87101,87173
 1.0000e+000 87558 -1.9137e-002  7.8331e-001 -3.0671e-001 41471 87382,87460,87408
 1.0000e+000 87535 -1.3503e+000  7.7170e-001 -1.9883e-001 41471 87382,87486,87460
 1.0000e+000 87512  3.1746e-001  1.0739e-001 -1.3085e-001 41471 87408,87460,87434
 1.0000e+000 87806  1.0484e-001  4.8260e-001 -4.8103e-001 41017 87829,87607,87581
 1.0000e+000 87783  1.2961e-001  1.9887e-001 -4.5538e-002 41017 87829,87581,87685
 1.0000e+000 87760  4.5051e-001  2.8255e-001 -1.3882e-001 41017 87581,87711,87685
 1.0000e+000 87737  1.6898e-001 -2.2090e-001  7.1855e-002 41017 87633,87685,87659
 1.0000e+000 87855 -1.8090e-001  2.8727e-001 -2.9803e-001 41017 87633,87607,87829
 1.0000e+000 87878 -2.5069e-001 -4.3644e-002  1.4802e-001 41017 87633,87829,87685
 1.0000e+000 88258  3.0101e-001  2.4741e-001 -5.1335e-001 40613 88281,88036,88010
 1.0000e+000 88235 -1.0363e-001  1.1901e-001 -3.4590e-001 40613 88281,88010,88088
 1.0000e+000 88212 -5.7421e-002 -1.7607e-001 -1.2152e-001 40613 87984,88088,88010
 1.0000e+000 88189  4.4498e-002  3.6863e-002 -2.8570e-002 40613 87984,88114,88088
 1.0000e+000 88166  7.2718e-004  1.4989e-002 -1.8086e-002 40613 87984,88140,88114
 1.0000e+000 88307 -7.6353e-002  4.4559e-001 -2.7668e-001 40613 88062,88036,88281
 1.0000e+000 88330 -7.2416e-001 -5.4492e-003 -1.4430e-002 40613 88062,88281,88088
 1.0000e+000 88649 -3.0532e+000 -5.5061e-001 -2.4773e-001 40095 88375,88505,88401
 1.0000e+000 88626 -3.9452e+000 -4.9867e-002 -5.4067e-001 40095 88375,88531,88505
 1.0000e+000 88603 -2.5580e+000 -3.8184e-001 -1.9293e-001 40095 88401,88505,88479
 1.0000e+000 88580 -1.8926e+000  7.6390e-001  4.6954e-001 40095 88427,88479,88453
 1.0000e+000 88557 -2.5560e+000 -4.7743e-001 -1.8399e-001 40095 88401,88479,88427
 1.0000e+000 89078  1.3853e+000 -3.8561e-001 -4.0797e-001 39897 89101,88833,88807
 1.0000e+000 89055  8.9062e-001 -5.7252e-001 -4.6739e-001 39897 89101,88807,88911
 1.0000e+000 89032  5.0864e-001 -3.3345e-001 -7.5413e-001 39897 88781,88911,88807
 1.0000e+000 89009 -1.3133e-001 -4.9759e-001 -6.4745e-001 39897 88781,88937,88911
 1.0000e+000 88986  2.7520e+000  7.5786e-001 -3.5932e-001 39897 88833,88885,88859
 1.0000e+000 88963 -5.9787e-001 -6.0075e-001 -9.0448e-001 39897 88755,88937,88781
 1.0000e+000 89127  1.8304e+000 -6.6700e-001 -8.5065e-001 39897 88885,88833,89101
 1.0000e+000 89150  1.0702e+000 -1.0053e+000 -9.8874e-001 39897 88885,89101,88911
 1.0000e+000 89300 -1.2411e+000 -8.1590e-001  6.6631e-001 39607 89453,89323,89199
 1.0000e+000 89277 -1.8821e+000 -2.7074e-001  5.6407e-001 39607 89525,89453,89199
 1.0000e+000 89349 -9.9315e-001 -7.6419e-001  1.7962e-001 39607 89225,89199,89323
 1.0000e+000 89479 -9.8308e-001  4.3490e-002  5.2323e-001 39607 89251,89323,89453
 1.0000e+000 89502 -9.1647e-001  5.2220e-001  1.0449e+000 39607 89251,89453,89173
 1.0000e+000 89551 -6.2312e-001  1.4456e-001  5.9967e-001 39607 89173,89453,89525
 1.0000e+000 90264 -8.0031e-001 -9.2572e-001 -1.5534e-001 39039 89996,90074,90048
 1.0000e+000 90241 -4.8060e-001 -1.9457e-001 -5.6005e-002 39039 89918,90074,89996
 1.0000e+000 90218 -9.6930e-001 -6.6720e-001  1.7876e-001 39039 89918,89996,89944
 1.0000e+000 90195 -1.4133e+000 -4.3383e-001  1.4610e-001 39039 89892,90074,89918
 1.0000e+000 90172  2.9325e-003 -9.0499e-001 -2.2447e-001 39039 89996,90048,90022
 1.0000e+000 90149 -2.0530e+000  1.5213e+000  3.0809e-003 39039 89892,90100,90074
 1.0000e+000 90126 -1.2759e+000 -7.8313e-001 -1.1314e-001 39039 89944,89996,89970
 1.0000e+000 90770 -5.2385e-001 -2.7689e-001 -3.1945e-002 38635 90473,90603,90577
 1.0000e+000 90747 -6.3992e-001 -3.4701e-001  1.7087e-002 38635 90447,90603,90473
 1.0000e+000 90724 -7.6680e-001 -3.9683e-001  9.7270e-002 38635 90499,90577,90551
 1.0000e+000 90701 -4.6875e-001 -1.8707e-001 -5.7513e-002 38635 90473,90577,90499
 1.0000e+000 90678 -4.1769e-001 -2.3148e-001 -2.5795e-002 38635 90499,90551,90525
 1.0000e+000 90655 -2.7660e-001 -2.1139e-001 -1.2248e-001 38635 90447,90629,90603
 1.0000e+000 90871 -5.1582e-001 -1.2921e-001 -8.9457e-002 38231 90793,90845,90819
 1.0000e+000 91458  3.5629e-001  2.0042e-001  2.7541e-002 37534 91161,91317,91291
 1.0000e+000 91435  3.2376e-001  4.1779e-001  1.6825e-001 37534 91135,91317,91161
 1.0000e+000 91412  5.7386e-002 -3.2438e-001 -2.9851e-001 37534 91187,91291,91239
 1.0000e+000 91389  3.0923e-001 -3.1559e-001  1.0679e-001 37534 91161,91291,91187
 1.0000e+000 91366  2.3250e-001 -1.9909e-001 -2.4240e-001 37534 91239,91291,91265
 1.0000e+000 91343  6.8193e-001 -3.8410e-001 -5.6647e-001 37534 91187,91239,91213
 1.0000e+000 91915 -5.0689e-001 -1.1453e-001  1.4491e-001 37080 91938,91745,91667
 1.0000e+000 91892 -5.8212e-001  1.2843e-002  3.7275e-001 37080 91938,91667,91797
 1.0000e+000 91869 -1.0068e+000  6.8094e-001 -4.7031e-002 37080 91641,91797,91667
 1.0000e+000 91846 -8.6162e-001 -3.9316e-001  3.2322e-001 37080 91667,91719,91693
 1.0000e+000 91823 -8.4211e-001 -3.7476e-001  2.5811e-001 37080 91667,91745,91719
 1.0000e+000 91964 -3.1811e-001  2.5459e-001  4.9701e-002 37080 91771,91745,91938
 1.0000e+000 91987 -4.9065e-001  1.2682e-001  2.9878e-001 37080 91771,91938,91797
 1.0000e+000 92235 -1.0500e+000 -4.3030e-001 -4.7289e-002 36397 92036,92088,92062
 1.0000e+000 92212 -8.2058e-001 -3.6316e-001 -1.3768e-001 36397 92036,92114,92088
 1.0000e+000 92189 -5.2010e-001 -2.2550e-001 -1.0464e-001 36397 92036,92140,92114
 1.0000e+000 92166 -4.3764e-001 -1.1926e-001 -6.5227e-002 36397 92010,92140,92036
 1.0000e+000 92694  4.8680e-002  1.8940e-002 -1.4205e-002 36057 92446,92498,92472
 1.0000e+000 92671  6.5596e-002  5.2237e-003  2.6960e-002 36057 92446,92550,92498
 1.0000e+000 92648  1.4887e-002 -1.4387e-001  5.7509e-002 36057 92446,92576,92550
 1.0000e+000 92625  5.2360e-002 -1.2128e-002 -1.2025e-001 36057 92420,92576,92446
 1.0000e+000 92602  4.9742e-003  4.6999e-003  5.0567e-002 36057 92498,92550,92524
 1.0000e+000 93023 -6.4622e-001  7.5577e-003 -7.6510e-002 35717 92876,92928,92902
 1.0000e+000 93000 -4.8591e-001  2.6640e-002 -6.5381e-002 35717 92824,92928,92876
 1.0000e+000 92977 -1.6340e-001  1.1033e-002  5.8367e-002 35717 92798,92928,92824
 1.0000e+000 92954 -2.4255e-001  2.2133e-001 -6.1452e-001 35717 92824,92876,92850
 1.0000e+000 93499  1.4098e-001 -1.9069e-001  4.6315e-001 35405 93522,93309,93257
 1.0000e+000 93476  4.1626e-001 -7.4635e-002  3.4725e-001 35405 93666,93522,93257
 1.0000e+000 93453  4.0904e-001 -1.4538e+000  4.5330e-001 35405 93594,93127,93335
 1.0000e+000 93430  1.8995e-001 -2.5079e-002  2.2115e-001 35405 93666,93257,93231
 1.0000e+000 93407 -9.5688e-002 -1.7137e+000 -2.1426e-001 35405 93127,93179,93153
 1.0000e+000 93384 -6.2858e-001  1.4953e-001  3.9235e-001 35405 93179,93231,93205
 1.0000e+000 93361  8.3916e-001  1.5326e+000  5.5169e-001 35405 93257,93309,93283
 1.0000e+000 93548  9.0899e-001  3.1401e-001  9.5178e-001 35405 93335,93309,93522
 1.0000e+000 93571  4.8122e-001 -5.2773e-001  6.0273e-001 35405 93594,93335,93522
 1.0000e+000 93620  5.5767e-001 -5.0825e-001  3.0875e-001 35405 93179,93127,93594
 1.0000e+000 93643  2.0691e-001 -7.1531e-002  3.3991e-001 35405 93738,93594,93522
 1.0000e+000 93692  1.9150e-001 -1.3269e-001  2.5980e-001 35405 93738,93522,93666
 1.0000e+000 93715 -2.3191e-002 -2.0997e-001  7.4831e-002 35405 93179,93666,93231
 1.0000e+000 93764  1.5185e-001 -2.0987e-001  3.1293e-001 35405 93179,93594,93738
 1.0000e+000 93787  1.7297e-001 -2.5164e-001  2.5036e-001 35405 93179,93738,93666
 1.0000e+000 94372  7.6374e-001  9.8011e-002 -1.3901e-001 34951 94395,94127,94075
 1.0000e+000 94349  1.1858e+000  3.0794e-002  1.5230e-002 34951 94395,94075,94231
 1.0000e+000 94326  1.2421e+000 -2.1433e-001 -3.8663e-001 34951 94049,94231,94075
 1.0000e+000 94303  8.0222e-001  2.4592e-001 -1.3879e-001 34951 94075,94127,94101
 1.0000e+000 94280  1.2348e+000  4.5908e-001  3.5262e-001 34951 94127,94205,94153
 1.0000e+000 94257  1.3919e+000  1.9153e-001  6.9091e-001 34951 94153,94205,94179
 1.0000e+000 94421  1.0996e+000  7.0507e-003  1.0933e-001 34951 94205,94127,94395
 1.0000e+000 94444  1.8657e+000  1.5765e-001  2.4576e-001 34951 94205,94395,94231
 1.0000e+000 94692 -1.1708e+000  1.7635e-001 -4.7728e-002 34397 94715,94519,94467
 1.0000e+000 94669 -1.0338e+000 -1.4346e-001 -1.9022e-001 34397 94715,94467,94597
 1.0000e+000 94646 -6.5064e-001 -2.6677e-001  1.9289e-001 34397 94545,94597,94571
 1.0000e+000 94623 -6.8077e-001  1.4186e+000 -2.5175e-001 34397 94467,94519,94493
 1.0000e+000 94741 -7.2350e-001  1.1684e+000  1.7936e-001 34397 94545,94519,94715
 1.0000e+000 94764 -1.1191e+000  1.5950e-001 -7.3999e-002 34397 94545,94715,94597
 1.0000e+000 94985 -2.1155e+000  4.5823e-001 -2.3045e-001 33985 94835,94913,94887
 1.0000e+000 94962 -1.1558e+000  2.8259e+000 -3.6719e-001 33985 94809,94913,94835
 1.0000e+000 94939 -8.6891e-001  8.4932e-001 -4.5610e-001 33985 94835,94887,94861
 1.0000e+000 95186 -6.7520e-002  1.1864e-001 -2.0144e-001 33645 95281,95209,95036
 1.0000e+000 95163 -5.7990e-002 -1.8365e-001  1.3146e-001 33645 95209,95010,95088
 1.0000e+000 95140  2.2296e-001  1.4146e-001  1.2140e-002 33645 95010,95114,95088
 1.0000e+000 95235 -4.5606e-001  1.1558e-001  4.6950e-002 33645 95062,95036,95209
 1.0000e+000 95258 -1.5291e-001 -2.1264e-001  2.7089e-001 33645 95413,95209,95088
 1.0000e+000 95307 -1.9562e-001 -3.8416e-002 -1.4128e-001 33645 95010,95209,95281
 1.0000e+000 95439 -4.5184e-001 -4.9121e-001  3.8611e-001 33645 95062,95209,95413
 1.0000e+000 95766 -5.9624e-001  7.1821e-001 -5.8342e-001 33141 95789,95593,95567
 1.0000e+000 95743 -3.0251e-001  3.9394e-001 -1.7211e-001 33141 95861,95789,95567
 1.0000e+000 95720 -3.5363e-001  4.7233e-001 -1.4626e-002 33141 95861,95567,95671
 1.0000e+000 95697 -2.6674e-001  4.0566e-001 -2.8578e-002 33141 95541,95671,95567
 1.0000e+000 95815 -3.2232e-001  1.4746e+000 -5.3939e-001 33141 95619,95593,95789
 1.0000e+000 95838 -1.6362e-001  8.1367e-001 -2.2024e-001 33141 95619,95789,95645
 1.0000e+000 95887 -1.5482e-001  6.7914e-001 -2.4850e-001 33141 95645,95789,95861
 1.0000e+000 95910 -2.6855e-001  7.3008e-001 -7.3093e-002 33141 95645,95861,95671
 1.0000e+000 96060 -8.7259e-001  3.1789e-001 -2.1995e-001 32487 95959,96011,95985
 1.0000e+000 96037 -5.3473e-001  1.0007e+000 -9.5430e-002 32487 95933,96011,95959
 1.0000e+000 96570 -1.0978e-001  3.3603e-001  3.3839e-001 32033 96665,96593,96377
 1.0000e+000 96547 -3.1577e-001  5.2973e-001 -7.3977e-002 32033 96737,96593,96325
 1.0000e+000 96524 -1.8071e-001  2.7606e-001  3.0651e-001 32033 96665,96377,96351
 1.0000e+000 96501 -3.3694e-001  5.6396e-001 -4.3264e-002 32033 96737,96325,96299
 1.0000e+000 96478 -1.7514e-001  9.6077e-001 -6.9045e-003 32033 96247,96429,96299
 1.0000e+000 96455 -6.1982e-001 -3.0370e-001  4.4392e-003 32033 96247,96299,96273
 1.0000e+000 96619  1.1300e-001  4.2709e-001  2.9936e-001 32033 96809,96593,96403
 1.0000e+000 96642  3.2301e-001  9.8625e-001 -3.0366e-001 32033 96403,96593,96429
 1.0000e+000 96691  7.7514e-002  1.7872e-001  2.1795e-001 32033 96325,96593,96665
 1.0000e+000 96714 -8.6296e-002  5.6757e-002  1.6201e-001 32033 96325,96665,96351
 1.0000e+000 96763 -3.5548e-001  5.0057e-001 -8.9062e-002 32033 96429,96593,96737
 1.0000e+000 96786 -3.6305e-001  5.3422e-001 -5.5679e-002 32033 96429,96737,96299
 1.0000e+000 96835  3.7741e-001  5.3234e-001  3.4021e-001 32033 96377,96593,96809
 1.0000e+000 97064  1.3494e-001  4.8793e-001  3.8486e-001 31671 97087,96989,96963
 1.0000e+000 97041 -1.7036e-003  6.6377e-001 -2.6545e-001 31671 97087,96963,96937
 1.0000e+000 97113 -3.6380e-001  4.6952e-001  1.8471e-001 31671 97159,97087,97015
 1.0000e+000 97136 -2.7887e-001 -6.6486e-002 -1.5533e-001 31671 97015,97087,96937
 1.0000e+000 97185 -2.2416e-001 -2.3152e-001  2.5866e-001 31671 96989,97087,97159
 1.0000e+000 97563 -1.2381e+000  4.3217e-001  1.8257e-001 31117 97586,97367,97341
 1.0000e+000 97540 -1.2861e+000  1.5755e-001 -2.9108e-002 31117 97658,97586,97341
 1.0000e+000 97517 -1.2086e+000  1.2752e-002  5.4529e-004 31117 97658,97341,97315
 1.0000e+000 97494 -1.7877e+000 -1.8347e-001  2.0279e-001 31117 97289,97445,97315
 1.0000e+000 97471 -4.6610e-001 -1.1855e-002  1.4379e-001 31117 97367,97419,97393
 1.0000e+000 97612 -5.6469e-001 -8.1911e-002  6.2536e-002 31117 97419,97367,97586
 1.0000e+000 97635 -1.4451e+000 -1.5952e-001 -2.5754e-001 31117 97419,97586,97445
 1.0000e+000 97684 -1.3635e+000 -6.2029e-003  3.9156e-002 31117 97445,97586,97658
 1.0000e+000 97707 -1.2823e+000 -1.5439e-001  6.4039e-002 31117 97445,97658,97315
 1.0000e+000 98215 -1.0256e-001  3.0590e-001 -1.3303e-001 30563 98238,97996,97944
 1.0000e+000 98192 -4.0058e-002  5.2852e-001 -5.4475e-002 30563 98310,98238,97944
 1.0000e+000 98169 -1.2925e-003  2.6459e-001  8.4690e-002 30563 98310,97944,97918
 1.0000e+000 98146 -2.9721e-002  5.0889e-001  3.2896e-001 30563 97892,98074,97918
 1.0000e+000 98123 -1.4639e-001  1.0524e+000 -3.4556e-001 30563 97996,98048,98022
 1.0000e+000 98100  6.2620e-003  5.1685e-001 -3.8708e-001 30563 97944,97996,97970
 1.0000e+000 98264 -6.4664e-002  5.0518e-001 -1.3748e-001 30563 98048,97996,98238
 1.0000e+000 98287 -1.3628e-001  7.2616e-001  8.4536e-002 30563 98048,98238,98074
 1.0000e+000 98336 -3.0931e-001  3.1902e-001  9.8639e-002 30563 98074,98238,98310
 1.0000e+000 98359 -1.6632e-001  2.1001e-001  2.2572e-001 30563 98074,98310,97918
 1.0000e+000 98607 -8.9925e-001  6.6089e-001  3.1053e-003 30073 98630,98460,98408
 1.0000e+000 98584 -1.1882e+000  7.2306e-001 -2.0567e-002 30073 98630,98408,98382
 1.0000e+000 98561 -5.4170e-001  9.5997e-001 -2.2886e-001 30073 98382,98512,98486
 1.0000e+000 98538 -5.3181e-001  6.7083e-001  1.2455e-001 30073 98408,98460,98434
 1.0000e+000 98656 -7.6385e-001  6.4020e-001 -5.0920e-002 30073 98486,98460,98630
 1.0000e+000 98679 -9.6191e-001  7.7634e-001 -8.2326e-002 30073 98486,98630,98382
 1.0000e+000 99157  6.2017e-001  1.3700e-001  3.0882e-002 29669 99180,98837,98811
 1.0000e+000 99134  3.7938e-001  1.4951e-001  3.1717e-001 29669 99324,99180,98811
 1.0000e+000 99111  1.2371e-001  2.4821e-001 -5.4002e-002 29669 99252,98863,98837
 1.0000e+000 99088  2.6351e-001  5.7548e-002  3.5742e-001 29669 99324,98811,98993
 1.0000e+000 99065 -7.3720e-001 -2.1012e-002 -2.6088e-001 29669 98863,98941,98915
 1.0000e+000 99042 -9.0217e-001 -1.5651e-001 -1.9388e-001 29669 98863,98915,98889
 1.0000e+000 99019  3.2154e-001  1.1896e-001  5.5639e-001 29669 98785,98993,98811
 1.0000e+000 99206  2.0101e-001 -4.2863e-002  3.6995e-002 29669 99252,98837,99180
 1.0000e+000 99229 -9.7736e-002  8.6752e-002  3.5405e-001 29669 98941,99180,98967
 1.0000e+000 99278  1.3231e-001  4.3939e-001 -1.6796e-003 29669 98941,98863,99252
 1.0000e+000 99301  3.4026e-001  3.2228e-001  1.2523e-001 29669 98941,99252,99180
 1.0000e+000 99350  2.3831e-001  2.6967e-001  2.6178e-001 29669 98967,99180,99324
 1.0000e+000 99373  1.8536e-001  2.2529e-001  2.8123e-001 29669 98967,99324,98993
 1.0000e+000 99958  4.0666e-001 -2.5511e-001 -3.8812e-002 29051 99981,99765,99739
 1.0000e+000 99935  2.9379e-001 -2.4412e-002 -1.0786e-001 29051 99981,99739,99661
 1.0000e+000 99912  3.9412e-001 -4.0859e-001 -4.5199e-002 29051 99765,99817,99791
 1.0000e+000 99889  4.6315e-001  5.1100e-002 -2.3369e-001 29051 99635,99817,99661
 1.0000e+000 99866  3.3459e-001 -1.0140e-002 -1.3535e-001 29051 99661,99739,99687
 1.0000e+000 99843  3.1173e-001 -9.5972e-002 -6.6505e-002 29051 99687,99739,99713
 1.0000e+000 100007  5.3345e-001 -1.0343e-001 -9.4069e-002 29051 99817,99765,99981
 1.0000e+000 100030  3.7773e-001  6.5655e-002 -1.4920e-001 29051 99817,99981,99661
 1.0000e+000 100278  7.0293e-001  2.1165e-001  2.1754e-001 28525 100445,100301,100131
 1.0000e+000 100255  3.6064e-001  4.8179e-001  1.2942e-001 28525 100373,100301,100079
 1.0000e+000 100232  4.2179e-001  2.5033e-001  2.1808e-001 28525 100373,100079,100053
 1.0000e+000 100209  5.4056e-001  3.0384e-001  1.1461e-001 28525 100445,100131,100105
 1.0000e+000 100327  1.2481e+000  2.2828e-001  1.2606e-001 28525 100517,100301,100157
 1.0000e+000 100350  4.4001e-001  5.4566e-001 -1.0148e-001 28525 100157,100301,100183
 1.0000e+000 100399  2.1634e-001  2.5902e-001  2.3356e-001 28525 100183,100301,100373
 1.0000e+000 100422  3.4008e-001  9.0072e-002  3.0932e-001 28525 100183,100373,100053
 1.0000e+000 100471  4.8883e-001  2.2261e-001 -5.9980e-002 28525 100079,100301,100445
 1.0000e+000 100494  1.6089e-002  1.0504e-001 -1.6572e-001 28525 100079,100445,100105
 1.0000e+000 100543  1.1747e+000  2.7144e-001  2.8798e-002 28525 100131,100301,100517
 1.0000e+000 101209 -1.7126e+000  2.0729e-001  1.8521e-001 28185 100938,101016,100990
 1.0000e+000 101186 -1.4925e+000  4.4575e-002  5.0572e-002 28185 100912,101016,100938
 1.0000e+000 101163 -4.5451e-001  4.1778e-001  9.9818e-002 28185 100912,101068,101016
 1.0000e+000 101140 -1.5321e+000 -7.6880e-002 -1.6275e-001 28185 100886,101068,100912
 1.0000e+000 101117 -6.7951e-001  1.5098e-001  2.1757e-001 28185 101016,101068,101042
 1.0000e+000 101094 -3.6254e+000 -2.9941e-001  1.0323e-001 28185 100938,100990,100964
 1.0000e+000 101408  1.9838e-001  4.8965e-001 -1.1864e-001 27781 101503,101431,101310
 1.0000e+000 101385 -3.5389e-002  1.1214e+000 -3.1657e-001 27781 101431,101258,101232
 1.0000e+000 101362  3.8856e-001  3.7231e-001 -2.3092e-001 27781 101503,101310,101284
 1.0000e+000 101457  6.8153e-001  8.7904e-001 -3.4589e-001 27781 101336,101310,101431
 1.0000e+000 101480  4.5415e-001  1.4758e+000 -7.2368e-001 27781 101575,101431,101232
 1.0000e+000 101529  4.1726e-001  6.1632e-001 -3.2366e-001 27781 101258,101431,101503
 1.0000e+000 101552  2.1467e-001 -9.0456e-002 -1.8067e-001 27781 101705,101503,101284
 1.0000e+000 101601  2.7456e-001  1.1362e+000 -6.5750e-001 27781 101336,101431,101575
 1.0000e+000 101731  1.2356e-001  4.7800e-001 -2.7745e-001 27781 101258,101503,101705
 1.0000e+000 102237 -9.6688e-001 -3.8201e-002  1.4417e-001 27419 102476,102260,101992
 1.0000e+000 102214 -7.3913e-001 -1.3572e-001  5.2754e-002 27419 102260,101940,101914
 1.0000e+000 102191 -1.0393e+000 -1.6971e-001  1.9080e-001 27419 102404,102332,102096
 1.0000e+000 102168 -8.8814e-001 -1.3687e-001  4.0276e-002 27419 102404,102096,102044
 1.0000e+000 102145 -9.0200e-001 -8.6689e-002  1.8160e-001 27419 102476,101992,101966
 1.0000e+000 102122 -2.9204e-001 -2.9396e-001 -3.0456e-003 27419 102044,102096,102070
 1.0000e+000 102286 -1.2832e+000 -2.5363e-001  2.9084e-001 27419 102018,101992,102260
 1.0000e+000 102309 -9.4905e-001 -8.9983e-002  1.2843e-001 27419 102332,102018,102260
 1.0000e+000 102358 -1.0392e+000 -4.2650e-001  3.1815e-001 27419 101914,102096,102332
 1.0000e+000 102381 -9.2640e-001 -2.0241e-001  1.4463e-001 27419 101914,102332,102260
 1.0000e+000 102430 -7.2360e-001 -1.0298e-001  7.4773e-002 27419 102018,102332,102404
 1.0000e+000 102453 -6.1838e-001 -5.0841e-002 -9.1533e-002 27419 102018,102404,102044
 1.0000e+000 102502 -8.4615e-001 -7.5206e-002  1.7966e-001 27419 101940,102260,102476
 1.0000e+000 102525 -3.6909e-001  1.0740e-001  1.7489e-001 27419 101940,102476,101966
 1.0000e+000 103031  3.5191e-001 -1.9069e-002 -1.4623e-001 26715 102708,102786,102760
 1.0000e+000 103008  3.2135e-001  1.3745e-001 -1.1653e-001 26715 102708,102890,102786
 1.0000e+000 102985  5.7378e-001  1.9997e-001 -1.0119e-001 26715 102838,102890,102864
 1.0000e+000 102962  2.8542e-001 -2.8183e-001  3.8583e-002 26715 102786,102890,102838
 1.0000e+000 102939  9.0640e-001  3.6435e-002  4.6290e-001 26715 102786,102838,102812
 1.0000e+000 102916  4.0332e-001  1.8279e-002 -7.5282e-002 26715 102708,102760,102734
 1.0000e+000 103279 -1.2168e+000 -7.0770e-002 -9.8424e-002 26303 103302,103158,103080
 1.0000e+000 103256 -1.2392e+000 -1.8251e-001 -1.2876e-001 26303 103302,103080,103054
 1.0000e+000 103233 -1.0436e+000 -3.3868e-002 -1.8414e-001 26303 103080,103158,103106
 1.0000e+000 103210 -1.6417e+000 -1.7337e-001 -1.7928e-001 26303 103106,103158,103132
 1.0000e+000 103328 -1.0830e+000 -2.0315e-001 -4.4420e-002 26303 103184,103158,103302
 1.0000e+000 103351 -1.1532e+000 -3.4333e-001 -1.1563e-001 26303 103184,103302,103054
 1.0000e+000 103501 -1.5805e+000 -7.9068e-001 -9.2238e-002 25849 103374,103426,103400
 1.0000e+000 103478 -1.7368e+000 -7.5567e-001 -2.0319e-002 25849 103374,103452,103426
 1.0000e+000 104090  9.8798e-002  2.8418e-001  1.9223e-001 25445 103793,103871,103819
 1.0000e+000 104067  3.4203e-001  2.5229e-001  8.8927e-002 25445 103793,103949,103871
 1.0000e+000 104044  3.7956e-001  4.0818e-001  5.1673e-002 25445 103871,103949,103923
 1.0000e+000 104021  3.7781e-002  3.3097e-001  6.4298e-002 25445 103819,103871,103845
 1.0000e+000 103998  1.5722e-001  2.5242e-001  2.2936e-001 25445 103767,103949,103793
 1.0000e+000 103975  6.0220e-001  2.6533e-001  3.3023e-002 25445 103871,103923,103897
 1.0000e+000 104419 -2.8161e-001  2.0983e-001 -1.4661e-001 25083 104220,104298,104272
 1.0000e+000 104396 -7.9737e-001 -2.1711e-001  4.0945e-002 25083 104220,104324,104298
 1.0000e+000 104373 -1.1985e-001  3.1741e-002  3.8118e-002 25083 104220,104272,104246
 1.0000e+000 104350 -6.4382e-001  2.6815e-001  2.0325e-001 25083 104194,104324,104220
 1.0000e+000 105102  1.1569e-001  1.4796e-002 -2.2335e-002 24793 104785,104863,104837
 1.0000e+000 105079  3.2351e-002 -2.9944e-001 -1.6190e-001 24793 104759,104863,104785
 1.0000e+000 105056 -4.4933e-002  7.0465e-002 -1.7686e-001 24793 104759,104915,104863
 1.0000e+000 105033 -1.7248e-001  4.0436e-002 -8.2939e-002 24793 104733,104915,104759
 1.0000e+000 105010 -9.0660e-002  6.7427e-003  3.9516e-002 24793 104863,104915,104889
 1.0000e+000 104987 -2.5662e-001  3.3846e-002 -1.3555e-001 24793 104681,104915,104733
 1.0000e+000 104964  1.0955e-001 -8.7837e-002 -1.2078e-002 24793 104785,104837,104811
 1.0000e+000 104941 -2.6886e-002  2.8817e-001 -2.6681e-001 24793 104681,104733,104707
 1.0000e+000 105252  8.6713e-001  3.9901e-001 -4.0965e-002 24389 105477,105275,105177
 1.0000e+000 105229  6.0542e-001  3.3293e-001  2.0313e-001 24389 105347,105275,105151
 1.0000e+000 105301  7.3145e-001  4.8647e-001  2.7991e-002 24389 105203,105177,105275
 1.0000e+000 105324  9.8221e-001  9.8023e-001  2.6817e-001 24389 105203,105275,105125
 1.0000e+000 105373  8.2003e-001  7.6025e-001  7.5684e-002 24389 105125,105275,105347
 1.0000e+000 105503  6.8032e-001  3.3836e-002 -1.0826e-001 24389 105151,105275,105477
 1.0000e+000 106088 -7.1648e-001  5.0089e-001  7.1701e-001 23735 105791,105921,105895
 1.0000e+000 106065 -2.0264e+000  7.6580e-003  7.6235e-001 23735 105765,105921,105791
 1.0000e+000 106042 -7.3362e-001  6.6422e-001  4.6438e-001 23735 105765,105947,105921
 1.0000e+000 106019 -2.5405e+000 -1.5187e-001  9.0615e-001 23735 105817,105895,105869
 1.0000e+000 105996 -1.5193e+000  1.9286e-001  8.7459e-001 23735 105791,105895,105817
 1.0000e+000 105973 -1.4572e+000  1.0329e-001  7.1749e-001 23735 105817,105869,105843
 1.0000e+000 106417  8.7608e-001  2.3021e+000 -4.0417e-001 23295 106218,106296,106270
 1.0000e+000 106394  3.3121e-001  7.8560e-001 -2.4136e-001 23295 106218,106322,106296
 1.0000e+000 106371  1.6559e-001  6.1316e-001 -3.7526e-001 23295 106218,106270,106244
 1.0000e+000 106348  6.2433e-001  9.1077e-001 -3.6944e-002 23295 106192,106322,106218
 1.0000e+000 106746  1.6453e-001  5.9715e-001  2.0969e-001 23005 106521,106599,106547
 1.0000e+000 106723  5.4256e-001  9.5083e-001  6.3035e-002 23005 106521,106651,106599
 1.0000e+000 106700  3.1263e-001  3.5683e-001 -1.1841e-001 23005 106547,106599,106573
 1.0000e+000 106677  6.8474e-001  8.4336e-001  4.8596e-001 23005 106599,106651,106625
 1.0000e+000 107331  5.8578e-002 -4.6068e-002  6.5375e-002 22601 107060,107190,107138
 1.0000e+000 107308  3.0612e-001 -1.1823e-001  1.6103e-001 22601 107034,107190,107060
 1.0000e+000 107285  6.7203e-001  1.9715e-001  1.0248e-002 22601 107060,107138,107112
 1.0000e+000 107262  4.3862e-001 -1.8793e-001 -3.9925e-002 22601 107008,107190,107034
 1.0000e+000 107239  1.4177e-001  3.3315e-001  3.6296e-003 22601 107060,107112,107086
 1.0000e+000 107216  4.6684e-001 -3.1557e-001 -1.8948e-001 22601 107138,107190,107164
 1.0000e+000 107807 -6.0008e-001  3.3112e-001 -1.1927e-001 22031 107974,107902,107617
 1.0000e+000 107784 -7.8842e-001  5.5241e-001 -2.8448e-001 22031 107830,107565,107513
 1.0000e+000 107761 -4.7734e-001  2.9422e-001 -2.9166e-001 22031 108046,107830,107513
 1.0000e+000 107738 -4.4390e-001  5.9363e-001  4.0500e-002 22031 107974,107617,107591
 1.0000e+000 107715 -5.1996e-001  9.8033e-002 -2.0222e-001 22031 108046,107513,107461
 1.0000e+000 107692 -2.0741e+000  8.8098e-001 -5.7731e-001 22031 107513,107565,107539
 1.0000e+000 107669 -2.6561e-001  2.3353e-001 -4.0471e-001 22031 107461,107513,107487
 1.0000e+000 107856 -9.0687e-001  5.0620e-001 -1.7654e-001 22031 107902,107565,107830
 1.0000e+000 107879 -6.3211e-001  1.2711e-001  7.0662e-002 22031 107643,107830,107435
 1.0000e+000 107928 -1.4252e+000  9.8237e-001 -7.1324e-001 22031 107643,107617,107902
 1.0000e+000 107951 -9.6206e-001  4.3420e-001  9.4077e-002 22031 107643,107902,107830
 1.0000e+000 108000 -8.1148e-001  7.0277e-001 -1.4346e-001 22031 107565,107902,107974
 1.0000e+000 108023 -7.7505e-001  6.1476e-001 -1.0267e-001 22031 107565,107974,107591
 1.0000e+000 108072 -4.7746e-001  3.2239e-002 -3.1414e-002 22031 107435,107830,108046
 1.0000e+000 108095 -5.9665e-001 -2.7862e-001  6.3010e-002 22031 107435,108046,107461
 1.0000e+000 108196 -1.1139e+000 -1.1489e-001 -8.1728e-002 21783 108118,108170,108144
 1.0000e+000 108655  1.0290e-001  6.3616e-001  3.6621e-001 21379 108407,108485,108459
 1.0000e+000 108632  1.2392e+000 -1.5480e-001  5.6306e-001 21379 108407,108511,108485
 1.0000e+000 108609  1.2403e+000 -6.0505e-001  4.0297e-002 21379 108381,108511,108407
 1.0000e+000 108586  7.9532e-001  1.3829e-001 -8.2354e-001 21379 108381,108537,108511
 1.0000e+000 108563  3.1814e-001  1.0272e-001  1.7066e-001 21379 108407,108459,108433
 1.0000e+000 109082 -1.1933e+000  4.1856e-001  1.5314e-001 20974 109105,108863,108811
 1.0000e+000 109059 -9.3460e-001  5.9520e-001 -2.5279e-001 20974 109105,108811,108759
 1.0000e+000 109036 -1.1008e+000 -4.3346e-002  3.4985e-001 20974 109177,108889,108863
 1.0000e+000 109013 -2.1739e-001  7.2457e-001 -1.7601e-001 20974 108811,108863,108837
 1.0000e+000 108990 -1.6387e+000  5.0770e-002 -2.0575e-001 20974 108759,108941,108915
 1.0000e+000 108967 -9.2269e-001  6.8321e-002 -7.3093e-002 20974 108759,108811,108785
 1.0000e+000 109131 -1.3107e+000  1.6443e-001  1.9250e-001 20974 109177,108863,109105
 1.0000e+000 109154 -1.1462e+000  9.7292e-002 -1.8101e-001 20974 108915,109105,108759
 1.0000e+000 109203 -8.6311e-001  1.2796e-001  2.3543e-001 20974 108915,108889,109177
 1.0000e+000 109226 -9.9812e-001  4.6375e-001  5.8052e-002 20974 108915,109177,109105
 1.0000e+000 109496 -8.6761e-001  3.9056e-001 -6.2992e-002 20470 109271,109375,109297
 1.0000e+000 109473 -8.2873e-001  5.7044e-001 -1.5614e-001 20470 109271,109401,109375
 1.0000e+000 109450 -1.0754e+000  2.8867e-002 -1.8122e-001 20470 109297,109375,109349
 1.0000e+000 109427 -1.5322e+000 -9.1064e-001  3.3465e-001 20470 109297,109349,109323
 1.0000e+000 109955  3.0648e-001  1.9652e+000  1.2072e+000 20123 110050,109733,109707
 1.0000e+000 109932 -7.4623e-001  9.6286e-001  7.1176e-001 20123 110050,109707,109681
 1.0000e+000 109909  3.5408e-001  6.9369e-001  8.4479e-001 20123 109978,109759,109733
 1.0000e+000 109886 -1.1742e-001  4.3358e-001  7.3381e-001 20123 110122,109978,109733
 1.0000e+000 109863  3.8693e-001  3.4419e-001  3.8891e-001 20123 109785,109837,109811
 1.0000e+000 110004  2.6309e-001  5.9639e-001  5.7330e-001 20123 109785,109759,109978
 1.0000e+000 110027  6.9804e-002  4.3492e-001  4.1195e-001 20123 109785,109978,109837
 1.0000e+000 110076 -3.2423e-001  7.3091e-001  6.0514e-001 20123 110122,109733,110050
 1.0000e+000 110099 -2.8516e-001  5.9734e-001  2.2262e-001 20123 109837,110050,109681
 1.0000e+000 110148  2.8288e-001  8.5685e-001  5.6117e-001 20123 109837,109978,110122
 1.0000e+000 110171  9.4643e-002  1.1137e+000  4.2835e-001 20123 109837,110122,110050
 1.0000e+000 110500  1.1162e+000  2.2722e-001 -2.5266e-001 19511 110301,110379,110353
 1.0000e+000 110477  1.8316e+000  9.4310e-001 -5.5587e-001 19511 110301,110405,110379
 1.0000e+000 110454  5.0946e-001  2.9347e-001 -3.0864e-001 19511 110275,110405,110301
 1.0000e+000 110431  9.9080e-001  3.4915e-001  3.5945e-001 19511 110301,110353,110327
 1.0000e+000 110957 -2.8231e-001  7.8540e-001 -6.1227e-001 19107 110683,110735,110709
 1.0000e+000 110934 -1.9683e-001 -4.9767e-001 -1.0533e+000 19107 110683,110813,110735
 1.0000e+000 110911  2.2503e-001  4.8818e-001 -9.2132e-001 19107 110735,110813,110761
 1.0000e+000 110888 -6.7645e-001 -9.7144e-001 -5.6820e-001 19107 110683,110839,110813
 1.0000e+000 110865  2.1054e-002  2.6110e-002 -8.8688e-001 19107 110761,110813,110787
 1.0000e+000 111335 -3.8580e-001 -3.7313e-001 -1.7027e-001 18653 111087,111165,111139
 1.0000e+000 111312 -4.1259e-002 -1.8958e-001 -2.6436e-001 18653 111087,111217,111165
 1.0000e+000 111289 -1.3471e-001 -2.6872e-001  1.6624e-003 18653 111061,111217,111087
 1.0000e+000 111266 -5.2957e-001 -3.6468e-001 -3.9411e-001 18653 111087,111139,111113
 1.0000e+000 111243 -1.6869e-002 -2.0183e-001 -1.6658e-001 18653 111165,111217,111191
 1.0000e+000 111735 -1.2098e+000 -5.7730e-001 -2.6362e-002 18213 111461,111513,111487
 1.0000e+000 111712 -1.4020e+000 -9.8450e-001  6.1438e-002 18213 111461,111617,111513
 1.0000e+000 111689 -1.3163e+000 -8.3740e-001 -1.6260e-001 18213 111513,111617,111591
 1.0000e+000 111666 -6.5272e-001 -4.7598e-001  7.3590e-002 18213 111513,111591,111539
 1.0000e+000 111643 -2.0442e-001 -6.1492e-001 -4.5600e-002 18213 111539,111591,111565
 1.0000e+000 111885  5.4561e-001  9.2690e-002  2.1329e-001 17659 111784,111836,111810
 1.0000e+000 111862  1.0195e+000  3.5461e-001  3.2996e-001 17659 111758,111836,111784
 1.0000e+000 112287  2.6973e-001  3.3385e-001  1.2488e-001 17411 112065,112169,112143
 1.0000e+000 112264  5.7577e-001  6.3519e-002  7.5537e-002 17411 112039,112169,112065
 1.0000e+000 112241  5.3310e-001  4.8752e-002 -1.1031e-002 17411 112013,112169,112039
 1.0000e+000 112218  2.2160e+000  4.5688e-001 -5.5294e-001 17411 112091,112143,112117
 1.0000e+000 112195  1.0920e-001  1.2797e-001 -5.3033e-002 17411 112065,112143,112091
 1.0000e+000 112508 -8.7469e-001  7.6200e-001  1.1689e-001 17007 112384,112436,112410
 1.0000e+000 112485 -6.3662e-001  1.0038e+000  2.2097e-001 17007 112332,112436,112384
 1.0000e+000 112462 -8.6868e-001  5.4381e-001  1.4073e-001 17007 112332,112384,112358
 1.0000e+000 112658 -2.1120e+000 -5.0691e-001  3.6861e-001 16553 112557,112609,112583
 1.0000e+000 112635 -2.2887e+000 -2.8779e-001  4.3859e-001 16553 112531,112609,112557
 1.0000e+000 112761 -1.7505e+000  1.4730e+000 -3.6494e-001 16355 112683,112735,112709
 1.0000e+000 112913 -1.4672e+000  9.5927e-001  9.5829e-002 15949 112786,112838,112812
 1.0000e+000 112890 -6.4355e-001  2.3761e+000 -2.9426e-001 15949 112786,112864,112838
 1.0000e+000 113065 -1.0006e+000 -9.6244e-001 -7.4525e-002 15609 112938,112990,112964
 1.0000e+000 113042 -3.9546e-001 -3.8502e-001  1.8698e-001 15609 112938,113016,112990
 1.0000e+000 113420  9.7044e-001  9.8145e-001  3.4130e-001 15284 113247,113325,113299
 1.0000e+000 113397  8.8076e-001  7.6718e-001  2.4513e-001 15284 113195,113325,113247
 1.0000e+000 113374  6.8402e-001  7.4803e-001  1.3288e-001 15284 113195,113247,113221
 1.0000e+000 113351  1.0328e+000  1.5899e+000  4.2392e-001 15284 113247,113299,113273
 1.0000e+000 113521 -5.4860e-002  1.8302e-001 -5.7154e-002 202 113443,113495,113469
 1.5000e+000 65564 -1.1777e-001 -2.2119e-001 -1.6025e-001 65155 65414,65466,65440
 1.5000e+000 65541 -6.4771e-001 -5.7690e-001  1.9148e-001 65155 65414,65492,65466
 1.5000e+000 65518 -4.2861e-001 -6.8424e-001  6.7337e-001 65155 65388,65492,65414
 1.5000e+000 65883 -3.3756e-001  1.1877e+000  3.7762e-002 64957 65635,65739,65713
 1.5000e+000 65860 -1.4250e-001  2.1334e+000  5.2963e-002 64957 65635,65765,65739
 1.5000e+000 65837  1.7844e-001  2.2922e+000 -3.7780e-003 64957 65609,65765,65635
 1.5000e+000 65814 -2.3952e-001  1.6716e+000 -5.3056e-001 64957 65635,65713,65687
 1.5000e+000 65791 -1.2944e-001  2.0139e+000 -3.3860e-001 64957 65635,65687,65661
 1.5000e+000 65984 -4.1132e-001  4.4642e-001  2.8742e-001 64781 65906,65958,65932
 1.5000e+000 66232  5.8109e-001  7.2530e-001 -6.5224e-001 64469 66007,66059,66033
 1.5000e+000 66209 -5.2755e-001 -1.1928e-001 -1.0309e+000 64469 66007,66085,66059
 1.5000e+000 66186  7.1510e-002  1.4619e+000 -2.5594e-001 64469 66007,66137,66085
 1.5000e+000 66163 -1.1339e+000 -2.5420e-002 -1.7446e+000 64469 66085,66137,66111
 1.5000e+000 66504 -8.4338e-003  1.9982e+000 -1.1206e-001 64271 66279,66383,66305
 1.5000e+000 66481 -2.2440e-001  2.0279e+000  6.2414e-002 64271 66279,66409,66383
 1.5000e+000 66458 -4.0915e-001  2.6577e+000 -1.5304e-001 64271 66305,66357,66331
 1.5000e+000 66435  1.4075e-001  2.5251e+000 -1.7649e-001 64271 66305,66383,66357
 1.5000e+000 66705  7.1737e-002  2.6899e+000 -4.5494e-001 64073 66728,66581,66555
 1.5000e+000 66682  3.4819e-001  2.6836e+000 -4.1479e-001 64073 66728,66555,66529
 1.5000e+000 66659 -8.8681e-001  3.4595e+000  7.4839e-001 64073 66581,66633,66607
 1.5000e+000 66754 -9.6773e-002  2.7251e+000 -4.6516e-001 64073 66633,66581,66728
 1.5000e+000 66777  6.4759e-002  2.6412e+000 -3.9254e-001 64073 66633,66728,66529
 1.5000e+000 66951  4.1452e-001 -3.3669e-002  5.2846e-001 63783 66824,66876,66850
 1.5000e+000 66928 -1.4803e+000  1.1247e+000 -1.9474e-001 63783 66824,66902,66876
 1.5000e+000 67201  8.6299e-001  2.8124e+000 -7.4684e-002 63585 66976,67080,67054
 1.5000e+000 67178  4.8158e-001  2.6720e+000 -2.9314e-001 63585 66976,67106,67080
 1.5000e+000 67155  1.5821e-001  1.3086e+000  2.0342e-001 63585 66976,67054,67028
 1.5000e+000 67132  3.5619e-001  1.6722e+000  4.8731e-001 63585 66976,67028,67002
 1.5000e+000 67654 -2.1659e-001  1.5592e+000  3.9042e-002 63295 67357,67487,67383
 1.5000e+000 67631 -2.9589e-001  2.0807e+000 -4.3327e-001 63295 67331,67487,67357
 1.5000e+000 67608  1.1397e-001  2.6839e+000  6.8624e-002 63295 67331,67513,67487
 1.5000e+000 67585 -2.6998e-002  2.8140e+000 -9.0055e-002 63295 67435,67487,67461
 1.5000e+000 67562  1.0737e-001  2.7462e+000  3.8227e-002 63295 67383,67487,67435
 1.5000e+000 67539 -1.6926e-002  2.2264e+000 -1.0485e-001 63295 67383,67435,67409
 1.5000e+000 67853  3.8053e-002  1.9485e+000 -3.1615e-002 62891 67876,67703,67677
 1.5000e+000 67830  1.3397e-001  2.3727e+000 -1.1054e-002 62891 67876,67677,67781
 1.5000e+000 67807 -1.5603e-001  1.5977e+000 -6.8465e-002 62891 67948,67729,67703
 1.5000e+000 67902  3.9523e-002  1.8642e+000 -2.3056e-001 62891 67948,67703,67876
 1.5000e+000 67925  5.3302e-001  1.9982e+000 -2.9858e-001 62891 67755,67876,67781
 1.5000e+000 67974  1.7623e-001  1.2611e+000 -2.7485e-002 62891 67755,67729,67948
 1.5000e+000 67997  1.9619e-001  1.3891e+000 -1.4167e-001 62891 67755,67948,67876
 1.5000e+000 68218 -1.7344e-001 -1.0378e+000 -1.5222e-002 62693 68042,68120,68068
 1.5000e+000 68195  9.0189e-001 -9.3530e-001 -7.7915e-001 62693 68042,68146,68120
 1.5000e+000 68172  6.2134e-001 -6.8222e-001 -2.6738e-001 62693 68068,68120,68094
 1.5000e+000 68468  7.8594e-001  1.8510e+000 -1.2853e+000 62289 68491,68295,68269
 1.5000e+000 68445  8.0815e-001  1.2831e+000  7.1073e-002 62289 68563,68491,68269
 1.5000e+000 68422  2.9777e-001  8.6292e-001 -1.4234e-001 62289 68563,68269,68243
 1.5000e+000 68399 -8.2763e-001  4.3647e+000 -2.2320e+000 62289 68295,68347,68321
 1.5000e+000 68517  7.8174e-001  5.2042e+000 -1.9225e+000 62289 68347,68295,68491
 1.5000e+000 68540 -4.3394e-002  2.3759e+000 -1.2684e-001 62289 68347,68491,68373
 1.5000e+000 68589  1.1183e+000  5.1689e-001 -3.5900e-001 62289 68373,68491,68563
 1.5000e+000 68612  8.9725e-001  3.3233e-001 -5.0650e-001 62289 68373,68563,68243
 1.5000e+000 68911  8.2544e-002  1.8978e+000 -7.9659e-002 62091 69222,68934,68741
 1.5000e+000 68888 -3.8576e-001  1.9808e+000 -7.8436e-002 62091 69006,68934,68689
 1.5000e+000 68865 -6.1229e-001  1.7171e+000 -3.1059e-001 62091 69006,68689,68663
 1.5000e+000 68842  3.3624e-001  2.2595e+000  3.2336e-001 62091 69078,68793,68767
 1.5000e+000 68819  1.5990e-001  1.9463e+000 -2.1035e-001 62091 69222,68741,68715
 1.5000e+000 68960  3.9305e-001  2.0950e+000 -1.7076e-001 62091 68767,68741,68934
 1.5000e+000 68983  1.5737e-001  2.3905e+000  5.3785e-002 62091 69078,68767,68934
 1.5000e+000 69032 -3.0872e-001  2.1465e+000 -2.9484e-002 62091 69150,69006,68637
 1.5000e+000 69055 -3.0717e-001  2.0884e+000 -1.0267e-001 62091 68637,69006,68663
 1.5000e+000 69104  1.7204e-001  1.8754e+000  2.3484e-002 62091 68637,68793,69078
 1.5000e+000 69127 -2.5778e-001  2.0920e+000 -5.7848e-002 62091 69150,68637,69078
 1.5000e+000 69176 -1.4829e-001  1.9920e+000  7.0010e-003 62091 68934,69006,69150
 1.5000e+000 69199  4.1413e-002  2.0826e+000 -7.4813e-002 62091 68934,69150,69078
 1.5000e+000 69248  2.1048e-002  1.7607e+000 -6.7059e-002 62091 68689,68934,69222
 1.5000e+000 69271  4.1620e-002  1.7196e+000 -1.5854e-001 62091 68689,69222,68715
 1.5000e+000 69521 -1.6192e+000  7.4622e-001  1.8650e-001 61893 69544,69348,69296
 1.5000e+000 69498 -6.5737e-001  1.1804e+000  7.8077e-002 61893 69544,69296,69400
 1.5000e+000 69475 -1.5520e-001  6.3945e-001 -4.4053e-001 61893 69296,69426,69400
 1.5000e+000 69452  1.4407e-001  5.5736e+000 -2.8280e-001 61893 69296,69348,69322
 1.5000e+000 69570 -1.1349e+000 -3.9320e-002  1.0537e+000 61893 69374,69348,69544
 1.5000e+000 69593  6.4502e-001  7.8525e-001  8.4606e-001 61893 69374,69544,69400
 1.5000e+000 70046 -1.6739e-001  1.7835e+000 -3.0708e-002 61467 69749,69905,69879
 1.5000e+000 70023 -2.2010e-001  1.4575e+000 -4.2160e-001 61467 69723,69905,69749
 1.5000e+000 70000 -2.7883e-001  1.6873e+000  6.4428e-003 61467 70069,69827,69775
 1.5000e+000 69977  2.0996e-001  2.7532e+000 -3.6423e-001 61467 70069,69775,69749
 1.5000e+000 69954  1.9606e-002  9.2774e-001  1.9989e-002 61467 70141,69853,69827
 1.5000e+000 69931 -4.4405e-001  1.9738e+000  6.3087e-001 61467 69775,69827,69801
 1.5000e+000 70095 -1.3296e-001  1.1336e+000  1.5409e-001 61467 70141,69827,70069
 1.5000e+000 70118 -1.9157e-001  1.6804e+000 -8.3748e-003 61467 69879,70069,69749
 1.5000e+000 70167 -1.1776e-001  1.2394e+000  5.9111e-003 61467 69879,69853,70141
 1.5000e+000 70190 -5.4593e-002  1.7265e+000  1.4105e-001 61467 69879,70141,70069
 1.5000e+000 70291  2.2554e-001  3.0098e+000  3.1980e-001 61013 70213,70265,70239
 1.5000e+000 70441  2.8766e-001  5.7069e+000 -9.4869e-001 60651 70340,70392,70366
 1.5000e+000 70418 -8.3419e-002  1.3434e+000 -1.2010e-001 60651 70314,70392,70340
 1.5000e+000 70642 -1.0212e-001  1.8497e+000  6.0012e-001 60311 70665,70492,70466
 1.5000e+000 70619  1.4515e-001  2.4297e+000  5.9310e-001 60311 70665,70466,70570
 1.5000e+000 70596 -7.7176e-001  8.5849e-001  1.6602e-001 60311 70492,70544,70518
 1.5000e+000 70691  2.6664e-002  1.2826e+000 -1.2757e-002 60311 70544,70492,70665
 1.5000e+000 70714  4.1150e-001  2.1763e+000 -3.8189e-002 60311 70544,70665,70570
 1.5000e+000 70964 -3.4311e-001  1.4787e+000  2.2249e-001 59907 70987,70765,70739
 1.5000e+000 70941 -4.0474e-002  2.1652e+000  5.8478e-002 59907 71059,70987,70739
 1.5000e+000 70918  1.4711e-001  3.1058e+000 -4.8066e-002 59907 71059,70739,70869
 1.5000e+000 70895  8.3105e-002  2.1469e+000 -7.3548e-002 59907 70817,70869,70843
 1.5000e+000 71013 -3.1395e-002  1.5592e+000 -1.6196e-001 59907 70791,70765,70987
 1.5000e+000 71036 -6.4396e-003  1.5815e+000 -1.5061e-001 59907 70791,70987,70817
 1.5000e+000 71085  1.6624e-001  1.5365e+000 -9.0661e-002 59907 70817,70987,71059
 1.5000e+000 71108 -1.9692e-002  1.9502e+000 -3.0657e-002 59907 70817,71059,70869
 1.5000e+000 71441  1.9694e+000  4.9244e+000 -7.2864e-001 59417 71464,71242,71216
 1.5000e+000 71418  1.6752e+000  3.7515e+000  3.0977e-001 59417 71464,71216,71320
 1.5000e+000 71395  7.4704e-001  2.5050e+000  7.1477e-001 59417 71216,71346,71320
 1.5000e+000 71372 -2.7904e+000  2.2689e+000  1.5255e+000 59417 71268,71320,71294
 1.5000e+000 71490  1.5648e+000  4.5730e+000  7.0918e-001 59417 71268,71242,71464
 1.5000e+000 71513  5.0123e-002  2.1703e+000  1.9276e+000 59417 71268,71464,71320
 1.5000e+000 71712  2.4826e-001  2.2664e+000 -4.3272e-002 58913 71562,71614,71588
 1.5000e+000 71689  1.0693e+000  1.9113e+000 -5.8800e-001 58913 71536,71614,71562
 1.5000e+000 71666  1.1896e+000  1.7707e+000 -5.1816e-001 58913 71536,71640,71614
 1.5000e+000 72171 -2.9848e-001 -9.1308e-002 -8.8752e-001 58409 72194,72027,72001
 1.5000e+000 72148 -7.7081e-001  2.5647e-002 -3.7291e-001 58409 72194,72001,71949
 1.5000e+000 72125 -7.8457e-001 -6.9232e-001  6.5033e-002 58409 71923,72053,71949
 1.5000e+000 72102 -3.3110e-002  6.8346e-001 -9.1657e-001 58409 71949,72001,71975
 1.5000e+000 72079 -3.4917e-001 -3.6294e-001  2.5370e-001 58409 71897,72053,71923
 1.5000e+000 72220 -9.6573e-001 -3.5681e-001 -8.6936e-001 58409 72053,72027,72194
 1.5000e+000 72243 -1.2348e+000 -1.0038e-001 -3.9471e-001 58409 72053,72194,71949
 1.5000e+000 72491 -3.3875e+000 -1.0899e+000 -2.2835e+000 57855 72514,72318,72292
 1.5000e+000 72468  2.3203e+000  1.3227e+000 -2.6197e+000 57855 72514,72292,72266
 1.5000e+000 72445 -1.7441e+000  5.3807e-001  2.2174e-001 57855 72318,72396,72370
 1.5000e+000 72422 -4.4903e+000  1.9168e+000 -1.2193e+000 57855 72318,72370,72344
 1.5000e+000 72540 -3.9202e+000 -2.9498e-001 -1.4649e+000 57855 72396,72318,72514
 1.5000e+000 72563 -3.3759e+000 -3.1351e-001 -1.5519e+000 57855 72396,72514,72266
 1.5000e+000 72811  1.3963e+000  6.5309e-001 -6.6787e-001 57401 72612,72690,72638
 1.5000e+000 72788  8.7177e-002  1.1965e-001  2.7125e-001 57401 72586,72690,72612
 1.5000e+000 72765 -8.4892e-001 -5.8962e-001 -1.1860e+000 57401 72638,72690,72664
 1.5000e+000 72742  4.1939e-001  1.6033e+000 -1.4310e-001 57401 72586,72716,72690
 1.5000e+000 73144  2.7856e-001  1.3096e+000 -1.8415e-001 57004 72919,72997,72945
 1.5000e+000 73121  3.9509e-001  2.3603e+000 -4.6900e-001 57004 72919,73049,72997
 1.5000e+000 73098  3.2186e-001  1.6561e+000 -4.1596e-001 57004 72945,72997,72971
 1.5000e+000 73075  5.1276e-001  2.8298e+000 -6.0338e-001 57004 72997,73049,73023
 1.5000e+000 73650 -1.0265e+000 -1.9601e-001  1.5364e-001 56592 73673,73379,73353
 1.5000e+000 73627  3.1567e-001  2.4789e-001  9.0688e-002 56592 73673,73353,73327
 1.5000e+000 73604 -1.5310e+000  7.5754e-002  2.8180e-001 56592 73745,73509,73483
 1.5000e+000 73581 -2.1068e+000 -1.3559e-001 -1.8346e-002 56592 73379,73457,73405
 1.5000e+000 73558 -1.4158e-002  5.1931e-001  3.9013e-001 56592 73379,73483,73457
 1.5000e+000 73535  2.3039e+000  3.4095e-001 -8.9314e-002 56592 73405,73457,73431
 1.5000e+000 73699 -7.6497e-001  3.3976e-001  2.6713e-001 56592 73483,73379,73673
 1.5000e+000 73722 -1.2429e+000  1.4581e-001  2.3889e-001 56592 73745,73483,73673
 1.5000e+000 73771 -1.1276e+000 -4.3486e-001  6.7024e-001 56592 73327,73509,73745
 1.5000e+000 73794 -5.2236e-001 -1.6244e-001  5.6602e-001 56592 73327,73745,73673
 1.5000e+000 74123  3.1702e+000  2.4344e+000  4.8546e-001 56152 74146,74002,73924
 1.5000e+000 74100  2.3484e+000  2.3149e+000  2.7134e-001 56152 74146,73924,73898
 1.5000e+000 74077  3.1229e+000  1.6085e+000  7.4693e-001 56152 73924,74002,73976
 1.5000e+000 74054  3.0042e+000  1.3408e+000  9.7805e-001 56152 73924,73976,73950
 1.5000e+000 74172  4.1504e+000  1.9940e+000 -9.9597e-002 56152 74028,74002,74146
 1.5000e+000 74195  2.8434e+000  1.9337e+000 -2.6816e-001 56152 74028,74146,73898
 1.5000e+000 74345  1.6971e+000  1.1438e+000 -6.8991e-001 55634 74218,74270,74244
 1.5000e+000 74322  2.2750e+000 -6.8694e-001 -5.7513e-001 55634 74218,74296,74270
 1.5000e+000 74823  4.6279e-001 -1.5020e+000  3.5977e-001 55016 74918,74846,74581
 1.5000e+000 74800 -1.8851e-001 -4.7346e-001  2.1478e-002 55016 74846,74477,74633
 1.5000e+000 74777 -1.0712e+000 -2.4865e+000  8.3184e-001 55016 74918,74581,74555
 1.5000e+000 74754 -1.9731e+000 -1.9033e+000  1.4870e+000 55016 74990,74503,74477
 1.5000e+000 74731 -8.3670e-001 -3.9052e-001  5.3201e-001 55016 74451,74633,74477
 1.5000e+000 74708 -2.2110e+000 -8.8949e-001  7.8349e-001 55016 74451,74659,74633
 1.5000e+000 74685 -2.8489e+000 -2.9340e+000  2.4863e+000 55016 74503,74555,74529
 1.5000e+000 74872  6.5698e-001 -1.2919e+000 -1.8487e-002 55016 74607,74581,74846
 1.5000e+000 74895  9.4507e-002 -1.6805e+000  1.5418e-001 55016 74607,74846,74633
 1.5000e+000 74944 -1.8886e+000 -1.7140e+000  5.7312e-001 55016 74477,74846,74918
 1.5000e+000 74967 -2.2368e+000 -1.7557e+000  1.0307e+000 55016 74990,74477,74918
 1.5000e+000 75016 -1.0532e+000 -1.5143e+000  1.4176e+000 55016 74555,74503,74990
 1.5000e+000 75039 -1.2733e+000 -1.3063e+000  9.0948e-001 55016 74555,74990,74918
 1.5000e+000 75287 -3.0167e+000 -3.8427e+000  1.3148e-001 54726 75310,75140,75114
 1.5000e+000 75264 -3.6459e+000 -2.2178e+000 -2.5773e-001 54726 75310,75114,75088
 1.5000e+000 75241 -4.7998e+000 -2.0765e+000 -2.1077e+000 54726 75088,75192,75166
 1.5000e+000 75218 -8.8013e+000 -2.3170e-001 -2.2270e+000 54726 75062,75192,75088
 1.5000e+000 75336 -2.2712e+000 -2.9386e+000 -8.6254e-001 54726 75166,75140,75310
 1.5000e+000 75359 -3.5059e+000 -1.2885e+000 -8.4723e-001 54726 75166,75310,75088
 1.5000e+000 75946 -8.9073e-002  2.8314e-001  2.9606e-001 54322 75969,75701,75649
 1.5000e+000 75923 -7.6406e-001 -1.7285e-001  4.9662e-001 54322 75969,75649,75623
 1.5000e+000 75900 -3.8283e-001  4.9110e-002 -1.5134e-002 54322 76041,75753,75701
 1.5000e+000 75877 -1.7492e-001  1.0968e+000  2.9368e-002 54322 75623,75805,75779
 1.5000e+000 75854 -4.2677e-001  9.8656e-002 -1.8679e-001 54322 75701,75753,75727
 1.5000e+000 75831 -1.6359e-001 -6.5399e-003  9.8189e-002 54322 75649,75701,75675
 1.5000e+000 75995 -5.6439e-001  1.4752e-001  1.3461e-001 54322 76041,75701,75969
 1.5000e+000 76018 -5.6329e-001  3.7453e-001  2.3433e-001 54322 75779,75969,75623
 1.5000e+000 76067 -2.6672e-001  3.1028e-001 -8.2364e-002 54322 75779,75753,76041
 1.5000e+000 76090 -3.9830e-001  4.9830e-001  6.6038e-002 54322 75779,76041,75969
 1.5000e+000 76468 -1.0999e-001  4.0149e-001  5.6471e-002 53868 76491,76272,76220
 1.5000e+000 76445 -1.6257e-001  4.5231e-001 -1.2302e-002 53868 76491,76220,76324
 1.5000e+000 76422 -5.2599e-003  4.9681e-001  3.7021e-003 53868 76220,76272,76246
 1.5000e+000 76399 -2.2239e-001  8.1740e-001  1.6116e-001 53868 76194,76324,76220
 1.5000e+000 76376 -9.9671e-001  5.0367e-001 -1.0794e-002 53868 76194,76350,76324
 1.5000e+000 76517 -1.5035e-001  3.1692e-001  4.4827e-002 53868 76298,76272,76491
 1.5000e+000 76540 -1.9361e-001  3.8797e-001 -2.1668e-002 53868 76298,76491,76324
 1.5000e+000 76690 -9.4012e-002  5.2527e-001 -7.0600e-002 53356 76589,76641,76615
 1.5000e+000 76667  1.4812e-001  1.1765e+000  3.6869e-002 53356 76563,76641,76589
 1.5000e+000 76938 -4.4015e-001  7.2587e-001 -7.6199e-001 53009 77105,76961,76765
 1.5000e+000 76915  2.0371e-001  9.3952e-001 -3.6074e-001 53009 76961,76713,76843
 1.5000e+000 76892 -2.5984e-001  8.7764e-001 -1.3547e-001 53009 77033,76817,76791
 1.5000e+000 76869 -1.1849e+000  2.1406e-001 -1.4849e+000 53009 77105,76765,76739
 1.5000e+000 76987 -5.0269e-002  1.7338e+000 -5.1242e-001 53009 76791,76765,76961
 1.5000e+000 77010 -3.0556e-001  9.3730e-001 -3.8967e-001 53009 77033,76791,76961
 1.5000e+000 77059  1.2797e-001  1.0505e+000 -1.7314e-001 53009 76843,76817,77033
 1.5000e+000 77082  5.4777e-002  1.0835e+000 -4.0770e-001 53009 76843,77033,76961
 1.5000e+000 77131  3.5232e-001  1.2284e+000 -4.3383e-001 53009 76713,76961,77105
 1.5000e+000 77154  2.2847e-001  1.1672e+000 -1.0394e+000 53009 76713,77105,76739
 1.5000e+000 77355  3.2652e+000 -2.9894e+000  1.9517e+000 52390 77378,77257,77231
 1.5000e+000 77332  2.2935e+000 -1.2566e+000  1.2454e+000 52390 77378,77231,77179
 1.5000e+000 77309  2.9725e+000 -2.9707e+000 -8.4991e-001 52390 77179,77231,77205
 1.5000e+000 77404  3.9979e+000 -1.7728e+000  1.3071e+000 52390 77283,77257,77378
 1.5000e+000 77427  3.1375e+000  2.6246e-001  6.3900e-001 52390 77283,77378,77179
 1.5000e+000 77677 -1.8666e+000  3.1110e+000 -1.8887e+000 51986 77700,77504,77478
 1.5000e+000 77654  1.6086e-001  4.4187e+000 -2.4565e+000 51986 77700,77478,77452
 1.5000e+000 77631 -2.0034e-001  2.0576e+000 -6.7670e-001 51986 77772,77556,77530
 1.5000e+000 77608 -4.8738e-001  1.7841e+000 -9.7035e-001 51986 77452,77582,77556
 1.5000e+000 77726 -4.6420e-001  2.8894e+000 -7.7515e-001 51986 77530,77504,77700
 1.5000e+000 77749  1.0679e-001  2.7097e+000 -9.1391e-001 51986 77772,77530,77700
 1.5000e+000 77798  1.9364e-001  2.3556e+000 -1.2232e+000 51986 77452,77556,77772
 1.5000e+000 77821  3.9983e-001  2.5273e+000 -1.4257e+000 51986 77452,77772,77700
 1.5000e+000 78282  8.6559e-001 -2.2079e-001 -1.0469e-002 51738 78008,78138,78060
 1.5000e+000 78259  1.1131e+000 -3.6284e-001  6.6575e-001 51738 78008,78164,78138
 1.5000e+000 78236  3.5614e-001  2.0449e-001 -3.3407e-002 51738 78086,78138,78112
 1.5000e+000 78213  3.1032e-001 -2.3793e-002  6.0015e-003 51738 78060,78138,78086
 1.5000e+000 78190  1.5641e+000  2.4244e-001 -3.5287e-001 51738 78008,78060,78034
 1.5000e+000 78432 -2.8461e-001 -7.1806e-002  8.3086e-003 51148 78305,78357,78331
 1.5000e+000 78409 -2.4466e-001  1.4905e-001 -3.2466e-002 51148 78305,78383,78357
 1.5000e+000 78891 -1.5917e-001  3.6858e-002  4.2014e-001 50808 78914,78695,78669
 1.5000e+000 78868 -5.0324e-002  2.6080e-001  3.4431e-001 50808 78914,78669,78643
 1.5000e+000 78845  5.8477e-002  3.3558e-001  2.3846e-001 50808 78643,78773,78747
 1.5000e+000 78822  2.9821e-001  4.2538e-001  3.5034e-001 50808 78617,78773,78643
 1.5000e+000 78799 -5.9324e-003  3.1712e-001  3.2626e-001 50808 78695,78747,78721
 1.5000e+000 78940 -1.9446e-002  2.2820e-001  2.9257e-001 50808 78747,78695,78914
 1.5000e+000 78963 -6.5925e-002  3.1331e-001  2.4858e-001 50808 78747,78914,78643
 1.5000e+000 79260 -3.3190e-001 -1.6965e-001 -1.0975e-001 50468 79283,79090,79012
 1.5000e+000 79237 -4.3103e-001 -3.1515e-002 -1.1871e-001 50468 79283,79012,78986
 1.5000e+000 79214 -4.1282e-001 -2.0518e-001 -1.1988e-001 50468 79012,79090,79038
 1.5000e+000 79191 -2.5040e-001  1.6109e-001 -2.6391e-001 50468 78986,79142,79116
 1.5000e+000 79168 -2.2137e-001 -1.8249e-001 -1.7081e-001 50468 79038,79090,79064
 1.5000e+000 79309 -2.9151e-001 -9.2547e-002 -1.4269e-001 50468 79116,79090,79283
 1.5000e+000 79332 -3.8900e-001  5.5746e-002 -1.4726e-001 50468 79116,79283,78986
 1.5000e+000 79889  2.6489e+000  2.5541e+000 -8.2586e-001 50064 79569,79725,79699
 1.5000e+000 79866  2.7746e-001  1.2087e+000 -2.3969e+000 50064 79543,79725,79569
 1.5000e+000 79843  2.2109e+000  1.1271e+000 -8.7557e-001 50064 79621,79699,79673
 1.5000e+000 79820  2.3041e+000  1.3161e+000 -1.2405e+000 50064 79595,79699,79621
 1.5000e+000 79797  1.5039e+000  1.6697e+000 -1.5333e+000 50064 79569,79699,79595
 1.5000e+000 79774  2.7979e+000  4.6611e+000  7.6706e-002 50064 79517,79725,79543
 1.5000e+000 79751  8.5337e-001  1.2124e+000 -1.0041e+000 50064 79621,79673,79647
 1.5000e+000 80169  2.0453e+000  2.6405e+000 -1.2754e+000 49724 80019,80097,80071
 1.5000e+000 80146  1.5491e+000  4.3896e+000 -1.7657e+000 49724 79993,80097,80019
 1.5000e+000 80123  1.1645e+000  2.3004e+000 -1.3404e+000 49724 80019,80071,80045
 1.5000e+000 80626 -1.2255e+000 -3.9287e-001 -1.9325e-001 49277 80352,80482,80378
 1.5000e+000 80603 -9.5989e-001 -3.3077e-001  1.0841e-001 49277 80352,80508,80482
 1.5000e+000 80580 -1.0591e+000 -2.7041e-001 -1.3437e-001 49277 80378,80482,80456
 1.5000e+000 80557 -1.1953e+000 -7.7991e-001 -8.3836e-002 49277 80378,80430,80404
 1.5000e+000 80534 -1.5255e+000 -4.5068e-001 -5.5518e-002 49277 80378,80456,80430
 1.5000e+000 81230 -2.0213e+000 -1.3955e+000  1.1116e+000 48716 81253,80835,80809
 1.5000e+000 81207 -1.0807e+000  7.3811e-002 -1.8607e-001 48716 81397,81253,80809
 1.5000e+000 81184 -1.1493e+000  1.4399e+000 -4.9221e-001 48716 81325,80913,80887
 1.5000e+000 81161 -7.8942e-001 -7.8614e-001 -8.4849e-002 48716 81397,80809,81017
 1.5000e+000 81138 -1.6545e+000  9.6793e-001 -7.6071e-001 48716 81469,80965,80913
 1.5000e+000 81115 -1.0616e+000  3.7940e-002  1.4014e+000 48716 80835,80887,80861
 1.5000e+000 81092  1.8168e-001 -1.8608e+000  2.3061e+000 48716 80809,81043,81017
 1.5000e+000 81069 -1.8585e+000 -8.6549e-001 -2.0005e+000 48716 80913,80965,80939
 1.5000e+000 81279  7.9842e-001  4.5413e-001  1.6626e-001 48716 80887,80835,81253
 1.5000e+000 81302 -1.5978e+000  1.1886e+000 -6.7555e-001 48716 81325,80887,81253
 1.5000e+000 81351 -1.3332e+000  1.0999e+000 -6.2982e-001 48716 81469,80913,81325
 1.5000e+000 81374 -1.4964e+000  1.6939e+000 -6.1491e-001 48716 80991,81325,81253
 1.5000e+000 81423 -1.1979e+000  1.2877e+000  2.4422e-001 48716 80991,81253,81397
 1.5000e+000 81446 -1.0779e+000  2.0108e-001  3.7740e-001 48716 80991,81397,81017
 1.5000e+000 81495 -2.2497e+000  1.2680e+000 -8.8991e-001 48716 80991,80965,81469
 1.5000e+000 81518 -2.0052e+000  1.3228e+000 -7.7778e-001 48716 80991,81469,81325
 1.5000e+000 81717 -4.3156e-003  2.0765e-001 -2.7244e-002 48262 81740,81567,81541
 1.5000e+000 81694  1.3026e-001  2.8256e-001 -5.8549e-002 48262 81740,81541,81645
 1.5000e+000 81671 -2.0014e-002 -9.8932e-002 -2.9080e-002 48262 81567,81619,81593
 1.5000e+000 81766  7.1819e-002  1.4348e-001  6.6179e-002 48262 81619,81567,81740
 1.5000e+000 81789  1.9608e-001  2.0561e-001  4.0235e-002 48262 81619,81740,81645
 1.5000e+000 81939  1.9245e+000  2.7885e+000 -4.9920e-001 47957 82034,81962,81864
 1.5000e+000 81916  3.1753e-001  2.5074e+000 -8.6966e-001 47957 82166,81962,81838
 1.5000e+000 81988  2.8252e+000  3.1114e+000  6.5970e-001 47957 82294,81962,81890
 1.5000e+000 82011  1.7884e+000  2.6136e+000 -1.1261e-001 47957 81890,81962,81812
 1.5000e+000 82060  1.9967e+000  3.2541e+000 -3.1852e-001 47957 81838,81962,82034
 1.5000e+000 82192 -2.9171e-001  2.3801e+000  5.0591e-001 47957 81812,81962,82166
 1.5000e+000 82320  3.6358e+000  2.6427e+000 -3.3786e-002 47957 81864,81962,82294
 1.5000e+000 82549 -2.1840e-001  4.7815e-003 -9.2689e-002 47617 82448,82500,82474
 1.5000e+000 82526 -4.7166e-003  8.1940e-001 -3.8345e-002 47617 82422,82500,82448
 1.5000e+000 82902  2.3101e-001  5.8646e-001 -7.5360e-002 47255 82729,82807,82755
 1.5000e+000 82879  5.7379e-001  6.3597e-001  1.2889e-001 47255 82703,82807,82729
 1.5000e+000 82856  2.3126e-001  5.5751e-001 -8.7900e-002 47255 82755,82807,82781
 1.5000e+000 82833  1.3710e+000  9.7764e-001  2.0916e-001 47255 82677,82807,82703
 1.5000e+000 83182  1.1679e-001 -9.0631e-001  5.4508e-001 46680 83032,83084,83058
 1.5000e+000 83159  5.5938e-001 -4.6874e-001  7.7779e-001 46680 83205,83084,83032
 1.5000e+000 83136 -6.2449e-001  2.3942e-001  6.1608e-001 46680 83006,83110,83084
 1.5000e+000 83231  1.3086e+000  1.5180e-001  1.0883e+000 46680 83006,83084,83205
 1.5000e+000 83737 -2.1042e+000 -5.5622e-001  3.6832e-001 46290 83832,83760,83492
 1.5000e+000 83714 -2.0373e+000 -2.7197e-001  2.9995e-001 46290 83760,83440,83414
 1.5000e+000 83691 -1.6274e+000 -8.5882e-001  2.8192e-001 46290 83832,83492,83466
 1.5000e+000 83668 -1.7277e+000 -1.6420e+000  6.6994e-001 46290 83492,83570,83544
 1.5000e+000 83645 -2.8901e+000 -7.8212e-001  8.7693e-002 46290 83414,83596,83570
 1.5000e+000 83622 -1.6357e+000 -1.2328e+000  9.5406e-001 46290 83492,83544,83518
 1.5000e+000 83786 -2.0760e+000 -5.2842e-001  3.4837e-001 46290 83570,83492,83760
 1.5000e+000 83809 -2.0618e+000 -6.8146e-001  1.3889e-001 46290 83570,83760,83414
 1.5000e+000 83858 -1.4885e+000 -2.4360e-001  5.2718e-001 46290 83440,83760,83832
 1.5000e+000 83881 -6.0732e-001 -4.2028e-001  3.2345e-001 46290 83440,83832,83466
 1.5000e+000 84161 -4.7221e-002 -4.7994e-001  7.6749e-002 45829 84011,84063,84037
 1.5000e+000 84138 -2.6026e-001 -4.9014e-001  2.3687e-002 45829 84011,84089,84063
 1.5000e+000 84115  1.0571e-002 -3.7385e-001  2.9064e-002 45829 83985,84089,84011
 1.5000e+000 84311  5.2348e-001  1.1144e+000  9.9947e-002 45631 84184,84236,84210
 1.5000e+000 84288  8.0401e-002 -1.8285e-001 -1.8078e-002 45631 84184,84262,84236
 1.5000e+000 84657 -1.1374e-001 -1.4648e-001 -5.4391e-002 45155 84680,84490,84412
 1.5000e+000 84634 -1.5653e-001 -4.1741e-002 -1.4253e-002 45155 84680,84412,84360
 1.5000e+000 84611 -2.1805e-001 -2.2799e-001  5.2943e-002 45155 84412,84490,84438
 1.5000e+000 84588  1.9595e-002  1.4607e-001 -4.2583e-002 45155 84334,84516,84360
 1.5000e+000 84565 -7.4147e-002  1.7417e-001 -2.9719e-001 45155 84360,84412,84386
 1.5000e+000 84542 -1.8890e-001 -2.9630e-001  9.0544e-003 45155 84438,84490,84464
 1.5000e+000 84706 -1.2613e-001 -4.4468e-002 -7.5056e-002 45155 84516,84490,84680
 1.5000e+000 84729 -1.6237e-001  6.7301e-002 -5.0334e-002 45155 84516,84680,84360
 1.5000e+000 85077 -2.2457e-002 -4.6762e-001 -1.7875e-001 44508 85100,84754,84910
 1.5000e+000 85054 -6.6432e-002  4.1337e-002 -5.5968e-002 44508 84754,84936,84910
 1.5000e+000 85031 -4.5773e-001 -8.4050e-001  1.3583e-001 44508 85100,84910,84884
 1.5000e+000 85008 -4.6749e-001 -1.8610e-001 -3.5395e-001 44508 84780,84884,84832
 1.5000e+000 84985 -4.6257e-001 -1.9893e-001 -3.9191e-001 44508 84780,84832,84806
 1.5000e+000 84962 -1.1282e+000 -8.0906e-001 -6.1115e-002 44508 84832,84884,84858
 1.5000e+000 85126 -3.7820e-001  6.3258e-002 -4.9095e-001 44508 84780,84754,85100
 1.5000e+000 85149 -7.0945e-001 -2.9871e-001 -2.0509e-001 44508 84780,85100,84884
 1.5000e+000 85482  4.6559e-001  2.1062e-001  1.7595e-002 44104 85335,85387,85361
 1.5000e+000 85459  3.4677e-001 -5.2370e-002  8.8109e-002 44104 85309,85387,85335
 1.5000e+000 85436  2.1560e-001 -5.6434e-002 -4.8496e-002 44104 85257,85387,85309
 1.5000e+000 85413  1.4034e-001  1.8704e-002  4.8236e-002 44104 85257,85309,85283
 1.5000e+000 85811 -2.1340e-001 -2.7272e-001 -4.9652e-002 43600 85586,85664,85612
 1.5000e+000 85788 -1.3949e-001  5.9771e-002 -1.4047e-002 43600 85586,85690,85664
 1.5000e+000 85765 -1.0945e-001  3.6039e-001 -1.6320e-001 43600 85586,85716,85690
 1.5000e+000 85742 -2.4389e-001 -2.0184e-001 -1.8862e-001 43600 85612,85664,85638
 1.5000e+000 86010  3.6271e-001  2.7333e-001 -1.7522e-002 43224 85886,85938,85912
 1.5000e+000 85987  2.7752e-001  2.4753e-002 -9.2804e-003 43224 85834,85938,85886
 1.5000e+000 85964  3.8549e-001 -6.4881e-001 -2.5644e-002 43224 85834,85886,85860
 1.5000e+000 86420  3.4032e+000  1.7024e+000 -3.4792e-001 42820 86195,86299,86221
 1.5000e+000 86397  3.4326e+000  3.1387e+000 -1.1235e+000 42820 86195,86325,86299
 1.5000e+000 86374  2.2214e+000  1.5247e+000  1.9173e-001 42820 86221,86299,86273
 1.5000e+000 86351  1.7207e+000  1.1037e+000 -3.1119e-001 42820 86221,86273,86247
 1.5000e+000 86749  6.1742e-001 -5.3261e-001 -1.4205e-001 42223 86550,86602,86576
 1.5000e+000 86726  2.6847e+000 -1.1642e+000  1.5421e-001 42223 86550,86628,86602
 1.5000e+000 86703  9.6106e-001 -1.6450e+000  1.0722e+000 42223 86524,86628,86550
 1.5000e+000 86680  2.0130e+000  1.1540e+000  9.0272e-001 42223 86524,86654,86628
 1.5000e+000 87078  4.3928e-001 -3.9522e-001  2.5979e-001 41883 87173,87101,86905
 1.5000e+000 87055  5.3426e-001  1.1579e+000  1.0280e-001 41883 87101,86879,86853
 1.5000e+000 87032  9.6263e-002  2.2162e-001  5.6499e-002 41883 86853,86983,86931
 1.5000e+000 87009  1.3273e-001  3.2094e-001  5.0465e-002 41883 86931,86983,86957
 1.5000e+000 87127  7.8671e-001  2.8285e-001  4.2677e-002 41883 86931,86905,87101
 1.5000e+000 87150  4.0511e-002  7.4593e-003  8.0596e-002 41883 86931,87101,86853
 1.5000e+000 87199  2.2238e-001  1.9961e-001  4.4469e-001 41883 86879,87101,87173
 1.5000e+000 87558 -2.2171e-002  1.0804e+000 -3.1176e-001 41471 87382,87460,87408
 1.5000e+000 87535 -1.5975e+000  9.2701e-001 -2.6289e-001 41471 87382,87486,87460
 1.5000e+000 87512  2.9529e-001  5.2939e-002 -1.3588e-001 41471 87408,87460,87434
 1.5000e+000 87806  1.6144e-001  9.2506e-002 -4.4101e-001 41017 87829,87607,87581
 1.5000e+000 87783  1.8116e-001 -1.7730e-001 -3.8469e-002 41017 87829,87581,87685
 1.5000e+000 87760  4.4868e-001 -3.6734e-002 -1.2689e-001 41017 87581,87711,87685
 1.5000e+000 87737  2.8769e-001 -7.4890e-001 -3.1103e-003 41017 87633,87685,87659
 1.5000e+000 87855 -1.0152e-001 -8.9849e-002 -2.6648e-001 41017 87633,87607,87829
 1.5000e+000 87878 -1.6934e-001 -4.0351e-001  1.4594e-001 41017 87633,87829,87685
 1.5000e+000 88258  1.8831e-001  1.1430e-001 -1.7755e-001 40613 88281,88036,88010
 1.5000e+000 88235 -4.7577e-002  1.7083e-001 -8.2793e-002 40613 88281,88010,88088
 1.5000e+000 88212 -4.3937e-002  1.4257e-001 -6.1458e-002 40613 87984,88088,88010
 1.5000e+000 88189 -3.5659e-002  1.4352e-001  5.4569e-003 40613 87984,88114,88088
 1.5000e+000 88166 -1.4510e-002  1.4526e-001  3.0134e-003 40613 87984,88140,88114
 1.5000e+000 88307 -7.8400e-003  1.0238e-001 -1.4437e-001 40613 88062,88036,88281
 1.5000e+000 88330 -3.2835e-001  7.8028e-002 -2.4528e-002 40613 88062,88281,88088
 1.5000e+000 88649 -4.9364e-001  9.9487e-002 -2.2602e-003 40095 88375,88505,88401
 1.5000e+000 88626 -7.6545e-001  2.1629e-001 -7.3597e-002 40095 88375,88531,88505
 1.5000e+000 88603 -5.9206e-001  2.2647e-003 -4.7977e-002 40095 88401,88505,88479
 1.5000e+000 88580 -3.4534e-001  6.1997e-001  3.0665e-001 40095 88427,88479,88453
 1.5000e+000 88557 -4.6735e-001 -6.6289e-002 -7.9682e-002 40095 88401,88479,88427
 1.5000e+000 89078  1.5758e+000 -1.1623e+000 -9.2692e-001 39897 89101,88833,88807
 1.5000e+000 89055  7.2405e-001 -1.4045e+000 -9.8246e-001 39897 89101,88807,88911
 1.5000e+000 89032 -1.0070e-001 -1.1327e+000 -1.5662e+000 39897 88781,88911,88807
 1.5000e+000 89009 -1.0915e+000 -1.5728e+000 -1.6574e+000 39897 88781,88937,88911
 1.5000e+000 88986  4.0407e+000  6.1512e-001 -5.2417e-001 39897 88833,88885,88859
 1.5000e+000 88963 -1.9213e+000 -1.6099e+000 -2.1282e+000 39897 88755,88937,88781
 1.5000e+000 89127  2.3238e+000 -1.5588e+000 -1.6518e+000 39897 88885,88833,89101
 1.5000e+000 89150  1.0512e+000 -2.0267e+000 -1.8353e+000 39897 88885,89101,88911
 1.5000e+000 89300 -1.8628e+000 -1.6600e+000  8.4830e-001 39607 89453,89323,89199
 1.5000e+000 89277 -2.7109e+000 -9.6865e-001  7.0895e-001 39607 89525,89453,89199
 1.5000e+000 89349 -1.5739e+000 -1.6254e+000  5.3013e-002 39607 89225,89199,89323
 1.5000e+000 89479 -1.6034e+000 -5.6706e-001  6.9095e-001 39607 89251,89323,89453
 1.5000e+000 89502 -1.4312e+000  1.4968e-001  1.4423e+000 39607 89251,89453,89173
 1.5000e+000 89551 -1.0826e+000 -5.0513e-001  8.3914e-001 39607 89173,89453,89525
 1.5000e+000 90264 -9.8068e-001 -1.5854e+000 -1.5310e-001 39039 89996,90074,90048
 1.5000e+000 90241 -7.3121e-001 -8.2911e-001 -1.0742e-001 39039 89918,90074,89996
 1.5000e+000 90218 -1.2354e+000 -1.1618e+000  1.4829e-001 39039 89918,89996,89944
 1.5000e+000 90195 -1.3886e+000 -8.9670e-001  1.9786e-001 39039 89892,90074,89918
 1.5000e+000 90172 -1.1451e-001 -1.6852e+000 -2.9927e-001 39039 89996,90048,90022
 1.5000e+000 90149 -2.0828e+000  1.1979e+000  4.6663e-002 39039 89892,90100,90074
 1.5000e+000 90126 -1.6252e+000 -1.3098e+000 -2.1298e-001 39039 89944,89996,89970
 1.5000e+000 90770 -2.6468e-001 -3.5295e-001 -3.5587e-002 38635 90473,90603,90577
 1.5000e+000 90747 -1.4564e-001 -3.3466e-001  2.9123e-002 38635 90447,90603,90473
 1.5000e+000 90724 -2.7469e-001 -5.0769e-001 -6.5215e-002 38635 90499,90577,90551
 1.5000e+000 90701 -2.5420e-001 -5.2368e-001 -2.4936e-002 38635 90473,90577,90499
 1.5000e+000 90678 -1.9916e-001 -7.0403e-001 -6.7491e-002 38635 90499,90551,90525
 1.5000e+000 90655 -2.3634e-001 -2.3843e-001  5.6802e-002 38635 90447,90629,90603
 1.5000e+000 90871 -5.5911e-002 -2.0140e-001 -1.3382e-001 38231 90793,90845,90819
 1.5000e+000 91458  2.6081e-001 -5.3770e-002 -2.6280e-002 37534 91161,91317,91291
 1.5000e+000 91435  1.9692e-001  1.9912e-001  1.4071e-001 37534 91135,91317,91161
 1.5000e+000 91412 -2.2301e-001 -8.2415e-001 -3.5912e-001 37534 91187,91291,91239
 1.5000e+000 91389  1.3410e-001 -7.8439e-001  1.0253e-001 37534 91161,91291,91187
 1.5000e+000 91366  4.7891e-002 -6.1876e-001 -2.6872e-001 37534 91239,91291,91265
 1.5000e+000 91343  5.9990e-001 -9.7400e-001 -7.1178e-001 37534 91187,91239,91213
 1.5000e+000 91915 -5.3209e-001 -5.6438e-001  1.0553e-001 37080 91938,91745,91667
 1.5000e+000 91892 -4.8191e-001 -4.3292e-001  2.6928e-001 37080 91938,91667,91797
 1.5000e+000 91869 -7.3585e-001  3.5685e-001 -5.0611e-002 37080 91641,91797,91667
 1.5000e+000 91846 -6.7951e-001 -7.9499e-001  1.3989e-001 37080 91667,91719,91693
 1.5000e+000 91823 -5.8890e-001 -5.9135e-001  1.1768e-001 37080 91667,91745,91719
 1.5000e+000 91964 -4.2420e-001 -2.8691e-001  1.2459e-001 37080 91771,91745,91938
 1.5000e+000 91987 -4.6090e-001 -3.3947e-001  2.9331e-001 37080 91771,91938,91797
 1.5000e+000 92235 -3.7296e-001 -4.2310e-001 -3.2192e-002 36397 92036,92088,92062
 1.5000e+000 92212 -2.5196e-001 -2.8404e-001 -8.4068e-002 36397 92036,92114,92088
 1.5000e+000 92189 -9.7322e-002 -1.7429e-001 -1.0159e-002 36397 92036,92140,92114
 1.5000e+000 92166 -1.3535e-001 -1.1316e-001  3.2043e-004 36397 92010,92140,92036
 1.5000e+000 92694 -1.9959e-002  4.9530e-003  3.8361e-003 36057 92446,92498,92472
 1.5000e+000 92671  1.8569e-002  6.0159e-002  3.4117e-002 36057 92446,92550,92498
 1.5000e+000 92648  7.5159e-002 -6.7037e-002  2.9378e-002 36057 92446,92576,92550
 1.5000e+000 92625 -1.0317e-002 -3.7268e-002 -6.5823e-002 36057 92420,92576,92446
 1.5000e+000 92602  8.7813e-003 -8.0479e-003 -3.8868e-002 36057 92498,92550,92524
 1.5000e+000 93023 -3.2887e-001 -3.1675e-001 -8.8200e-002 35717 92876,92928,92902
 1.5000e+000 93000 -2.8335e-001 -3.3037e-001 -9.2809e-002 35717 92824,92928,92876
 1.5000e+000 92977 -4.7672e-002 -3.0731e-001 -3.6959e-002 35717 92798,92928,92824
 1.5000e+000 92954 -2.2878e-001 -4.1686e-001 -4.0167e-001 35717 92824,92876,92850
 1.5000e+000 93499  1.5930e-001 -5.8519e-001  5.4823e-001 35405 93522,93309,93257
 1.5000e+000 93476  5.0983e-001 -4.5015e-001  4.0088e-001 35405 93666,93522,93257
 1.5000e+000 93453  4.2982e-001 -2.0411e+000  4.5662e-001 35405 93594,93127,93335
 1.5000e+000 93430  1.5867e-001 -4.2241e-001  2.5465e-001 35405 93666,93257,93231
 1.5000e+000 93407 -5.5613e-001 -2.8558e+000 -6.1754e-001 35405 93127,93179,93153
 1.5000e+000 93384 -9.2583e-001 -1.8908e-001  4.3215e-001 35405 93179,93231,93205
 1.5000e+000 93361  8.1204e-001  1.3925e+000  4.6982e-001 35405 93257,93309,93283
 1.5000e+000 93548  1.1710e+000  7.1698e-002  1.1709e+000 35405 93335,93309,93522
 1.5000e+000 93571  6.3505e-001 -9.5010e-001  6.6408e-001 35405 93594,93335,93522
 1.5000e+000 93620  5.2285e-001 -9.0614e-001  3.0885e-001 35405 93179,93127,93594
 1.5000e+000 93643  1.7021e-001 -4.3142e-001  3.5475e-001 35405 93738,93594,93522
 1.5000e+000 93692  1.4345e-001 -5.0707e-001  2.5995e-001 35405 93738,93522,93666
 1.5000e+000 93715 -1.4275e-001 -6.0624e-001  2.3589e-002 35405 93179,93666,93231
 1.5000e+000 93764  1.0551e-001 -5.9721e-001  3.1360e-001 35405 93179,93594,93738
 1.5000e+000 93787  1.3334e-001 -6.4478e-001  2.4060e-001 35405 93179,93738,93666
 1.5000e+000 94372  8.9378e-001  9.4938e-002 -2.5296e-001 34951 94395,94127,94075
 1.5000e+000 94349  1.4992e+000  3.9821e-002 -6.5341e-002 34951 94395,94075,94231
 1.5000e+000 94326  1.1613e+000 -3.6511e-001 -4.7887e-001 34951 94049,94231,94075
 1.5000e+000 94303  7.3401e-001  1.4348e-001 -1.2477e-001 34951 94075,94127,94101
 1.5000e+000 94280  1.5450e+000  4.4202e-001  4.1583e-001 34951 94127,94205,94153
 1.5000e+000 94257  1.6326e+000 -1.3938e-001  8.1668e-001 34951 94153,94205,94179
 1.5000e+000 94421  1.3857e+000 -1.0379e-001  1.2175e-001 34951 94205,94127,94395
 1.5000e+000 94444  2.5101e+000  1.6175e-001  2.7165e-001 34951 94205,94395,94231
 1.5000e+000 94692 -3.6559e-001  2.8273e-001  5.1415e-002 34397 94715,94519,94467
 1.5000e+000 94669 -3.6675e-001  1.5723e-001  3.2631e-002 34397 94715,94467,94597
 1.5000e+000 94646 -3.6201e-001 -2.8611e-001  1.6540e-001 34397 94545,94597,94571
 1.5000e+000 94623 -2.4260e-001  6.7810e-001 -1.9034e-001 34397 94467,94519,94493
 1.5000e+000 94741 -2.9361e-001  6.8770e-001  1.0702e-001 34397 94545,94519,94715
 1.5000e+000 94764 -4.5943e-001  2.9107e-001  8.2197e-002 34397 94545,94715,94597
 1.5000e+000 94985 -1.0963e+000  6.5960e-001 -1.2340e-001 33985 94835,94913,94887
 1.5000e+000 94962 -3.0199e-001  2.5927e+000 -1.9508e-001 33985 94809,94913,94835
 1.5000e+000 94939 -3.1612e-001  8.7734e-001 -2.5546e-001 33985 94835,94887,94861
 1.5000e+000 95186 -1.3728e-001 -3.7037e-001 -2.1498e-001 33645 95281,95209,95036
 1.5000e+000 95163  9.6450e-002 -5.1457e-001  9.2878e-002 33645 95209,95010,95088
 1.5000e+000 95140  3.0722e-001 -9.4687e-002 -2.0308e-002 33645 95010,95114,95088
 1.5000e+000 95235 -4.5108e-001 -4.7168e-001 -1.7847e-001 33645 95062,95036,95209
 1.5000e+000 95258 -2.8414e-001 -6.6350e-001  2.5976e-001 33645 95413,95209,95088
 1.5000e+000 95307 -3.9613e-002 -1.7405e-001 -2.8264e-001 33645 95010,95209,95281
 1.5000e+000 95439 -2.0526e-001 -5.5047e-001  2.1853e-001 33645 95062,95209,95413
 1.5000e+000 95766 -3.1663e-001  2.2597e-001 -4.7617e-001 33141 95789,95593,95567
 1.5000e+000 95743 -3.1302e-002  1.0569e-003 -1.6466e-001 33141 95861,95789,95567
 1.5000e+000 95720 -6.0163e-002  6.7856e-002 -3.9645e-002 33141 95861,95567,95671
 1.5000e+000 95697 -6.6448e-002  8.4775e-002 -3.4724e-002 33141 95541,95671,95567
 1.5000e+000 95815 -6.9109e-002  7.9979e-001 -4.0999e-001 33141 95619,95593,95789
 1.5000e+000 95838  5.2237e-002  2.9942e-001 -1.6836e-001 33141 95619,95789,95645
 1.5000e+000 95887  6.7482e-002  2.2306e-001 -1.8258e-001 33141 95645,95789,95861
 1.5000e+000 95910  2.9775e-002  2.8581e-001 -4.0878e-002 33141 95645,95861,95671
 1.5000e+000 96060 -3.8408e-001 -1.8202e-001 -2.6818e-001 32487 95959,96011,95985
 1.5000e+000 96037 -3.8102e-002 -2.8100e-002 -6.7095e-002 32487 95933,96011,95959
 1.5000e+000 96570 -1.9660e-001 -1.0616e-001  2.4718e-001 32033 96665,96593,96377
 1.5000e+000 96547 -3.2493e-001  3.6840e-002 -1.6940e-001 32033 96737,96593,96325
 1.5000e+000 96524 -2.5190e-001 -2.1855e-001  1.6986e-001 32033 96665,96377,96351
 1.5000e+000 96501 -4.4765e-001 -5.0684e-002 -7.9588e-002 32033 96737,96325,96299
 1.5000e+000 96478 -3.4799e-001  5.1066e-001 -9.0180e-003 32033 96247,96429,96299
 1.5000e+000 96455 -9.3078e-001 -1.0222e+000  5.1065e-002 32033 96247,96299,96273
 1.5000e+000 96619  7.4227e-002  1.2116e-001  2.7869e-001 32033 96809,96593,96403
 1.5000e+000 96642  2.9503e-001  7.1587e-001 -4.1639e-001 32033 96403,96593,96429
 1.5000e+000 96691  1.9434e-002 -3.7924e-001  1.0010e-001 32033 96325,96593,96665
 1.5000e+000 96714 -1.6590e-001 -5.8940e-001 -8.9156e-003 32033 96325,96665,96351
 1.5000e+000 96763 -5.0069e-001  3.1736e-002 -1.2454e-001 32033 96429,96593,96737
 1.5000e+000 96786 -5.4543e-001  3.2908e-002 -5.1748e-002 32033 96429,96737,96299
 1.5000e+000 96835  1.5348e-001  4.1382e-002  2.3530e-001 32033 96377,96593,96809
 1.5000e+000 97064  1.6566e-001  3.3440e-001  2.3369e-001 31671 97087,96989,96963
 1.5000e+000 97041  2.7635e-002  4.1016e-001 -1.3844e-001 31671 97087,96963,96937
 1.5000e+000 97113 -1.8168e-001  3.3237e-001  9.6394e-002 31671 97159,97087,97015
 1.5000e+000 97136 -9.5843e-002  7.4063e-002 -7.2826e-002 31671 97015,97087,96937
 1.5000e+000 97185 -7.0027e-002 -1.1865e-001  1.3857e-001 31671 96989,97087,97159
 1.5000e+000 97563 -7.7237e-001  1.8178e-001  8.8075e-002 31117 97586,97367,97341
 1.5000e+000 97540 -7.8272e-001  3.4572e-002 -2.8983e-002 31117 97658,97586,97341
 1.5000e+000 97517 -7.2241e-001 -1.1486e-002 -4.7938e-003 31117 97658,97341,97315
 1.5000e+000 97494 -1.1581e+000 -5.6795e-002  1.1045e-001 31117 97289,97445,97315
 1.5000e+000 97471 -1.8218e-001 -2.4201e-002  9.2653e-002 31117 97367,97419,97393
 1.5000e+000 97612 -2.9717e-001 -8.9382e-002 -8.3887e-003 31117 97419,97367,97586
 1.5000e+000 97635 -9.5672e-001 -1.6751e-001 -2.2235e-001 31117 97419,97586,97445
 1.5000e+000 97684 -8.7309e-001  1.6103e-003 -1.3592e-002 31117 97445,97586,97658
 1.5000e+000 97707 -8.0552e-001 -3.9663e-002  1.0482e-002 31117 97445,97658,97315
 1.5000e+000 98215 -5.4286e-002  4.6631e-002 -1.8354e-001 30563 98238,97996,97944
 1.5000e+000 98192 -1.7563e-001  1.4072e-001 -1.6250e-001 30563 98310,98238,97944
 1.5000e+000 98169 -2.9600e-001 -1.1620e-001 -1.9644e-001 30563 98310,97944,97918
 1.5000e+000 98146  6.4426e-002  1.7755e-001  1.0097e-001 30563 97892,98074,97918
 1.5000e+000 98123  4.8398e-002  3.4045e-001 -1.1437e-001 30563 97996,98048,98022
 1.5000e+000 98100 -1.9532e-001  9.4199e-002 -3.3673e-001 30563 97944,97996,97970
 1.5000e+000 98264 -6.6413e-002  1.6337e-001 -1.6693e-001 30563 98048,97996,98238
 1.5000e+000 98287  1.4420e-003  4.5915e-001  8.3207e-002 30563 98048,98238,98074
 1.5000e+000 98336 -1.4957e-001  2.3464e-002  1.9680e-002 30563 98074,98238,98310
 1.5000e+000 98359 -1.8394e-001 -4.5244e-002  7.5182e-003 30563 98074,98310,97918
 1.5000e+000 98607 -5.3172e-001  2.0861e-001  1.9014e-003 30073 98630,98460,98408
 1.5000e+000 98584 -8.3324e-001  1.9320e-001 -4.4015e-002 30073 98630,98408,98382
 1.5000e+000 98561 -1.8134e-001  3.5248e-001 -1.5520e-001 30073 98382,98512,98486
 1.5000e+000 98538 -3.3612e-001  1.4707e-001  1.3672e-001 30073 98408,98460,98434
 1.5000e+000 98656 -3.7847e-001  1.1682e-001 -5.7551e-002 30073 98486,98460,98630
 1.5000e+000 98679 -5.8101e-001  1.7988e-001 -1.0068e-001 30073 98486,98630,98382
 1.5000e+000 99157  8.7961e-001  1.0522e-002  4.1615e-002 29669 99180,98837,98811
 1.5000e+000 99134  5.6191e-001  1.0589e-002  4.1240e-001 29669 99324,99180,98811
 1.5000e+000 99111  2.5949e-001  2.8055e-002  2.5856e-002 29669 99252,98863,98837
 1.5000e+000 99088  4.9217e-001 -8.0357e-002  4.4643e-001 29669 99324,98811,98993
 1.5000e+000 99065 -1.3794e-001 -4.9615e-002 -2.0203e-002 29669 98863,98941,98915
 1.5000e+000 99042 -8.1474e-001 -7.9527e-002 -1.1658e-001 29669 98863,98915,98889
 1.5000e+000 99019  4.0161e-001 -8.1614e-002  6.4800e-001 29669 98785,98993,98811
 1.5000e+000 99206  3.6695e-001 -2.1229e-001  9.7570e-002 29669 99252,98837,99180
 1.5000e+000 99229 -4.9532e-002 -1.4614e-001  4.9896e-001 29669 98941,99180,98967
 1.5000e+000 99278  3.2025e-001  1.7648e-001  7.3819e-002 29669 98941,98863,99252
 1.5000e+000 99301  5.3788e-001  8.4157e-002  1.8427e-001 29669 98941,99252,99180
 1.5000e+000 99350  4.7302e-001  1.2647e-001  3.7827e-001 29669 98967,99180,99324
 1.5000e+000 99373  4.4731e-001  6.9348e-002  3.9487e-001 29669 98967,99324,98993
 1.5000e+000 99958  5.4491e-001 -1.2770e-001 -1.4730e-002 29051 99981,99765,99739
 1.5000e+000 99935  3.4749e-001 -1.8944e-002 -1.2066e-001 29051 99981,99739,99661
 1.5000e+000 99912  4.3756e-001 -7.3083e-001  3.1855e-003 29051 99765,99817,99791
 1.5000e+000 99889  4.4938e-001 -5.6107e-002 -2.0723e-001 29051 99635,99817,99661
 1.5000e+000 99866  2.3996e-001 -3.1248e-004 -3.7367e-002 29051 99661,99739,99687
 1.5000e+000 99843  1.6019e-001 -4.2055e-002 -2.2356e-002 29051 99687,99739,99713
 1.5000e+000 100007  7.1957e-001 -9.5802e-002 -5.8731e-002 29051 99817,99765,99981
 1.5000e+000 100030  5.2507e-001  1.7629e-002 -1.3092e-001 29051 99817,99981,99661
 1.5000e+000 100278  6.6958e-001 -6.6528e-003  2.2601e-001 28525 100445,100301,100131
 1.5000e+000 100255  2.4791e-001  2.6736e-001  1.8840e-001 28525 100373,100301,100079
 1.5000e+000 100232  2.5120e-001 -1.8164e-002  2.4487e-001 28525 100373,100079,100053
 1.5000e+000 100209  4.7157e-001  1.5339e-001  6.4362e-002 28525 100445,100131,100105
 1.5000e+000 100327  1.0724e+000 -3.8476e-002  2.3907e-001 28525 100517,100301,100157
 1.5000e+000 100350  4.9074e-001  5.2610e-001  1.0623e-001 28525 100157,100301,100183
 1.5000e+000 100399  1.9148e-001 -2.3225e-002  3.2955e-001 28525 100183,100301,100373
 1.5000e+000 100422  2.6262e-001 -2.2776e-001  3.7984e-001 28525 100183,100373,100053
 1.5000e+000 100471  4.0478e-001 -9.1767e-002 -7.0990e-002 28525 100079,100301,100445
 1.5000e+000 100494 -1.3953e-001 -1.8961e-001 -2.5230e-001 28525 100079,100445,100105
 1.5000e+000 100543  1.1643e+000  1.5187e-001  2.5258e-002 28525 100131,100301,100517
 1.5000e+000 101209 -1.2141e+000  3.2604e-002  3.7286e-002 28185 100938,101016,100990
 1.5000e+000 101186 -1.2662e+000 -3.0210e-002  3.9793e-003 28185 100912,101016,100938
 1.5000e+000 101163 -4.0153e-001  2.4836e-001  9.6194e-002 28185 100912,101068,101016
 1.5000e+000 101140 -1.3358e+000 -2.4317e-002 -8.4091e-002 28185 100886,101068,100912
 1.5000e+000 101117 -4.5559e-001  2.6960e-001  1.4273e-001 28185 101016,101068,101042
 1.5000e+000 101094 -3.0501e+000 -4.9136e-001 -7.5486e-003 28185 100938,100990,100964
 1.5000e+000 101408  1.7661e-001  7.0083e-002 -1.7829e-001 27781 101503,101431,101310
 1.5000e+000 101385 -1.7985e-001  4.7169e-001 -4.3738e-001 27781 101431,101258,101232
 1.5000e+000 101362  3.1161e-001 -2.2941e-003 -2.5046e-001 27781 101503,101310,101284
 1.5000e+000 101457  7.7488e-001  4.0729e-001 -3.1583e-001 27781 101336,101310,101431
 1.5000e+000 101480  2.9174e-001  7.4186e-001 -6.3790e-001 27781 101575,101431,101232
 1.5000e+000 101529  3.7864e-001  1.3408e-001 -3.9004e-001 27781 101258,101431,101503
 1.5000e+000 101552  2.3098e-001 -2.2148e-001 -2.2775e-001 27781 101705,101503,101284
 1.5000e+000 101601  3.4334e-001  8.0827e-001 -6.6577e-001 27781 101336,101431,101575
 1.5000e+000 101731 -3.0877e-002 -3.7286e-002 -3.8814e-001 27781 101258,101503,101705
 1.5000e+000 102237 -5.5219e-001 -1.7173e-001  6.0568e-002 27419 102476,102260,101992
 1.5000e+000 102214 -3.7061e-001 -2.7794e-001 -6.0542e-003 27419 102260,101940,101914
 1.5000e+000 102191 -6.0921e-001 -3.2462e-001  1.0222e-001 27419 102404,102332,102096
 1.5000e+000 102168 -5.2231e-001 -2.9066e-001  2.1296e-002 27419 102404,102096,102044
 1.5000e+000 102145 -5.0847e-001 -2.0515e-001  8.6248e-002 27419 102476,101992,101966
 1.5000e+000 102122 -2.9395e-001 -3.2864e-001 -1.1115e-003 27419 102044,102096,102070
 1.5000e+000 102286 -7.2208e-001 -3.2191e-001  1.3807e-001 27419 102018,101992,102260
 1.5000e+000 102309 -5.6231e-001 -2.3987e-001  3.1059e-002 27419 102332,102018,102260
 1.5000e+000 102358 -6.2074e-001 -5.8438e-001  2.1561e-001 27419 101914,102096,102332
 1.5000e+000 102381 -5.1384e-001 -3.8321e-001  6.1487e-002 27419 101914,102332,102260
 1.5000e+000 102430 -4.3623e-001 -3.0306e-001  9.7040e-003 27419 102018,102332,102404
 1.5000e+000 102453 -3.6829e-001 -2.4712e-001 -7.9921e-002 27419 102018,102404,102044
 1.5000e+000 102502 -4.5234e-001 -2.3475e-001  8.7029e-002 27419 101940,102260,102476
 1.5000e+000 102525 -3.6673e-002 -5.3694e-002  5.3189e-002 27419 101940,102476,101966
 1.5000e+000 103031  1.6217e-001  3.3480e-002  3.7434e-002 26715 102708,102786,102760
 1.5000e+000 103008  3.2463e-001 -1.4521e-002 -5.6674e-002 26715 102708,102890,102786
 1.5000e+000 102985  7.8362e-001 -1.5653e-001  4.7176e-003 26715 102838,102890,102864
 1.5000e+000 102962  3.9603e-001 -1.8959e-001  1.2019e-001 26715 102786,102890,102838
 1.5000e+000 102939  1.2885e+000  2.6220e-001  6.8400e-001 26715 102786,102838,102812
 1.5000e+000 102916  1.2168e-001  3.1229e-003 -1.7107e-002 26715 102708,102760,102734
 1.5000e+000 103279 -7.6341e-001 -2.9858e-002 -5.9022e-002 26303 103302,103158,103080
 1.5000e+000 103256 -7.4684e-001 -1.4181e-001 -8.3086e-002 26303 103302,103080,103054
 1.5000e+000 103233 -6.3046e-001 -2.3192e-003 -1.2679e-001 26303 103080,103158,103106
 1.5000e+000 103210 -1.1088e+000 -9.0529e-002 -1.0644e-001 26303 103106,103158,103132
 1.5000e+000 103328 -7.2982e-001 -1.4165e-001 -1.2473e-002 26303 103184,103158,103302
 1.5000e+000 103351 -7.1232e-001 -2.4532e-001 -7.0319e-002 26303 103184,103302,103054
 1.5000e+000 103501 -6.8321e-001 -3.7180e-001  2.0927e-003 25849 103374,103426,103400
 1.5000e+000 103478 -6.8806e-001 -3.6855e-001  4.3628e-003 25849 103374,103452,103426
 1.5000e+000 104090  7.0026e-002  1.1004e-001  1.4127e-001 25445 103793,103871,103819
 1.5000e+000 104067  2.7969e-001  9.8144e-002  5.2107e-002 25445 103793,103949,103871
 1.5000e+000 104044  3.5607e-001  2.0028e-001  1.1051e-001 25445 103871,103949,103923
 1.5000e+000 104021 -6.9549e-002  1.5028e-001 -3.1161e-002 25445 103819,103871,103845
 1.5000e+000 103998  2.9805e-001  1.9243e-001  2.1648e-001 25445 103767,103949,103793
 1.5000e+000 103975  4.3125e-001  1.3522e-001  9.9198e-002 25445 103871,103923,103897
 1.5000e+000 104419 -2.1345e-001 -4.0424e-002 -1.0091e-001 25083 104220,104298,104272
 1.5000e+000 104396 -4.7135e-001 -3.0621e-001  3.9371e-003 25083 104220,104324,104298
 1.5000e+000 104373 -1.5335e-001 -1.0262e-001 -3.3294e-002 25083 104220,104272,104246
 1.5000e+000 104350 -4.3424e-001 -1.8962e-001  4.2954e-002 25083 104194,104324,104220
 1.5000e+000 105102  1.1756e-001 -1.1528e-001 -2.6941e-002 24793 104785,104863,104837
 1.5000e+000 105079  5.8222e-002 -3.9890e-001 -1.9939e-001 24793 104759,104863,104785
 1.5000e+000 105056  2.2237e-002 -8.3950e-003 -1.9770e-001 24793 104759,104915,104863
 1.5000e+000 105033 -4.3107e-002 -1.3104e-001 -1.7320e-001 24793 104733,104915,104759
 1.5000e+000 105010  2.1275e-001  5.9909e-002 -1.3642e-001 24793 104863,104915,104889
 1.5000e+000 104987 -1.5143e-001  3.4255e-002 -2.6379e-001 24793 104681,104915,104733
 1.5000e+000 104964  4.4120e-002 -2.2226e-001 -5.9625e-002 24793 104785,104837,104811
 1.5000e+000 104941 -4.3532e-002  2.9216e-001 -2.8978e-001 24793 104681,104733,104707
 1.5000e+000 105252  1.0101e+000  3.6521e-001 -7.1284e-002 24389 105477,105275,105177
 1.5000e+000 105229  4.4244e-001  1.7005e-001  1.8762e-001 24389 105347,105275,105151
 1.5000e+000 105301  9.3059e-001  2.7535e-001 -3.5762e-002 24389 105203,105177,105275
 1.5000e+000 105324  1.3535e+000  1.0311e+000  3.2973e-001 24389 105203,105275,105125
 1.5000e+000 105373  1.0240e+000  5.3130e-001 -1.8780e-003 24389 105125,105275,105347
 1.5000e+000 105503  7.6225e-001 -9.8480e-002 -1.7122e-001 24389 105151,105275,105477
 1.5000e+000 106088 -4.7033e-001  4.0499e-001  5.2193e-001 23735 105791,105921,105895
 1.5000e+000 106065 -1.5096e+000  5.0011e-002  6.2137e-001 23735 105765,105921,105791
 1.5000e+000 106042 -2.7457e-001  6.2557e-001  3.5730e-001 23735 105765,105947,105921
 1.5000e+000 106019 -1.7937e+000 -5.6051e-002  6.5695e-001 23735 105817,105895,105869
 1.5000e+000 105996 -1.1265e+000  1.7468e-001  6.4302e-001 23735 105791,105895,105817
 1.5000e+000 105973 -1.0597e+000 -4.8753e-002  5.7982e-001 23735 105817,105869,105843
 1.5000e+000 106417  6.4878e-001  1.6529e+000 -2.9574e-001 23295 106218,106296,106270
 1.5000e+000 106394  3.5209e-001  5.8369e-001 -2.3298e-001 23295 106218,106322,106296
 1.5000e+000 106371  1.0533e-001  3.9894e-001 -3.5053e-001 23295 106218,106270,106244
 1.5000e+000 106348  5.6283e-001  6.7369e-001 -8.6876e-002 23295 106192,106322,106218
 1.5000e+000 106746  1.2677e-001  4.8608e-001  1.7261e-001 23005 106521,106599,106547
 1.5000e+000 106723  5.3287e-001  8.1984e-001  2.3754e-002 23005 106521,106651,106599
 1.5000e+000 106700  5.1107e-001  2.9141e-001 -1.9757e-001 23005 106547,106599,106573
 1.5000e+000 106677  6.8033e-001  7.7903e-001  3.9674e-001 23005 106599,106651,106625
 1.5000e+000 107331  1.5681e-002 -1.4170e-002  1.2808e-002 22601 107060,107190,107138
 1.5000e+000 107308  4.1866e-002 -2.8973e-002  2.2554e-002 22601 107034,107190,107060
 1.5000e+000 107285  1.6950e-001  3.8651e-002 -3.2605e-002 22601 107060,107138,107112
 1.5000e+000 107262  6.4231e-002 -4.7339e-002 -2.2963e-002 22601 107008,107190,107034
 1.5000e+000 107239  2.7640e-002  9.8860e-002 -4.1831e-002 22601 107060,107112,107086
 1.5000e+000 107216  1.1929e-001 -7.1270e-002 -5.1673e-002 22601 107138,107190,107164
 1.5000e+000 107807 -3.6980e-001  1.3203e-001 -7.5880e-002 22031 107974,107902,107617
 1.5000e+000 107784 -4.5211e-001  3.5984e-001 -2.0067e-001 22031 107830,107565,107513
 1.5000e+000 107761 -2.6634e-001  8.8333e-002 -2.3213e-001 22031 108046,107830,107513
 1.5000e+000 107738 -2.6833e-001  3.0974e-001  1.7398e-002 22031 107974,107617,107591
 1.5000e+000 107715 -3.0325e-001 -2.9631e-002 -2.0495e-001 22031 108046,107513,107461
 1.5000e+000 107692 -1.2051e+000  5.2150e-001 -3.5493e-001 22031 107513,107565,107539
 1.5000e+000 107669 -8.2160e-002  2.4854e-001 -3.3053e-001 22031 107461,107513,107487
 1.5000e+000 107856 -5.5965e-001  2.3786e-001 -1.3145e-001 22031 107902,107565,107830
 1.5000e+000 107879 -3.3057e-001 -4.7497e-002 -8.0754e-004 22031 107643,107830,107435
 1.5000e+000 107928 -8.0312e-001  4.3146e-001 -3.8250e-001 22031 107643,107617,107902
 1.5000e+000 107951 -5.4246e-001  2.1612e-001  3.0489e-002 22031 107643,107902,107830
 1.5000e+000 108000 -4.8470e-001  3.8428e-001 -9.8403e-002 22031 107565,107902,107974
 1.5000e+000 108023 -4.6729e-001  3.3017e-001 -7.6829e-002 22031 107565,107974,107591
 1.5000e+000 108072 -2.2134e-001 -6.2552e-002 -6.7382e-002 22031 107435,107830,108046
 1.5000e+000 108095 -2.9736e-001 -2.4989e-001 -3.9948e-002 22031 107435,108046,107461
 1.5000e+000 108196 -6.5848e-001 -4.0095e-002 -7.4636e-002 21783 108118,108170,108144
 1.5000e+000 108655  1.2911e-001  7.4253e-001  4.3499e-001 21379 108407,108485,108459
 1.5000e+000 108632  1.4892e+000 -6.8206e-002  6.2349e-001 21379 108407,108511,108485
 1.5000e+000 108609  1.5205e+000 -3.0915e-001  3.3112e-001 21379 108381,108511,108407
 1.5000e+000 108586  6.3362e-001  2.7741e-001 -5.2142e-001 21379 108381,108537,108511
 1.5000e+000 108563  3.9177e-001  1.0457e-001  1.9794e-001 21379 108407,108459,108433
 1.5000e+000 109082 -8.0411e-001  3.4608e-001  1.4641e-001 20974 109105,108863,108811
 1.5000e+000 109059 -5.2747e-001  5.2278e-001 -2.1307e-001 20974 109105,108811,108759
 1.5000e+000 109036 -7.3459e-001 -7.0746e-002  3.4251e-001 20974 109177,108889,108863
 1.5000e+000 109013  4.7957e-002  7.0421e-001 -1.5038e-001 20974 108811,108863,108837
 1.5000e+000 108990 -1.0856e+000  6.4026e-002 -1.3339e-001 20974 108759,108941,108915
 1.5000e+000 108967 -5.0889e-001  7.8402e-002 -5.3210e-002 20974 108759,108811,108785
 1.5000e+000 109131 -9.1831e-001  1.1139e-001  2.0475e-001 20974 109177,108863,109105
 1.5000e+000 109154 -7.5054e-001  1.0942e-001 -1.2474e-001 20974 108915,109105,108759
 1.5000e+000 109203 -5.4891e-001  8.5307e-002  2.2174e-001 20974 108915,108889,109177
 1.5000e+000 109226 -6.5340e-001  4.0433e-001  7.1752e-002 20974 108915,109177,109105
 1.5000e+000 109496 -5.7300e-001  1.3655e-001 -5.4828e-002 20470 109271,109375,109297
 1.5000e+000 109473 -5.2695e-001  2.2315e-001 -9.7865e-002 20470 109271,109401,109375
 1.5000e+000 109450 -6.8873e-001 -2.4728e-002 -1.1154e-001 20470 109297,109375,109349
 1.5000e+000 109427 -9.7096e-001 -5.9421e-001  2.0054e-001 20470 109297,109349,109323
 1.5000e+000 109955  2.6490e-001  1.3117e+000  8.1537e-001 20123 110050,109733,109707
 1.5000e+000 109932 -5.0130e-001  6.6819e-001  5.0866e-001 20123 110050,109707,109681
 1.5000e+000 109909  2.2918e-001  3.1678e-001  4.9933e-001 20123 109978,109759,109733
 1.5000e+000 109886 -1.6637e-002  2.8611e-001  4.9081e-001 20123 110122,109978,109733
 1.5000e+000 109863  3.1108e-001  2.2961e-001  3.0582e-001 20123 109785,109837,109811
 1.5000e+000 110004  2.3962e-001  3.9759e-001  3.6844e-001 20123 109785,109759,109978
 1.5000e+000 110027  1.1923e-001  3.1929e-001  3.1085e-001 20123 109785,109978,109837
 1.5000e+000 110076 -1.5308e-001  4.9846e-001  4.0488e-001 20123 110122,109733,110050
 1.5000e+000 110099 -1.5106e-001  5.0588e-001  1.6684e-001 20123 109837,110050,109681
 1.5000e+000 110148  2.4793e-001  5.9215e-001  3.6800e-001 20123 109837,109978,110122
 1.5000e+000 110171  1.2005e-001  7.7075e-001  2.7739e-001 20123 109837,110122,110050
 1.5000e+000 110500  7.8232e-001  1.2839e-001 -1.3105e-001 19511 110301,110379,110353
 1.5000e+000 110477  1.4752e+000  7.6198e-001 -4.2252e-001 19511 110301,110405,110379
 1.5000e+000 110454  4.5796e-001  2.2735e-001 -1.5252e-001 19511 110275,110405,110301
 1.5000e+000 110431  7.0855e-001  1.8399e-001  2.0541e-001 19511 110301,110353,110327
 1.5000e+000 110957  7.3310e-002  1.0013e+000 -4.4723e-001 19107 110683,110735,110709
 1.5000e+000 110934  1.7906e-001 -1.1163e-001 -8.5828e-001 19107 110683,110813,110735
 1.5000e+000 110911  6.0815e-001  8.1637e-001 -7.1252e-001 19107 110735,110813,110761
 1.5000e+000 110888  2.8675e-001 -5.5173e-001 -3.4765e-002 19107 110683,110839,110813
 1.5000e+000 110865  4.5069e-001  4.6124e-001 -6.8348e-001 19107 110761,110813,110787
 1.5000e+000 111335  4.7177e-002 -4.0356e-001 -2.5742e-002 18653 111087,111165,111139
 1.5000e+000 111312  3.1170e-001 -4.3332e-002 -1.5991e-001 18653 111087,111217,111165
 1.5000e+000 111289  6.5555e-002 -2.0003e-001  1.9049e-001 18653 111061,111217,111087
 1.5000e+000 111266 -1.7746e-002 -5.3944e-001 -4.4633e-002 18653 111087,111139,111113
 1.5000e+000 111243  2.5655e-001 -1.6314e-001 -1.7585e-001 18653 111165,111217,111191
 1.5000e+000 111735 -9.2498e-001 -4.5686e-001  4.7716e-002 18213 111461,111513,111487
 1.5000e+000 111712 -9.0901e-001 -7.1509e-001  4.8198e-002 18213 111461,111617,111513
 1.5000e+000 111689 -8.3694e-001 -5.7505e-001 -7.1496e-002 18213 111513,111617,111591
 1.5000e+000 111666 -2.8639e-001 -3.0236e-001  1.2143e-001 18213 111513,111591,111539
 1.5000e+000 111643  2.3387e-002 -2.4449e-001  2.2460e-002 18213 111539,111591,111565
 1.5000e+000 111885  6.3346e-001 -4.7399e-001  1.9906e-001 17659 111784,111836,111810
 1.5000e+000 111862  9.2407e-001 -3.5951e-002  3.8409e-001 17659 111758,111836,111784
 1.5000e+000 112287  1.5810e-001  8.8458e-002 -2.6398e-002 17411 112065,112169,112143
 1.5000e+000 112264  1.2327e-001 -5.9048e-003 -4.6275e-003 17411 112039,112169,112065
 1.5000e+000 112241  1.2805e-001  5.5772e-003 -4.2416e-003 17411 112013,112169,112039
 1.5000e+000 112218  2.7259e+000  2.8215e-001 -6.5314e-001 17411 112091,112143,112117
 1.5000e+000 112195  8.4406e-002 -8.1299e-002 -3.5813e-002 17411 112065,112143,112091
 1.5000e+000 112508 -5.6968e-001  4.4653e-001  7.0822e-002 17007 112384,112436,112410
 1.5000e+000 112485 -4.2084e-001  5.8571e-001  1.3092e-001 17007 112332,112436,112384
 1.5000e+000 112462 -5.5925e-001  3.1682e-001  8.1650e-002 17007 112332,112384,112358
 1.5000e+000 112658 -1.4273e+000 -4.3720e-001  3.1984e-001 16553 112557,112609,112583
 1.5000e+000 112635 -1.7906e+000 -1.7295e-001  3.9596e-001 16553 112531,112609,112557
 1.5000e+000 112761 -1.2379e+000  1.3146e+000 -2.9646e-001 16355 112683,112735,112709
 1.5000e+000 112913 -9.3434e-001  5.6624e-001  5.7925e-002 15949 112786,112838,112812
 1.5000e+000 112890 -4.3405e-001  1.4237e+000 -1.8055e-001 15949 112786,112864,112838
 1.5000e+000 113065 -5.9893e-001 -6.9021e-001 -5.5811e-002 15609 112938,112990,112964
 1.5000e+000 113042 -1.4405e-001 -2.5378e-001  1.4196e-001 15609 112938,113016,112990
 1.5000e+000 113420  7.5036e-001  6.1930e-001  2.3307e-001 15284 113247,113325,113299
 1.5000e+000 113397  6.9898e-001  4.9410e-001  1.3101e-001 15284 113195,113325,113247
 1.5000e+000 113374  4.6574e-001  4.2896e-001  7.7731e-002 15284 113195,113247,113221
 1.5000e+000 113351  6.8945e-001  9.6529e-001  2.5086e-001 15284 113247,113299,113273
 1.5000e+000 113521 -2.9864e-003  8.4074e-002 -2.3945e-002 202 113443,113495,113469
 2.0000e+000 65564 -3.9144e-002 -8.0687e-002 -9.8387e-002 65155 65414,65466,65440
 2.0000e+000 65541 -1.7350e-001  1.3472e-001  6.4362e-002 65155 65414,65492,65466
 2.0000e+000 65518 -1.0366e-001  2.2209e-001 -8.2273e-002 65155 65388,65492,65414
 2.0000e+000 65883 -3.5579e-001  1.3061e+000  2.0874e-003 64957 65635,65739,65713
 2.0000e+000 65860 -1.4089e-001  2.3418e+000  1.7834e-002 64957 65635,65765,65739
 2.0000e+000 65837  1.9482e-001  2.4973e+000 -2.1689e-002 64957 65609,65765,65635
 2.0000e+000 65814 -2.5377e-001  1.8012e+000 -5.7060e-001 64957 65635,65713,65687
 2.0000e+000 65791 -1.1626e-001  2.1427e+000 -3.8206e-001 64957 65635,65687,65661
 2.0000e+000 65984 -3.5204e-001  3.4515e-001  2.5510e-001 64781 65906,65958,65932
 2.0000e+000 66232  5.6249e-001  7.0071e-001 -6.2871e-001 64469 66007,66059,66033
 2.0000e+000 66209 -4.7259e-001 -1.1216e-001 -9.8846e-001 64469 66007,66085,66059
 2.0000e+000 66186  1.3013e-001  1.4535e+000 -3.1692e-001 64469 66007,66137,66085
 2.0000e+000 66163 -1.0374e+000  6.5402e-002 -1.8132e+000 64469 66085,66137,66111
 2.0000e+000 66504 -3.0120e-003  2.2880e+000 -1.1993e-001 64271 66279,66383,66305
 2.0000e+000 66481 -2.5643e-001  2.3120e+000  6.8093e-002 64271 66279,66409,66383
 2.0000e+000 66458 -4.3622e-001  2.9469e+000 -1.6581e-001 64271 66305,66357,66331
 2.0000e+000 66435  1.3775e-001  2.8344e+000 -1.8062e-001 64271 66305,66383,66357
 2.0000e+000 66705  5.3734e-003  2.9101e+000 -4.8265e-001 64073 66728,66581,66555
 2.0000e+000 66682  3.3691e-001  2.7665e+000 -4.6867e-001 64073 66728,66555,66529
 2.0000e+000 66659 -9.1334e-001  3.4587e+000  7.4237e-001 64073 66581,66633,66607
 2.0000e+000 66754 -1.1033e-001  2.8240e+000 -4.4511e-001 64073 66633,66581,66728
 2.0000e+000 66777  4.8881e-002  2.5448e+000 -3.7218e-001 64073 66633,66728,66529
 2.0000e+000 66951  4.0248e-001 -4.4880e-002  5.1616e-001 63783 66824,66876,66850
 2.0000e+000 66928 -1.4278e+000  1.0825e+000 -1.8228e-001 63783 66824,66902,66876
 2.0000e+000 67201  9.3012e-001  2.9217e+000 -1.3813e-001 63585 66976,67080,67054
 2.0000e+000 67178  4.6269e-001  2.7388e+000 -3.0104e-001 63585 66976,67106,67080
 2.0000e+000 67155  1.6916e-001  1.4126e+000  1.6909e-001 63585 66976,67054,67028
 2.0000e+000 67132  4.0237e-001  1.8347e+000  5.2152e-001 63585 66976,67028,67002
 2.0000e+000 67654 -2.3849e-001  1.6922e+000  5.1036e-002 63295 67357,67487,67383
 2.0000e+000 67631 -3.0589e-001  2.2997e+000 -4.5767e-001 63295 67331,67487,67357
 2.0000e+000 67608  1.2165e-001  2.9548e+000  9.4099e-002 63295 67331,67513,67487
 2.0000e+000 67585 -3.0658e-002  3.0888e+000 -1.0263e-001 63295 67435,67487,67461
 2.0000e+000 67562  1.2233e-001  3.0069e+000  4.8606e-002 63295 67383,67487,67435
 2.0000e+000 67539 -1.3290e-002  2.4081e+000 -1.1499e-001 63295 67383,67435,67409
 2.0000e+000 67853  3.5024e-004  2.0895e+000 -3.2444e-002 62891 67876,67703,67677
 2.0000e+000 67830  1.0988e-001  2.5566e+000 -1.2979e-002 62891 67876,67677,67781
 2.0000e+000 67807 -2.1361e-001  1.7189e+000 -8.9339e-002 62891 67948,67729,67703
 2.0000e+000 67902  3.0863e-003  1.9956e+000 -2.5491e-001 62891 67948,67703,67876
 2.0000e+000 67925  5.3936e-001  2.1509e+000 -3.2407e-001 62891 67755,67876,67781
 2.0000e+000 67974  1.4845e-001  1.3722e+000 -4.1883e-002 62891 67755,67729,67948
 2.0000e+000 67997  1.7881e-001  1.5039e+000 -1.5640e-001 62891 67755,67948,67876
 2.0000e+000 68218 -4.9208e-002 -8.6673e-002  6.8316e-002 62693 68042,68120,68068
 2.0000e+000 68195 -4.3103e-003 -9.8915e-002 -5.6825e-004 62693 68042,68146,68120
 2.0000e+000 68172  2.3587e-001 -2.9010e-001  2.8493e-002 62693 68068,68120,68094
 2.0000e+000 68468  1.3188e-001  1.5841e+000 -1.3060e+000 62289 68491,68295,68269
 2.0000e+000 68445  1.8197e-001  9.8445e-001  1.5147e-001 62289 68563,68491,68269
 2.0000e+000 68422 -3.6682e-001  7.1087e-001  5.5234e-002 62289 68563,68269,68243
 2.0000e+000 68399 -1.4455e+000  4.1275e+000 -2.1740e+000 62289 68295,68347,68321
 2.0000e+000 68517  2.3159e-001  4.9728e+000 -1.8736e+000 62289 68347,68295,68491
 2.0000e+000 68540 -4.8288e-001  2.1986e+000 -9.7419e-002 62289 68347,68491,68373
 2.0000e+000 68589  6.0556e-001  5.1119e-001 -3.0247e-001 62289 68373,68491,68563
 2.0000e+000 68612  2.8954e-001  3.7413e-001 -3.2565e-001 62289 68373,68563,68243
 2.0000e+000 68911  9.8218e-002  1.9797e+000 -7.5558e-002 62091 69222,68934,68741
 2.0000e+000 68888 -3.9631e-001  2.0983e+000 -7.3915e-002 62091 69006,68934,68689
 2.0000e+000 68865 -6.2586e-001  1.8343e+000 -3.1168e-001 62091 69006,68689,68663
 2.0000e+000 68842  3.6008e-001  2.4288e+000  3.5959e-001 62091 69078,68793,68767
 2.0000e+000 68819  1.6411e-001  2.0238e+000 -2.1143e-001 62091 69222,68741,68715
 2.0000e+000 68960  4.2393e-001  2.2299e+000 -1.8505e-001 62091 68767,68741,68934
 2.0000e+000 68983  1.7207e-001  2.5705e+000  7.0937e-002 62091 69078,68767,68934
 2.0000e+000 69032 -3.1701e-001  2.3026e+000 -2.0658e-002 62091 69150,69006,68637
 2.0000e+000 69055 -3.2591e-001  2.2205e+000 -9.2496e-002 62091 68637,69006,68663
 2.0000e+000 69104  1.9583e-001  2.0445e+000  3.2125e-002 62091 68637,68793,69078
 2.0000e+000 69127 -2.7027e-001  2.2561e+000 -4.6513e-002 62091 69150,68637,69078
 2.0000e+000 69176 -1.5540e-001  2.1098e+000  1.2654e-002 62091 68934,69006,69150
 2.0000e+000 69199  4.3371e-002  2.2283e+000 -7.3201e-002 62091 68934,69150,69078
 2.0000e+000 69248  3.5061e-002  1.8331e+000 -6.9542e-002 62091 68689,68934,69222
 2.0000e+000 69271  5.6209e-002  1.7906e+000 -1.6408e-001 62091 68689,69222,68715
 2.0000e+000 69521 -1.3805e+000  7.8231e-001  2.8678e-001 61893 69544,69348,69296
 2.0000e+000 69498 -5.4451e-001  1.2233e+000  1.2304e-001 61893 69544,69296,69400
 2.0000e+000 69475  8.7049e-002  7.0880e-001 -4.0232e-001 61893 69296,69426,69400
 2.0000e+000 69452  5.3934e-001  5.3410e+000 -3.2189e-001 61893 69296,69348,69322
 2.0000e+000 69570 -9.6599e-001  1.5345e-002  1.0670e+000 61893 69374,69348,69544
 2.0000e+000 69593  5.9905e-001  7.8888e-001  8.0479e-001 61893 69374,69544,69400
 2.0000e+000 70046 -1.7221e-001  1.9344e+000 -3.5118e-002 61467 69749,69905,69879
 2.0000e+000 70023 -2.2792e-001  1.5829e+000 -4.5717e-001 61467 69723,69905,69749
 2.0000e+000 70000 -2.7352e-001  1.8111e+000  6.3362e-003 61467 70069,69827,69775
 2.0000e+000 69977  2.4053e-001  2.9735e+000 -3.9580e-001 61467 70069,69775,69749
 2.0000e+000 69954  3.3336e-002  9.6953e-001  1.2372e-002 61467 70141,69853,69827
 2.0000e+000 69931 -4.5938e-001  2.0649e+000  6.4680e-001 61467 69775,69827,69801
 2.0000e+000 70095 -1.2746e-001  1.1983e+000  1.6054e-001 61467 70141,69827,70069
 2.0000e+000 70118 -1.9383e-001  1.8128e+000 -1.0449e-002 61467 69879,70069,69749
 2.0000e+000 70167 -1.3127e-001  1.3188e+000 -7.5756e-004 61467 69879,69853,70141
 2.0000e+000 70190 -5.0276e-002  1.8607e+000  1.5115e-001 61467 69879,70141,70069
 2.0000e+000 70291  2.4717e-001  3.2522e+000  3.4446e-001 61013 70213,70265,70239
 2.0000e+000 70441  4.1898e-001  5.4255e+000 -9.6137e-001 60651 70340,70392,70366
 2.0000e+000 70418  7.9738e-002  9.4456e-001 -7.4196e-002 60651 70314,70392,70340
 2.0000e+000 70642 -1.7010e-001  1.9376e+000  5.9266e-001 60311 70665,70492,70466
 2.0000e+000 70619  1.0013e-001  2.5495e+000  5.4339e-001 60311 70665,70466,70570
 2.0000e+000 70596 -7.2748e-001  1.0343e+000  6.8469e-002 60311 70492,70544,70518
 2.0000e+000 70691  1.2465e-002  1.3491e+000 -5.9604e-002 60311 70544,70492,70665
 2.0000e+000 70714  4.2689e-001  2.2956e+000 -1.3060e-001 60311 70544,70665,70570
 2.0000e+000 70964 -4.4561e-001  1.5381e+000  2.2523e-001 59907 70987,70765,70739
 2.0000e+000 70941 -1.1441e-001  2.2869e+000  2.5111e-002 59907 71059,70987,70739
 2.0000e+000 70918  1.0345e-001  3.2797e+000 -9.5083e-002 59907 71059,70739,70869
 2.0000e+000 70895  4.0584e-002  2.2587e+000 -1.0081e-001 59907 70817,70869,70843
 2.0000e+000 71013 -7.5284e-002  1.6367e+000 -2.0982e-001 59907 70791,70765,70987
 2.0000e+000 71036 -6.5191e-002  1.6926e+000 -2.0688e-001 59907 70791,70987,70817
 2.0000e+000 71085  1.2811e-001  1.6260e+000 -1.2845e-001 59907 70817,70987,71059
 2.0000e+000 71108 -5.9332e-002  2.0539e+000 -6.8324e-002 59907 70817,71059,70869
 2.0000e+000 71441  1.8340e+000  4.7737e+000 -7.2523e-001 59417 71464,71242,71216
 2.0000e+000 71418  1.6032e+000  3.7200e+000  3.7746e-001 59417 71464,71216,71320
 2.0000e+000 71395  9.5733e-001  2.5043e+000  6.7148e-001 59417 71216,71346,71320
 2.0000e+000 71372 -1.3813e+000  1.9830e+000  1.6218e+000 59417 71268,71320,71294
 2.0000e+000 71490  1.3629e+000  4.4097e+000  5.8485e-001 59417 71268,71242,71464
 2.0000e+000 71513 -1.0602e-001  2.1819e+000  1.8634e+000 59417 71268,71464,71320
 2.0000e+000 71712  3.1152e-001  2.4550e+000 -7.9162e-002 58913 71562,71614,71588
 2.0000e+000 71689  1.1427e+000  2.0089e+000 -7.0796e-001 58913 71536,71614,71562
 2.0000e+000 71666  1.2006e+000  1.7251e+000 -5.7192e-001 58913 71536,71640,71614
 2.0000e+000 72171 -3.7979e-001  3.6194e-002 -7.2344e-001 58409 72194,72027,72001
 2.0000e+000 72148 -7.2739e-001  4.0406e-002 -3.7223e-001 58409 72194,72001,71949
 2.0000e+000 72125 -5.9715e-001 -5.5140e-001  9.4279e-002 58409 71923,72053,71949
 2.0000e+000 72102 -3.3361e-001  4.3390e-001 -7.2363e-001 58409 71949,72001,71975
 2.0000e+000 72079 -5.8660e-002 -2.4157e-001  2.2609e-001 58409 71897,72053,71923
 2.0000e+000 72220 -8.5374e-001 -1.3587e-001 -6.7262e-001 58409 72053,72027,72194
 2.0000e+000 72243 -1.0446e+000  4.5668e-003 -3.5602e-001 58409 72053,72194,71949
 2.0000e+000 72491 -3.4569e+000 -1.1503e+000 -2.2586e+000 57855 72514,72318,72292
 2.0000e+000 72468  2.1989e+000  1.2821e+000 -2.6522e+000 57855 72514,72292,72266
 2.0000e+000 72445 -1.8400e+000  4.6025e-001  1.9656e-001 57855 72318,72396,72370
 2.0000e+000 72422 -4.7192e+000  2.0901e+000 -1.3228e+000 57855 72318,72370,72344
 2.0000e+000 72540 -3.9833e+000 -3.8734e-001 -1.4575e+000 57855 72396,72318,72514
 2.0000e+000 72563 -3.4444e+000 -4.3702e-001 -1.5638e+000 57855 72396,72514,72266
 2.0000e+000 72811  1.3874e+000  6.9478e-001 -6.7285e-001 57401 72612,72690,72638
 2.0000e+000 72788  4.1571e-002  1.4442e-001  2.2328e-001 57401 72586,72690,72612
 2.0000e+000 72765 -8.6788e-001 -5.8602e-001 -1.2099e+000 57401 72638,72690,72664
 2.0000e+000 72742  3.4846e-001  1.6308e+000 -1.8779e-001 57401 72586,72716,72690
 2.0000e+000 73144  2.3329e-001  1.3265e+000 -1.9497e-001 57004 72919,72997,72945
 2.0000e+000 73121  3.6455e-001  2.4324e+000 -4.9611e-001 57004 72919,73049,72997
 2.0000e+000 73098  2.9141e-001  1.6781e+000 -4.2793e-001 57004 72945,72997,72971
 2.0000e+000 73075  4.8057e-001  2.8959e+000 -6.2899e-001 57004 72997,73049,73023
 2.0000e+000 73650 -1.4042e+000 -1.6233e-001  1.3114e-001 56592 73673,73379,73353
 2.0000e+000 73627 -1.5978e-001  1.5570e-001 -4.5449e-002 56592 73673,73353,73327
 2.0000e+000 73604 -2.6383e+000  6.3513e-002 -1.1915e-001 56592 73745,73509,73483
 2.0000e+000 73581 -2.9363e+000 -4.0790e-001 -1.3397e-001 56592 73379,73457,73405
 2.0000e+000 73558 -6.9744e-001  3.8664e-001  1.0635e-001 56592 73379,73483,73457
 2.0000e+000 73535  1.4347e+000  3.2877e-001 -5.9800e-002 56592 73405,73457,73431
 2.0000e+000 73699 -1.2607e+000  2.7005e-001  1.9967e-002 56592 73483,73379,73673
 2.0000e+000 73722 -2.1213e+000 -5.8512e-002 -1.0857e-001 56592 73745,73483,73673
 2.0000e+000 73771 -1.9646e+000 -4.0888e-001  4.5880e-001 56592 73327,73509,73745
 2.0000e+000 73794 -9.6147e-001 -1.9620e-001  4.1450e-001 56592 73327,73745,73673
 2.0000e+000 74123  3.0281e+000  2.4571e+000  4.2402e-001 56152 74146,74002,73924
 2.0000e+000 74100  2.1609e+000  2.2552e+000  2.8935e-001 56152 74146,73924,73898
 2.0000e+000 74077  3.0332e+000  1.7422e+000  6.4581e-001 56152 73924,74002,73976
 2.0000e+000 74054  2.9707e+000  1.6182e+000  1.1982e+000 56152 73924,73976,73950
 2.0000e+000 74172  4.1528e+000  2.1668e+000 -2.2927e-001 56152 74028,74002,74146
 2.0000e+000 74195  2.7313e+000  1.9362e+000 -2.9968e-001 56152 74028,74146,73898
 2.0000e+000 74345  1.4376e+000  1.2706e+000 -5.0710e-001 55634 74218,74270,74244
 2.0000e+000 74322  2.5202e+000 -6.8127e-001 -5.0521e-001 55634 74218,74296,74270
 2.0000e+000 74823  2.6027e-001 -1.3737e+000  2.3659e-001 55016 74918,74846,74581
 2.0000e+000 74800 -3.0086e-001 -4.4048e-001 -6.1033e-002 55016 74846,74477,74633
 2.0000e+000 74777 -1.0307e+000 -2.0542e+000  5.9438e-001 55016 74918,74581,74555
 2.0000e+000 74754 -1.7768e+000 -1.7202e+000  1.1331e+000 55016 74990,74503,74477
 2.0000e+000 74731 -9.6846e-001 -4.5286e-001  3.1521e-001 55016 74451,74633,74477
 2.0000e+000 74708 -1.4190e+000 -5.6562e-001  3.7866e-001 55016 74451,74659,74633
 2.0000e+000 74685 -2.4556e+000 -2.6400e+000  1.7342e+000 55016 74503,74555,74529
 2.0000e+000 74872  3.4669e-001 -1.3433e+000 -2.6780e-002 55016 74607,74581,74846
 2.0000e+000 74895 -5.5929e-002 -1.5008e+000  5.3871e-002 55016 74607,74846,74633
 2.0000e+000 74944 -1.6563e+000 -1.5413e+000  4.1393e-001 55016 74477,74846,74918
 2.0000e+000 74967 -1.9574e+000 -1.5882e+000  8.0399e-001 55016 74990,74477,74918
 2.0000e+000 75016 -1.1461e+000 -1.4605e+000  9.8384e-001 55016 74555,74503,74990
 2.0000e+000 75039 -1.2662e+000 -1.2200e+000  6.2236e-001 55016 74555,74990,74918
 2.0000e+000 75287 -3.0662e+000 -3.7930e+000 -7.0777e-003 54726 75310,75140,75114
 2.0000e+000 75264 -3.6707e+000 -2.2364e+000 -3.8088e-001 54726 75310,75114,75088
 2.0000e+000 75241 -4.8986e+000 -2.1680e+000 -2.2207e+000 54726 75088,75192,75166
 2.0000e+000 75218 -8.7579e+000 -1.5370e-001 -2.2760e+000 54726 75062,75192,75088
 2.0000e+000 75336 -2.3479e+000 -2.9262e+000 -9.5807e-001 54726 75166,75140,75310
 2.0000e+000 75359 -3.5346e+000 -1.3472e+000 -9.4468e-001 54726 75166,75310,75088
 2.0000e+000 75946 -1.2450e-001  2.6751e-001  2.8673e-001 54322 75969,75701,75649
 2.0000e+000 75923 -7.8866e-001 -1.7649e-001  4.8115e-001 54322 75969,75649,75623
 2.0000e+000 75900 -4.0598e-001 -1.9028e-003 -3.7931e-002 54322 76041,75753,75701
 2.0000e+000 75877 -1.8904e-001  1.1391e+000  2.2287e-002 54322 75623,75805,75779
 2.0000e+000 75854 -4.9450e-001  3.3380e-002 -2.2013e-001 54322 75701,75753,75727
 2.0000e+000 75831 -1.9579e-001 -3.1587e-002  5.9141e-002 54322 75649,75701,75675
 2.0000e+000 75995 -5.9559e-001  1.0688e-001  1.2416e-001 54322 76041,75701,75969
 2.0000e+000 76018 -5.8441e-001  3.7420e-001  2.3528e-001 54322 75779,75969,75623
 2.0000e+000 76067 -3.0005e-001  2.8745e-001 -1.0647e-001 54322 75779,75753,76041
 2.0000e+000 76090 -4.2850e-001  4.9760e-001  5.6449e-002 54322 75779,76041,75969
 2.0000e+000 76468 -9.5446e-002  4.0334e-001  3.3612e-002 53868 76491,76272,76220
 2.0000e+000 76445 -1.3433e-001  4.5273e-001 -2.9122e-002 53868 76491,76220,76324
 2.0000e+000 76422  1.8633e-002  4.4351e-001 -3.1165e-002 53868 76220,76272,76246
 2.0000e+000 76399 -2.0517e-001  8.6412e-001  1.6641e-001 53868 76194,76324,76220
 2.0000e+000 76376 -9.9889e-001  5.4256e-001 -1.0214e-002 53868 76194,76350,76324
 2.0000e+000 76517 -1.2839e-001  3.2292e-001  3.0310e-002 53868 76298,76272,76491
 2.0000e+000 76540 -1.5772e-001  3.9114e-001 -3.0779e-002 53868 76298,76491,76324
 2.0000e+000 76690 -7.4574e-002  5.1149e-001 -7.1216e-002 53356 76589,76641,76615
 2.0000e+000 76667  1.5320e-001  1.2248e+000  3.0450e-002 53356 76563,76641,76589
 2.0000e+000 76938 -5.0170e-001  6.6597e-001 -7.7715e-001 53009 77105,76961,76765
 2.0000e+000 76915  1.1752e-001  8.8630e-001 -3.8224e-001 53009 76961,76713,76843
 2.0000e+000 76892 -3.2605e-001  8.3610e-001 -1.7604e-001 53009 77033,76817,76791
 2.0000e+000 76869 -1.2324e+000  1.6718e-001 -1.4882e+000 53009 77105,76765,76739
 2.0000e+000 76987 -1.2687e-001  1.6202e+000 -5.3944e-001 53009 76791,76765,76961
 2.0000e+000 77010 -3.7492e-001  8.8214e-001 -4.2107e-001 53009 77033,76791,76961
 2.0000e+000 77059  4.6601e-002  9.9970e-001 -2.0135e-001 53009 76843,76817,77033
 2.0000e+000 77082 -2.5686e-002  1.0271e+000 -4.2728e-001 53009 76843,77033,76961
 2.0000e+000 77131  2.7901e-001  1.1586e+000 -4.5812e-001 53009 76713,76961,77105
 2.0000e+000 77154  1.5788e-001  1.1000e+000 -1.0539e+000 53009 76713,77105,76739
 2.0000e+000 77355  3.1835e+000 -2.7695e+000  1.7913e+000 52390 77378,77257,77231
 2.0000e+000 77332  2.3664e+000 -1.2648e+000  1.1931e+000 52390 77378,77231,77179
 2.0000e+000 77309  3.0535e+000 -2.7468e+000 -7.7472e-001 52390 77179,77231,77205
 2.0000e+000 77404  3.7796e+000 -1.7079e+000  1.2242e+000 52390 77283,77257,77378
 2.0000e+000 77427  3.0666e+000  6.9069e-002  6.6265e-001 52390 77283,77378,77179
 2.0000e+000 77677 -2.0469e+000  2.9927e+000 -1.9430e+000 51986 77700,77504,77478
 2.0000e+000 77654  4.2826e-002  4.2971e+000 -2.4990e+000 51986 77700,77478,77452
 2.0000e+000 77631 -2.7449e-001  1.9582e+000 -7.1311e-001 51986 77772,77556,77530
 2.0000e+000 77608 -5.2442e-001  1.6898e+000 -9.9679e-001 51986 77452,77582,77556
 2.0000e+000 77726 -6.0140e-001  2.7533e+000 -7.9287e-001 51986 77530,77504,77700
 2.0000e+000 77749  1.9644e-002  2.5809e+000 -9.4661e-001 51986 77772,77530,77700
 2.0000e+000 77798  1.1072e-001  2.2470e+000 -1.2369e+000 51986 77452,77556,77772
 2.0000e+000 77821  3.1173e-001  2.4109e+000 -1.4363e+000 51986 77452,77772,77700
 2.0000e+000 78282  7.0610e-001 -2.6766e-001 -2.0621e-001 51738 78008,78138,78060
 2.0000e+000 78259  8.8714e-001 -5.3476e-001  7.3852e-001 51738 78008,78164,78138
 2.0000e+000 78236  3.6192e-001 -1.8811e-002  5.2234e-002 51738 78086,78138,78112
 2.0000e+000 78213  1.2958e-001 -6.8021e-002 -1.9064e-001 51738 78060,78138,78086
 2.0000e+000 78190  1.3612e+000 -1.9545e+000 -6.7194e-001 51738 78008,78060,78034
 2.0000e+000 78432 -2.6440e-001 -9.8704e-002  8.0576e-003 51148 78305,78357,78331
 2.0000e+000 78409 -2.2576e-001  1.6485e-001 -3.8189e-002 51148 78305,78383,78357
 2.0000e+000 78891 -2.5067e-001 -4.2506e-002  3.6211e-001 50808 78914,78695,78669
 2.0000e+000 78868 -1.3979e-001  1.7648e-001  2.6324e-001 50808 78914,78669,78643
 2.0000e+000 78845  2.3984e-002  2.7660e-001  1.8392e-001 50808 78643,78773,78747
 2.0000e+000 78822  2.0917e-001  3.1429e-001  2.7128e-001 50808 78617,78773,78643
 2.0000e+000 78799 -5.6475e-002  2.9571e-001  3.2329e-001 50808 78695,78747,78721
 2.0000e+000 78940 -6.1479e-002  1.5368e-001  2.4308e-001 50808 78747,78695,78914
 2.0000e+000 78963 -1.3726e-001  2.2774e-001  1.8116e-001 50808 78747,78914,78643
 2.0000e+000 79260 -3.0813e-001 -2.3438e-001 -1.4011e-001 50468 79283,79090,79012
 2.0000e+000 79237 -4.0780e-001 -7.5261e-002 -1.4647e-001 50468 79283,79012,78986
 2.0000e+000 79214 -4.4528e-001 -2.9183e-001 -1.2660e-001 50468 79012,79090,79038
 2.0000e+000 79191 -2.1881e-001  1.3581e-001 -2.8134e-001 50468 78986,79142,79116
 2.0000e+000 79168 -1.9666e-001 -2.7460e-001 -2.0660e-001 50468 79038,79090,79064
 2.0000e+000 79309 -2.7632e-001 -1.4300e-001 -1.7898e-001 50468 79116,79090,79283
 2.0000e+000 79332 -3.7086e-001  3.0927e-002 -1.7915e-001 50468 79116,79283,78986
 2.0000e+000 79889  2.4465e+000  2.4803e+000 -8.7111e-001 50064 79569,79725,79699
 2.0000e+000 79866  3.4948e-001  1.3778e+000 -2.2795e+000 50064 79543,79725,79569
 2.0000e+000 79843  2.0236e+000  1.0667e+000 -8.3636e-001 50064 79621,79699,79673
 2.0000e+000 79820  2.1509e+000  1.3351e+000 -1.2038e+000 50064 79595,79699,79621
 2.0000e+000 79797  1.4274e+000  1.7144e+000 -1.4662e+000 50064 79569,79699,79595
 2.0000e+000 79774  2.4738e+000  4.4219e+000 -6.8978e-002 50064 79517,79725,79543
 2.0000e+000 79751  7.9688e-001  1.1379e+000 -9.5428e-001 50064 79621,79673,79647
 2.0000e+000 80169  1.9208e+000  2.5711e+000 -1.2603e+000 49724 80019,80097,80071
 2.0000e+000 80146  1.5313e+000  4.3402e+000 -1.6888e+000 49724 79993,80097,80019
 2.0000e+000 80123  1.0783e+000  2.2257e+000 -1.2697e+000 49724 80019,80071,80045
 2.0000e+000 80626 -1.2804e+000 -4.2730e-001 -2.3336e-001 49277 80352,80482,80378
 2.0000e+000 80603 -9.8699e-001 -3.5869e-001  1.0012e-001 49277 80352,80508,80482
 2.0000e+000 80580 -1.1127e+000 -2.9587e-001 -1.7260e-001 49277 80378,80482,80456
 2.0000e+000 80557 -1.2837e+000 -8.4814e-001 -1.4914e-001 49277 80378,80430,80404
 2.0000e+000 80534 -1.6743e+000 -5.1920e-001 -1.0610e-001 49277 80378,80456,80430
 2.0000e+000 81230 -2.6551e+000 -1.4512e+000  9.9590e-001 48716 81253,80835,80809
 2.0000e+000 81207 -1.5834e+000  2.2572e-001 -4.7803e-001 48716 81397,81253,80809
 2.0000e+000 81184 -1.4682e+000  1.2336e+000 -7.6657e-001 48716 81325,80913,80887
 2.0000e+000 81161 -1.0353e+000 -6.5957e-001 -4.2619e-001 48716 81397,80809,81017
 2.0000e+000 81138 -2.0869e+000  7.9196e-001 -1.1028e+000 48716 81469,80965,80913
 2.0000e+000 81115 -1.0175e+000 -2.8966e-001  1.0581e+000 48716 80835,80887,80861
 2.0000e+000 81092 -2.8649e-001 -1.7355e+000  1.8236e+000 48716 80809,81043,81017
 2.0000e+000 81069 -2.3101e+000 -1.2267e+000 -2.4681e+000 48716 80913,80965,80939
 2.0000e+000 81279  6.3902e-001  5.7110e-001  4.2056e-002 48716 80887,80835,81253
 2.0000e+000 81302 -2.0382e+000  9.4163e-001 -9.2187e-001 48716 81325,80887,81253
 2.0000e+000 81351 -1.6525e+000  9.0950e-001 -9.2777e-001 48716 81469,80913,81325
 2.0000e+000 81374 -1.8839e+000  1.6575e+000 -8.4610e-001 48716 80991,81325,81253
 2.0000e+000 81423 -1.3644e+000  1.3769e+000 -5.0867e-002 48716 80991,81253,81397
 2.0000e+000 81446 -9.6569e-001  2.9051e-001  1.2131e-002 48716 80991,81397,81017
 2.0000e+000 81495 -2.8684e+000  1.1048e+000 -1.2372e+000 48716 80991,80965,81469
 2.0000e+000 81518 -2.5345e+000  1.1257e+000 -1.0831e+000 48716 80991,81469,81325
 2.0000e+000 81717 -1.5942e-002  1.6173e-001 -4.4549e-002 48262 81740,81567,81541
 2.0000e+000 81694  1.2750e-001  2.4356e-001 -8.0240e-002 48262 81740,81541,81645
 2.0000e+000 81671 -3.2809e-002 -1.6939e-001 -4.7006e-002 48262 81567,81619,81593
 2.0000e+000 81766  6.4975e-002  9.1377e-002  5.5422e-002 48262 81619,81567,81740
 2.0000e+000 81789  1.9683e-001  1.5840e-001  2.5329e-002 48262 81619,81740,81645
 2.0000e+000 81939  1.4542e+000  2.8768e+000 -8.1947e-001 47957 82034,81962,81864
 2.0000e+000 81916  9.1756e-002  2.5519e+000 -1.0770e+000 47957 82166,81962,81838
 2.0000e+000 81988  2.2749e+000  2.9554e+000  3.5448e-001 47957 82294,81962,81890
 2.0000e+000 82011  1.2955e+000  2.3050e+000 -3.2709e-001 47957 81890,81962,81812
 2.0000e+000 82060  1.5709e+000  3.6152e+000 -5.3656e-001 47957 81838,81962,82034
 2.0000e+000 82192 -1.0093e+000  2.2180e+000  3.3743e-001 47957 81812,81962,82166
 2.0000e+000 82320  3.0390e+000  2.5633e+000 -2.5193e-001 47957 81864,81962,82294
 2.0000e+000 82549 -2.1976e-001 -7.8130e-002 -1.1805e-001 47617 82448,82500,82474
 2.0000e+000 82526  3.9643e-002  7.6875e-001 -4.1084e-002 47617 82422,82500,82448
 2.0000e+000 82902  9.2439e-001  2.8712e-001 -1.2273e-001 47255 82729,82807,82755
 2.0000e+000 82879  1.5106e+000  2.9772e-001  2.3527e-001 47255 82703,82807,82729
 2.0000e+000 82856  4.9004e-001  1.8956e-001  3.4590e-001 47255 82755,82807,82781
 2.0000e+000 82833  2.3696e+000  6.6588e-001  3.2176e-001 47255 82677,82807,82703
 2.0000e+000 83182  4.8662e-002 -9.1778e-001  4.7909e-001 46680 83032,83084,83058
 2.0000e+000 83159  4.9839e-001 -5.0050e-001  7.1998e-001 46680 83205,83084,83032
 2.0000e+000 83136 -6.9477e-001  1.5863e-001  5.5641e-001 46680 83006,83110,83084
 2.0000e+000 83231  1.1902e+000  7.9761e-002  1.0119e+000 46680 83006,83084,83205
 2.0000e+000 83737 -2.1471e+000 -6.0041e-001  3.5986e-001 46290 83832,83760,83492
 2.0000e+000 83714 -2.1257e+000 -2.8824e-001  3.0591e-001 46290 83760,83440,83414
 2.0000e+000 83691 -1.6523e+000 -9.1189e-001  2.6987e-001 46290 83832,83492,83466
 2.0000e+000 83668 -1.8090e+000 -1.6406e+000  5.7165e-001 46290 83492,83570,83544
 2.0000e+000 83645 -2.9225e+000 -8.1859e-001  5.2130e-002 46290 83414,83596,83570
 2.0000e+000 83622 -1.6576e+000 -1.2241e+000  8.4979e-001 46290 83492,83544,83518
 2.0000e+000 83786 -2.0751e+000 -5.5036e-001  3.0105e-001 46290 83570,83492,83760
 2.0000e+000 83809 -2.1236e+000 -7.2003e-001  1.0056e-001 46290 83570,83760,83414
 2.0000e+000 83858 -1.5136e+000 -2.3831e-001  5.3563e-001 46290 83440,83760,83832
 2.0000e+000 83881 -6.3853e-001 -4.7494e-001  3.4205e-001 46290 83440,83832,83466
 2.0000e+000 84161 -3.0293e-002 -5.0435e-001  4.6308e-002 45829 84011,84063,84037
 2.0000e+000 84138 -2.9320e-001 -5.3611e-001 -1.4843e-003 45829 84011,84089,84063
 2.0000e+000 84115  1.0779e-002 -4.0496e-001  1.6741e-002 45829 83985,84089,84011
 2.0000e+000 84311  1.2959e+000  1.4916e+000  2.7018e-001 45631 84184,84236,84210
 2.0000e+000 84288  7.4381e-001 -3.8652e-001 -5.3126e-002 45631 84184,84262,84236
 2.0000e+000 84657 -1.2593e-001 -2.9401e-001 -5.8163e-002 45155 84680,84490,84412
 2.0000e+000 84634 -1.9074e-001 -1.6268e-001 -8.1723e-003 45155 84680,84412,84360
 2.0000e+000 84611 -2.6094e-001 -3.9300e-001  6.2440e-002 45155 84412,84490,84438
 2.0000e+000 84588  2.3659e-002  6.5720e-002 -4.8914e-002 45155 84334,84516,84360
 2.0000e+000 84565 -1.0253e-001  6.9657e-002 -3.2515e-001 45155 84360,84412,84386
 2.0000e+000 84542 -2.1212e-001 -4.2442e-001  3.8453e-002 45155 84438,84490,84464
 2.0000e+000 84706 -1.3386e-001 -1.6761e-001 -8.5076e-002 45155 84516,84490,84680
 2.0000e+000 84729 -1.8734e-001 -2.5074e-002 -5.4546e-002 45155 84516,84680,84360
 2.0000e+000 85077 -5.5338e-002 -5.4509e-001 -2.1684e-001 44508 85100,84754,84910
 2.0000e+000 85054 -1.0384e-001  3.6285e-002 -7.7828e-002 44508 84754,84936,84910
 2.0000e+000 85031 -5.2214e-001 -9.3821e-001  1.1013e-001 44508 85100,84910,84884
 2.0000e+000 85008 -5.4106e-001 -2.6039e-001 -4.0854e-001 44508 84780,84884,84832
 2.0000e+000 84985 -5.3384e-001 -2.8352e-001 -4.7092e-001 44508 84780,84832,84806
 2.0000e+000 84962 -1.2101e+000 -9.1573e-001 -9.8309e-002 44508 84832,84884,84858
 2.0000e+000 85126 -4.3674e-001  1.0655e-002 -5.4962e-001 44508 84780,84754,85100
 2.0000e+000 85149 -7.9228e-001 -3.6942e-001 -2.5269e-001 44508 84780,85100,84884
 2.0000e+000 85482  3.9994e-001  1.4051e-001 -3.4298e-002 44104 85335,85387,85361
 2.0000e+000 85459  2.8106e-001 -1.6253e-001  4.2574e-002 44104 85309,85387,85335
 2.0000e+000 85436  1.5042e-001 -1.3415e-001 -1.0517e-001 44104 85257,85387,85309
 2.0000e+000 85413  6.5328e-002  8.0010e-003  2.2337e-002 44104 85257,85309,85283
 2.0000e+000 85811 -2.3917e-001 -3.7565e-001 -7.2870e-002 43600 85586,85664,85612
 2.0000e+000 85788 -2.0750e-001 -7.7563e-002 -6.8316e-003 43600 85586,85690,85664
 2.0000e+000 85765 -7.6628e-002  2.8366e-001 -1.8180e-001 43600 85586,85716,85690
 2.0000e+000 85742 -2.5408e-001 -3.0582e-001 -1.9979e-001 43600 85612,85664,85638
 2.0000e+000 86010  3.3644e-001  1.7459e-001 -5.4484e-002 43224 85886,85938,85912
 2.0000e+000 85987  2.7845e-001  1.5261e-002 -5.3521e-002 43224 85834,85938,85886
 2.0000e+000 85964  3.2308e-001 -7.6050e-001 -4.1587e-002 43224 85834,85886,85860
 2.0000e+000 86420  2.9064e+000  1.3265e+000 -4.0884e-001 42820 86195,86299,86221
 2.0000e+000 86397  2.9225e+000  2.6976e+000 -1.1670e+000 42820 86195,86325,86299
 2.0000e+000 86374  1.6565e+000  1.1371e+000  1.6185e-001 42820 86221,86299,86273
 2.0000e+000 86351  1.3203e+000  9.4616e-001 -2.2814e-001 42820 86221,86273,86247
 2.0000e+000 86749  2.9503e-001 -8.2219e-001 -3.4422e-001 42223 86550,86602,86576
 2.0000e+000 86726  2.2556e+000 -1.5323e+000 -1.3656e-002 42223 86550,86628,86602
 2.0000e+000 86703  6.9351e-001 -1.9285e+000  9.6563e-001 42223 86524,86628,86550
 2.0000e+000 86680  1.7709e+000  8.1924e-001  7.5995e-001 42223 86524,86654,86628
 2.0000e+000 87078  4.7418e-001 -4.9295e-001  2.6317e-001 41883 87173,87101,86905
 2.0000e+000 87055  4.3497e-001  9.1693e-001  8.7596e-002 41883 87101,86879,86853
 2.0000e+000 87032  1.2177e-002  7.8271e-002 -1.9566e-002 41883 86853,86983,86931
 2.0000e+000 87009  6.4186e-002  2.3233e-001 -3.7393e-002 41883 86931,86983,86957
 2.0000e+000 87127  8.6740e-001  2.0491e-001 -8.4289e-002 41883 86931,86905,87101
 2.0000e+000 87150 -3.4475e-002 -1.7113e-001  4.8490e-004 41883 86931,87101,86853
 2.0000e+000 87199  9.4351e-002  2.5241e-002  4.0987e-001 41883 86879,87101,87173
 2.0000e+000 87558 -9.3615e-002  1.1542e+000 -2.6417e-001 41471 87382,87460,87408
 2.0000e+000 87535 -1.2863e+000  1.0843e+000 -2.0125e-001 41471 87382,87486,87460
 2.0000e+000 87512  3.3898e-001  3.3841e-001 -3.9241e-002 41471 87408,87460,87434
 2.0000e+000 87806  1.2008e-001 -3.0725e-002 -4.7435e-001 41017 87829,87607,87581
 2.0000e+000 87783  1.3316e-001 -3.2153e-001 -6.5292e-002 41017 87829,87581,87685
 2.0000e+000 87760  4.3842e-001 -1.2265e-001 -1.7198e-001 41017 87581,87711,87685
 2.0000e+000 87737  2.6360e-001 -9.6234e-001 -3.9880e-002 41017 87633,87685,87659
 2.0000e+000 87855 -1.4454e-001 -2.2050e-001 -2.8400e-001 41017 87633,87607,87829
 2.0000e+000 87878 -2.2077e-001 -5.5645e-001  1.3536e-001 41017 87633,87829,87685
 2.0000e+000 88258  2.0120e-002  3.7687e-002 -6.6822e-003 40613 88281,88036,88010
 2.0000e+000 88235  1.3471e-002  1.4693e-002 -3.4754e-003 40613 88281,88010,88088
 2.0000e+000 88212  4.4686e-004  3.3685e-002 -1.9820e-002 40613 87984,88088,88010
 2.0000e+000 88189 -5.8443e-003  1.8322e-002 -1.6924e-002 40613 87984,88114,88088
 2.0000e+000 88166  5.5805e-003  3.4217e-003 -1.3024e-002 40613 87984,88140,88114
 2.0000e+000 88307  9.8796e-003  6.0010e-002  1.3002e-002 40613 88062,88036,88281
 2.0000e+000 88330 -9.4562e-003  1.5474e-002  2.2379e-002 40613 88062,88281,88088
 2.0000e+000 88649 -4.7224e-003  4.9823e-002  5.0038e-003 40095 88375,88505,88401
 2.0000e+000 88626  8.2643e-003  3.1802e-002  1.4568e-002 40095 88375,88531,88505
 2.0000e+000 88603 -1.4427e-002  4.6464e-002  3.8984e-003 40095 88401,88505,88479
 2.0000e+000 88580 -4.9382e-003  1.6881e-002 -9.9032e-003 40095 88427,88479,88453
 2.0000e+000 88557 -1.5805e-002  4.7619e-002  4.2001e-003 40095 88401,88479,88427
 2.0000e+000 89078  7.6963e-001 -1.6602e+000 -1.1177e+000 39897 89101,88833,88807
 2.0000e+000 89055 -5.3315e-002 -1.8752e+000 -1.1602e+000 39897 89101,88807,88911
 2.0000e+000 89032 -9.4007e-001 -1.6065e+000 -1.7844e+000 39897 88781,88911,88807
 2.0000e+000 89009 -1.8164e+000 -2.2207e+000 -2.1751e+000 39897 88781,88937,88911
 2.0000e+000 88986  3.2387e+000  2.4481e-001 -6.8316e-001 39897 88833,88885,88859
 2.0000e+000 88963 -2.5637e+000 -2.1065e+000 -2.6125e+000 39897 88755,88937,88781
 2.0000e+000 89127  1.4881e+000 -2.0244e+000 -1.8097e+000 39897 88885,88833,89101
 2.0000e+000 89150  2.6655e-001 -2.4496e+000 -1.9743e+000 39897 88885,89101,88911
 2.0000e+000 89300 -1.8481e+000 -1.8421e+000  6.8321e-001 39607 89453,89323,89199
 2.0000e+000 89277 -2.6781e+000 -1.1790e+000  5.4500e-001 39607 89525,89453,89199
 2.0000e+000 89349 -1.5834e+000 -1.8145e+000 -8.2149e-002 39607 89225,89199,89323
 2.0000e+000 89479 -1.5819e+000 -8.1311e-001  5.2715e-001 39607 89251,89323,89453
 2.0000e+000 89502 -1.4405e+000 -7.2216e-002  1.3186e+000 39607 89251,89453,89173
 2.0000e+000 89551 -1.1758e+000 -8.3788e-001  7.6395e-001 39607 89173,89453,89525
 2.0000e+000 90264 -1.2452e+000 -1.9519e+000 -3.1982e-001 39039 89996,90074,90048
 2.0000e+000 90241 -8.8558e-001 -1.0549e+000 -2.2087e-001 39039 89918,90074,89996
 2.0000e+000 90218 -1.3248e+000 -1.3143e+000  4.5564e-003 39039 89918,89996,89944
 2.0000e+000 90195 -1.5510e+000 -1.1235e+000  8.7771e-002 39039 89892,90074,89918
 2.0000e+000 90172 -3.2393e-001 -1.9900e+000 -4.3531e-001 39039 89996,90048,90022
 2.0000e+000 90149 -2.2176e+000  8.7015e-001 -5.4739e-002 39039 89892,90100,90074
 2.0000e+000 90126 -1.6079e+000 -1.4234e+000 -2.2641e-001 39039 89944,89996,89970
 2.0000e+000 90770 -3.2473e-001 -4.9569e-001 -3.4370e-002 38635 90473,90603,90577
 2.0000e+000 90747 -1.1330e-001 -4.3007e-001  9.4849e-003 38635 90447,90603,90473
 2.0000e+000 90724 -2.5261e-001 -6.5027e-001 -9.8364e-002 38635 90499,90577,90551
 2.0000e+000 90701 -2.8700e-001 -7.0493e-001 -2.9513e-002 38635 90473,90577,90499
 2.0000e+000 90678 -2.3037e-001 -9.2276e-001 -7.6516e-002 38635 90499,90551,90525
 2.0000e+000 90655 -3.1889e-001 -3.2008e-001  7.8183e-002 38635 90447,90629,90603
 2.0000e+000 90871 -1.5340e-002 -2.9931e-001 -1.6046e-001 38231 90793,90845,90819
 2.0000e+000 91458  1.5482e-001 -2.5302e-001 -9.7260e-002 37534 91161,91317,91291
 2.0000e+000 91435  7.6301e-002  2.3636e-002  8.6503e-002 37534 91135,91317,91161
 2.0000e+000 91412 -3.7033e-001 -1.1153e+000 -4.7502e-001 37534 91187,91291,91239
 2.0000e+000 91389 -6.3992e-003 -1.0890e+000  5.4623e-002 37534 91161,91291,91187
 2.0000e+000 91366 -6.1228e-002 -7.9721e-001 -3.4579e-001 37534 91239,91291,91265
 2.0000e+000 91343  6.1562e-001 -1.2070e+000 -8.9795e-001 37534 91187,91239,91213
 2.0000e+000 91915 -6.8233e-001 -8.1077e-001  3.9466e-002 37080 91938,91745,91667
 2.0000e+000 91892 -5.9921e-001 -6.7964e-001  1.8434e-001 37080 91938,91667,91797
 2.0000e+000 91869 -8.3013e-001  1.7094e-001 -1.2994e-001 37080 91641,91797,91667
 2.0000e+000 91846 -7.8799e-001 -9.8182e-001  4.9441e-002 37080 91667,91719,91693
 2.0000e+000 91823 -7.0648e-001 -7.9667e-001  3.4126e-002 37080 91667,91745,91719
 2.0000e+000 91964 -5.9718e-001 -5.6089e-001  8.8599e-002 37080 91771,91745,91938
 2.0000e+000 91987 -5.9716e-001 -5.9278e-001  2.3406e-001 37080 91771,91938,91797
 2.0000e+000 92235 -3.3886e-001 -5.6504e-001 -3.5489e-002 36397 92036,92088,92062
 2.0000e+000 92212 -2.2286e-001 -3.9492e-001 -8.6710e-002 36397 92036,92114,92088
 2.0000e+000 92189 -7.5439e-002 -2.6945e-001  1.4209e-002 36397 92036,92140,92114
 2.0000e+000 92166 -1.3704e-001 -1.8352e-001  2.7770e-002 36397 92010,92140,92036
 2.0000e+000 92694 -1.4292e-001 -5.2288e-003  2.7153e-002 36057 92446,92498,92472
 2.0000e+000 92671 -8.8182e-002  1.3070e-001  2.7910e-002 36057 92446,92550,92498
 2.0000e+000 92648  1.3840e-001  3.7355e-002 -3.2655e-002 36057 92446,92576,92550
 2.0000e+000 92625 -1.7388e-001 -1.0434e-001 -6.6714e-004 36057 92420,92576,92446
 2.0000e+000 92602 -3.8432e-002 -4.4862e-002 -1.8988e-001 36057 92498,92550,92524
 2.0000e+000 93023 -3.5619e-001 -5.3624e-001 -1.0083e-001 35717 92876,92928,92902
 2.0000e+000 93000 -3.3183e-001 -5.3909e-001 -1.0148e-001 35717 92824,92928,92876
 2.0000e+000 92977 -6.2201e-002 -4.8086e-001 -6.9548e-002 35717 92798,92928,92824
 2.0000e+000 92954 -3.1679e-001 -7.1239e-001 -3.9991e-001 35717 92824,92876,92850
 2.0000e+000 93499 -1.4672e-001 -8.3549e-001  3.4761e-001 35405 93522,93309,93257
 2.0000e+000 93476  1.6236e-001 -5.8119e-001  2.1547e-001 35405 93666,93522,93257
 2.0000e+000 93453  2.8107e-003 -2.2992e+000  1.8884e-001 35405 93594,93127,93335
 2.0000e+000 93430 -2.3912e-001 -5.5600e-001  5.4858e-002 35405 93666,93257,93231
 2.0000e+000 93407 -1.1413e+000 -2.9693e+000 -1.0450e+000 35405 93127,93179,93153
 2.0000e+000 93384 -1.3537e+000 -9.1132e-002  3.0098e-001 35405 93179,93231,93205
 2.0000e+000 93361  3.6932e-001  7.5235e-001  2.7494e-001 35405 93257,93309,93283
 2.0000e+000 93548  8.1598e-001 -2.2083e-001  9.1280e-001 35405 93335,93309,93522
 2.0000e+000 93571  2.9795e-001 -1.2071e+000  4.2001e-001 35405 93594,93335,93522
 2.0000e+000 93620 -4.5449e-002 -1.1099e+000  7.8050e-002 35405 93179,93127,93594
 2.0000e+000 93643 -2.8877e-001 -6.9177e-001  1.0417e-001 35405 93738,93594,93522
 2.0000e+000 93692 -2.5559e-001 -7.1533e-001  5.1669e-002 35405 93738,93522,93666
 2.0000e+000 93715 -5.0832e-001 -7.3032e-001 -1.4835e-001 35405 93179,93666,93231
 2.0000e+000 93764 -3.2267e-001 -7.6802e-001  1.1359e-001 35405 93179,93594,93738
 2.0000e+000 93787 -2.9961e-001 -7.9495e-001  6.8870e-002 35405 93179,93738,93666
 2.0000e+000 94372  4.9907e-001  7.6590e-002 -2.3301e-001 34951 94395,94127,94075
 2.0000e+000 94349  1.0287e+000  7.0218e-002 -1.0302e-001 34951 94395,94075,94231
 2.0000e+000 94326  1.5908e-001 -3.1900e-001 -1.8431e-001 34951 94049,94231,94075
 2.0000e+000 94303 -6.1235e-002 -2.3993e-001  1.2176e-001 34951 94075,94127,94101
 2.0000e+000 94280  1.0002e+000  7.1654e-002  2.4457e-001 34951 94127,94205,94153
 2.0000e+000 94257  1.2966e+000  5.8961e-002  6.4133e-001 34951 94153,94205,94179
 2.0000e+000 94421  9.3861e-001 -1.7043e-001  1.1335e-001 34951 94205,94127,94395
 2.0000e+000 94444  1.9488e+000  1.1258e-001  1.9762e-001 34951 94205,94395,94231
 2.0000e+000 94692 -2.4702e-005  6.4091e-002  9.6098e-003 34397 94715,94519,94467
 2.0000e+000 94669 -3.7841e-003  6.9078e-002  1.2925e-002 34397 94715,94467,94597
 2.0000e+000 94646 -8.6368e-004  2.6769e-002  1.5584e-002 34397 94545,94597,94571
 2.0000e+000 94623  6.4405e-002  2.1870e-001  2.7089e-003 34397 94467,94519,94493
 2.0000e+000 94741 -9.4652e-003  5.1254e-002  5.4644e-003 34397 94545,94519,94715
 2.0000e+000 94764 -4.0182e-003  6.5995e-002  1.1702e-002 34397 94545,94715,94597
 2.0000e+000 94985  4.7948e-003  2.6732e-001  2.0313e-003 33985 94835,94913,94887
 2.0000e+000 94962 -6.3604e-002  1.1201e-001 -6.8008e-003 33985 94809,94913,94835
 2.0000e+000 94939  9.7803e-002  3.1625e-001 -2.1498e-002 33985 94835,94887,94861
 2.0000e+000 95186 -3.0226e-001 -6.3620e-001 -2.8645e-001 33645 95281,95209,95036
 2.0000e+000 95163  4.4496e-002 -7.4764e-001  5.3383e-002 33645 95209,95010,95088
 2.0000e+000 95140  2.4784e-001 -3.0620e-001 -6.0706e-002 33645 95010,95114,95088
 2.0000e+000 95235 -6.0903e-001 -7.6420e-001 -2.9882e-001 33645 95062,95036,95209
 2.0000e+000 95258 -4.6770e-001 -9.5149e-001  2.3698e-001 33645 95413,95209,95088
 2.0000e+000 95307 -1.1567e-001 -3.3638e-001 -3.9430e-001 33645 95010,95209,95281
 2.0000e+000 95439 -2.8168e-001 -7.2486e-001  1.5069e-001 33645 95062,95209,95413
 2.0000e+000 95766 -3.5084e-001  2.9285e-003 -4.9310e-001 33141 95789,95593,95567
 2.0000e+000 95743 -4.1926e-002 -2.0982e-001 -1.8588e-001 33141 95861,95789,95567
 2.0000e+000 95720 -6.7386e-002 -1.3308e-001 -4.7076e-002 33141 95861,95567,95671
 2.0000e+000 95697 -1.0487e-001 -1.2981e-001 -4.9302e-002 33141 95541,95671,95567
 2.0000e+000 95815 -8.5187e-002  5.6234e-001 -4.0850e-001 33141 95619,95593,95789
 2.0000e+000 95838  3.5873e-002  7.9939e-002 -1.7543e-001 33141 95619,95789,95645
 2.0000e+000 95887  5.7381e-002  3.4220e-002 -1.8173e-001 33141 95645,95789,95861
 2.0000e+000 95910  4.5095e-002  1.1645e-001 -2.3017e-002 33141 95645,95861,95671
 2.0000e+000 96060 -3.7614e-001 -4.2977e-001 -3.1204e-001 32487 95959,96011,95985
 2.0000e+000 96037  3.5861e-002 -3.2879e-001 -6.1473e-002 32487 95933,96011,95959
 2.0000e+000 96570 -3.7385e-001 -3.2875e-001  1.3791e-001 32033 96665,96593,96377
 2.0000e+000 96547 -5.2468e-001 -1.0243e-001 -2.8394e-001 32033 96737,96593,96325
 2.0000e+000 96524 -4.0873e-001 -4.5553e-001  4.4458e-002 32033 96665,96377,96351
 2.0000e+000 96501 -6.0331e-001 -7.8224e-002 -2.0164e-001 32033 96737,96325,96299
 2.0000e+000 96478 -5.6250e-001  2.0176e-001 -1.8752e-001 32033 96247,96429,96299
 2.0000e+000 96455 -9.9560e-001 -9.9118e-001 -1.6241e-001 32033 96247,96299,96273
 2.0000e+000 96619 -8.6088e-002 -8.3443e-002  1.3042e-001 32033 96809,96593,96403
 2.0000e+000 96642  1.6412e-001  5.8418e-001 -6.0293e-001 32033 96403,96593,96429
 2.0000e+000 96691 -1.7917e-001 -6.2972e-001  4.7239e-004 32033 96325,96593,96665
 2.0000e+000 96714 -3.4483e-001 -8.6013e-001 -1.2393e-001 32033 96325,96665,96351
 2.0000e+000 96763 -6.5430e-001 -1.5138e-001 -2.9156e-001 32033 96429,96593,96737
 2.0000e+000 96786 -6.8213e-001 -9.5044e-002 -2.1130e-001 32033 96429,96737,96299
 2.0000e+000 96835 -8.7198e-002 -1.8431e-001  8.0056e-002 32033 96377,96593,96809
 2.0000e+000 97064  3.8557e-002  8.1044e-002  2.3350e-003 31671 97087,96989,96963
 2.0000e+000 97041  4.0650e-002  8.9304e-002 -1.8299e-002 31671 97087,96963,96937
 2.0000e+000 97113 -2.1288e-002  6.0321e-002  1.9098e-002 31671 97159,97087,97015
 2.0000e+000 97136  2.9890e-002  4.8241e-002  5.5708e-003 31671 97015,97087,96937
 2.0000e+000 97185  4.0139e-002  8.9749e-002 -6.3264e-004 31671 96989,97087,97159
 2.0000e+000 97563 -2.0956e-002  6.8936e-002 -5.0112e-003 31117 97586,97367,97341
 2.0000e+000 97540 -5.4200e-003  6.1237e-002 -1.4892e-002 31117 97658,97586,97341
 2.0000e+000 97517  1.1323e-002  6.2922e-002 -7.9359e-003 31117 97658,97341,97315
 2.0000e+000 97494 -9.2899e-002  1.7940e-002 -4.0216e-002 31117 97289,97445,97315
 2.0000e+000 97471 -7.9530e-003  6.3485e-003  6.3622e-003 31117 97367,97419,97393
 2.0000e+000 97612 -6.7016e-003  4.0323e-002 -5.2870e-003 31117 97419,97367,97586
 2.0000e+000 97635 -4.5793e-002  4.9224e-002 -3.5351e-002 31117 97419,97586,97445
 2.0000e+000 97684 -3.6162e-002  6.9477e-002 -1.7562e-002 31117 97445,97586,97658
 2.0000e+000 97707 -1.6664e-002  7.3788e-002 -9.9461e-003 31117 97445,97658,97315
 2.0000e+000 98215 -2.1442e-001 -1.2833e-001 -2.6778e-001 30563 98238,97996,97944
 2.0000e+000 98192 -4.0559e-001 -9.3523e-002 -2.7204e-001 30563 98310,98238,97944
 2.0000e+000 98169 -5.9170e-001 -3.9987e-001 -3.5817e-001 30563 98310,97944,97918
 2.0000e+000 98146 -1.3234e-001 -1.0109e-001 -1.5359e-002 30563 97892,98074,97918
 2.0000e+000 98123 -5.3181e-002  6.4619e-002 -1.2004e-001 30563 97996,98048,98022
 2.0000e+000 98100 -4.4320e-001 -1.0715e-001 -4.3215e-001 30563 97944,97996,97970
 2.0000e+000 98264 -2.4022e-001 -5.8827e-002 -2.4750e-001 30563 98048,97996,98238
 2.0000e+000 98287 -1.2857e-001  2.8394e-001  3.2882e-002 30563 98048,98238,98074
 2.0000e+000 98336 -2.9692e-001 -2.1007e-001 -4.5780e-002 30563 98074,98238,98310
 2.0000e+000 98359 -3.8460e-001 -2.8180e-001 -9.6880e-002 30563 98074,98310,97918
 2.0000e+000 98607 -5.5958e-001 -1.8972e-002 -1.8758e-003 30073 98630,98460,98408
 2.0000e+000 98584 -8.8918e-001 -3.5182e-002 -5.1900e-002 30073 98630,98408,98382
 2.0000e+000 98561 -1.7107e-001  1.4132e-001 -1.5196e-001 30073 98382,98512,98486
 2.0000e+000 98538 -4.0938e-001 -1.0606e-001  1.4347e-001 30073 98408,98460,98434
 2.0000e+000 98656 -3.9220e-001 -1.1884e-001 -6.6821e-002 30073 98486,98460,98630
 2.0000e+000 98679 -6.1362e-001 -4.9260e-002 -1.1388e-001 30073 98486,98630,98382
 2.0000e+000 99157  2.4435e-001 -5.9453e-002  1.2894e-001 29669 99180,98837,98811
 2.0000e+000 99134  1.2673e-001  7.5289e-003  2.9419e-001 29669 99324,99180,98811
 2.0000e+000 99111  5.1061e-002  2.1431e-001 -9.6653e-002 29669 99252,98863,98837
 2.0000e+000 99088  5.0586e-002 -1.5415e-001  3.4855e-001 29669 99324,98811,98993
 2.0000e+000 99065 -8.2642e-001  1.7932e-001  1.0864e-002 29669 98863,98941,98915
 2.0000e+000 99042 -1.0165e+000  2.1373e-001 -4.6478e-002 29669 98863,98915,98889
 2.0000e+000 99019 -1.1096e-001 -1.7680e-001  5.9767e-001 29669 98785,98993,98811
 2.0000e+000 99206  3.7166e-002 -1.4200e-001  2.3324e-002 29669 99252,98837,99180
 2.0000e+000 99229 -2.6794e-001  8.5782e-002  2.7047e-001 29669 98941,99180,98967
 2.0000e+000 99278 -6.7990e-002  4.7174e-001 -4.3952e-002 29669 98941,98863,99252
 2.0000e+000 99301  7.1534e-002  3.1701e-001  9.7592e-002 29669 98941,99252,99180
 2.0000e+000 99350  2.2514e-002  2.1035e-001  2.5551e-001 29669 98967,99180,99324
 2.0000e+000 99373  5.2885e-003  9.4681e-002  2.8217e-001 29669 98967,99324,98993
 2.0000e+000 99958  3.0285e-001  9.7249e-002  1.6436e-002 29051 99981,99765,99739
 2.0000e+000 99935  1.0143e-001  3.1032e-002 -8.2684e-002 29051 99981,99739,99661
 2.0000e+000 99912  3.5668e-001 -2.9728e-001 -1.2371e-001 29051 99765,99817,99791
 2.0000e+000 99889 -2.2691e-001 -1.1240e-001  1.2108e-001 29051 99635,99817,99661
 2.0000e+000 99866 -2.8704e-001 -1.8896e-003  1.9892e-001 29051 99661,99739,99687
 2.0000e+000 99843 -3.5569e-001  8.9226e-002  1.0064e-001 29051 99687,99739,99713
 2.0000e+000 100007  4.5324e-001 -1.0414e-002  3.0531e-003 29051 99817,99765,99981
 2.0000e+000 100030  3.0174e-001 -4.1834e-003 -5.5939e-002 29051 99817,99981,99661
 2.0000e+000 100278  4.6987e-001  1.2390e-001  1.5226e-001 28525 100445,100301,100131
 2.0000e+000 100255 -3.2120e-002  2.8328e-001  5.5291e-002 28525 100373,100301,100079
 2.0000e+000 100232 -6.5628e-002 -8.5400e-003  8.5960e-002 28525 100373,100079,100053
 2.0000e+000 100209  2.6693e-001  2.9194e-001 -1.6453e-002 28525 100445,100131,100105
 2.0000e+000 100327  1.1638e+000  3.6385e-002  1.1394e-001 28525 100517,100301,100157
 2.0000e+000 100350  2.2297e-001  2.9766e-001 -1.6101e-001 28525 100157,100301,100183
 2.0000e+000 100399 -2.5487e-002 -2.3646e-002  2.0704e-001 28525 100183,100301,100373
 2.0000e+000 100422  5.9634e-003 -2.3015e-001  2.3653e-001 28525 100183,100373,100053
 2.0000e+000 100471  1.9944e-001  2.7756e-002 -1.4673e-001 28525 100079,100301,100445
 2.0000e+000 100494 -3.5395e-001 -6.7870e-002 -3.3717e-001 28525 100079,100445,100105
 2.0000e+000 100543  9.9522e-001  9.5978e-002 -5.5099e-002 28525 100131,100301,100517
 2.0000e+000 101209 -1.5973e+000  2.2099e-002  6.8165e-003 28185 100938,101016,100990
 2.0000e+000 101186 -1.6557e+000 -1.4223e-001 -9.0933e-002 28185 100912,101016,100938
 2.0000e+000 101163 -6.1958e-001  1.9978e-001  6.5950e-003 28185 100912,101068,101016
 2.0000e+000 101140 -1.9113e+000 -3.3919e-001 -2.9181e-001 28185 100886,101068,100912
 2.0000e+000 101117 -6.7311e-001  1.4362e-001  3.6169e-002 28185 101016,101068,101042
 2.0000e+000 101094 -3.8192e+000 -6.6972e-001  4.5562e-003 28185 100938,100990,100964
 2.0000e+000 101408  2.7833e-002 -1.7135e-001 -2.3550e-001 27781 101503,101431,101310
 2.0000e+000 101385 -3.6146e-001  2.0620e-001 -5.3761e-001 27781 101431,101258,101232
 2.0000e+000 101362  1.5775e-001 -2.4063e-001 -3.0470e-001 27781 101503,101310,101284
 2.0000e+000 101457  7.1879e-001  1.8784e-001 -3.6433e-001 27781 101336,101310,101431
 2.0000e+000 101480  1.1463e-001  4.6061e-001 -6.9067e-001 27781 101575,101431,101232
 2.0000e+000 101529  2.5324e-001 -1.0383e-001 -4.7340e-001 27781 101258,101431,101503
 2.0000e+000 101552  9.1875e-002 -4.4127e-001 -2.8891e-001 27781 101705,101503,101284
 2.0000e+000 101601  2.4752e-001  6.6614e-001 -7.5264e-001 27781 101336,101431,101575
 2.0000e+000 101731 -2.1819e-001 -3.0064e-001 -4.7254e-001 27781 101258,101503,101705
 2.0000e+000 102237 -5.8197e-001 -3.4412e-001  2.1988e-002 27419 102476,102260,101992
 2.0000e+000 102214 -4.0307e-001 -4.6560e-001 -4.1988e-002 27419 102260,101940,101914
 2.0000e+000 102191 -6.2239e-001 -5.1096e-001  7.5532e-002 27419 102404,102332,102096
 2.0000e+000 102168 -5.5754e-001 -4.7159e-001  2.0376e-002 27419 102404,102096,102044
 2.0000e+000 102145 -5.5256e-001 -3.6778e-001  3.9984e-002 27419 102476,101992,101966
 2.0000e+000 102122 -4.2573e-001 -4.4238e-001 -5.9186e-003 27419 102044,102096,102070
 2.0000e+000 102286 -7.2960e-001 -4.8893e-001  8.8810e-002 27419 102018,101992,102260
 2.0000e+000 102309 -5.9732e-001 -4.1995e-001 -7.9397e-003 27419 102332,102018,102260
 2.0000e+000 102358 -6.4524e-001 -7.9142e-001  1.8416e-001 27419 101914,102096,102332
 2.0000e+000 102381 -5.4636e-001 -5.8708e-001  2.4768e-002 27419 101914,102332,102260
 2.0000e+000 102430 -5.0109e-001 -5.1055e-001 -1.7680e-002 27419 102018,102332,102404
 2.0000e+000 102453 -4.4344e-001 -4.4457e-001 -7.8996e-002 27419 102018,102404,102044
 2.0000e+000 102502 -4.9271e-001 -4.3182e-001  4.2840e-002 27419 101940,102260,102476
 2.0000e+000 102525 -1.0076e-001 -2.4110e-001 -1.6110e-002 27419 101940,102476,101966
 2.0000e+000 103031 -3.4327e-001  3.6011e-001  2.6512e-001 26715 102708,102786,102760
 2.0000e+000 103008  7.9148e-002 -1.0213e-001 -7.1596e-003 26715 102708,102890,102786
 2.0000e+000 102985  6.5129e-001 -1.8593e-001 -3.7837e-002 26715 102838,102890,102864
 2.0000e+000 102962  2.2184e-001  1.7846e-001  4.2915e-002 26715 102786,102890,102838
 2.0000e+000 102939  9.5677e-001  5.4848e-001  4.9245e-001 26715 102786,102838,102812
 2.0000e+000 102916 -5.7652e-001 -1.6867e-002  1.0728e-001 26715 102708,102760,102734
 2.0000e+000 103279  9.7975e-003  2.1222e-002 -5.4515e-002 26303 103302,103158,103080
 2.0000e+000 103256  8.2406e-002 -3.7223e-002 -5.6703e-002 26303 103302,103080,103054
 2.0000e+000 103233  1.6760e-001  9.7840e-002 -2.5907e-002 26303 103080,103158,103106
 2.0000e+000 103210 -2.0231e-001 -4.6113e-003 -3.4241e-002 26303 103106,103158,103132
 2.0000e+000 103328 -1.1504e-001 -3.3964e-002 -2.9856e-002 26303 103184,103158,103302
 2.0000e+000 103351  2.4719e-002 -4.0841e-002 -4.4056e-002 26303 103184,103302,103054
 2.0000e+000 103501 -5.6773e-001 -5.0438e-001  1.6964e-002 25849 103374,103426,103400
 2.0000e+000 103478 -5.3761e-001 -3.9492e-001  4.8124e-003 25849 103374,103452,103426
 2.0000e+000 104090 -7.8915e-002  4.3263e-002  8.0045e-002 25445 103793,103871,103819
 2.0000e+000 104067  1.1785e-001 -2.3355e-002 -3.1957e-003 25445 103793,103949,103871
 2.0000e+000 104044  2.2485e-001  1.2702e-001  7.4064e-002 25445 103871,103949,103923
 2.0000e+000 104021 -2.3358e-001  8.5919e-002 -1.0756e-001 25445 103819,103871,103845
 2.0000e+000 103998  1.8550e-001  1.0715e-001  1.9227e-001 25445 103767,103949,103793
 2.0000e+000 103975  2.6955e-001  8.3643e-002  6.5943e-002 25445 103871,103923,103897
 2.0000e+000 104419 -3.2644e-001 -2.5661e-001 -9.5652e-002 25083 104220,104298,104272
 2.0000e+000 104396 -5.1462e-001 -4.7506e-001 -1.3959e-002 25083 104220,104324,104298
 2.0000e+000 104373 -3.1211e-001 -2.7716e-001 -7.8043e-002 25083 104220,104272,104246
 2.0000e+000 104350 -4.9159e-001 -4.3551e-001  3.9098e-004 25083 104194,104324,104220
 2.0000e+000 105102 -1.7665e-002 -2.6784e-001 -6.2696e-002 24793 104785,104863,104837
 2.0000e+000 105079 -9.5324e-002 -6.1627e-001 -2.6061e-001 24793 104759,104863,104785
 2.0000e+000 105056 -1.2287e-001 -1.6486e-001 -2.5328e-001 24793 104759,104915,104863
 2.0000e+000 105033 -1.9331e-001 -2.8347e-001 -2.2387e-001 24793 104733,104915,104759
 2.0000e+000 105010  1.3721e-001 -5.9985e-002 -2.2641e-001 24793 104863,104915,104889
 2.0000e+000 104987 -3.4120e-001 -8.5241e-002 -3.4395e-001 24793 104681,104915,104733
 2.0000e+000 104964 -1.2453e-001 -3.6730e-001 -1.1805e-001 24793 104785,104837,104811
 2.0000e+000 104941 -2.9481e-001  1.7955e-001 -3.1549e-001 24793 104681,104733,104707
 2.0000e+000 105252  6.4374e-001  5.7792e-001 -7.9516e-003 24389 105477,105275,105177
 2.0000e+000 105229  4.3989e-001  6.7073e-001  6.3159e-002 24389 105347,105275,105151
 2.0000e+000 105301  7.3527e-001  5.4741e-001 -5.3437e-002 24389 105203,105177,105275
 2.0000e+000 105324  8.0943e-001  9.6910e-001  1.5921e-001 24389 105203,105275,105125
 2.0000e+000 105373  5.6808e-001  4.5949e-001  7.8296e-002 24389 105125,105275,105347
 2.0000e+000 105503  6.3209e-001  6.2051e-001 -4.5500e-002 24389 105151,105275,105477
 2.0000e+000 106088 -6.6980e-001  3.5548e-001  5.2417e-001 23735 105791,105921,105895
 2.0000e+000 106065 -1.9751e+000 -8.8613e-002  6.5210e-001 23735 105765,105921,105791
 2.0000e+000 106042 -4.2541e-001  5.8961e-001  3.3830e-001 23735 105765,105947,105921
 2.0000e+000 106019 -2.2192e+000 -1.5836e-001  7.2594e-001 23735 105817,105895,105869
 2.0000e+000 105996 -1.4429e+000  7.6891e-002  6.6944e-001 23735 105791,105895,105817
 2.0000e+000 105973 -1.4232e+000 -4.4988e-002  6.0999e-001 23735 105817,105869,105843
 2.0000e+000 106417  4.6214e-001  1.5193e+000 -3.2072e-001 23295 106218,106296,106270
 2.0000e+000 106394  1.8813e-001  4.3144e-001 -2.7342e-001 23295 106218,106322,106296
 2.0000e+000 106371 -1.1040e-001  2.0773e-001 -3.9782e-001 23295 106218,106270,106244
 2.0000e+000 106348  3.7366e-001  5.1055e-001 -8.4578e-002 23295 106192,106322,106218
 2.0000e+000 106746 -2.4931e-001  4.2598e-001  1.8479e-001 23005 106521,106599,106547
 2.0000e+000 106723  3.3534e-001  7.6922e-001 -3.6718e-003 23005 106521,106651,106599
 2.0000e+000 106700  1.8384e-001  3.1450e-001 -1.1138e-001 23005 106547,106599,106573
 2.0000e+000 106677  4.9515e-001  7.3215e-001  3.9392e-001 23005 106599,106651,106625
 2.0000e+000 107331 -9.1749e-002  5.3925e-002 -8.5030e-002 22601 107060,107190,107138
 2.0000e+000 107308 -3.2808e-001 -3.6776e-002 -1.7989e-001 22601 107034,107190,107060
 2.0000e+000 107285 -4.3905e-001 -1.1874e-001 -1.8682e-001 22601 107060,107138,107112
 2.0000e+000 107262 -5.1211e-001 -1.1574e-001 -1.9051e-001 22601 107008,107190,107034
 2.0000e+000 107239 -2.7110e-002  3.5696e-001 -3.7792e-001 22601 107060,107112,107086
 2.0000e+000 107216 -1.1603e-001  6.6469e-002 -6.9837e-002 22601 107138,107190,107164
 2.0000e+000 107807 -4.5538e-001 -6.1512e-002 -7.3477e-002 22031 107974,107902,107617
 2.0000e+000 107784 -5.2943e-001  1.9454e-001 -1.9799e-001 22031 107830,107565,107513
 2.0000e+000 107761 -3.9481e-001 -1.0642e-001 -2.4493e-001 22031 108046,107830,107513
 2.0000e+000 107738 -3.6151e-001  1.0315e-001  1.2444e-002 22031 107974,107617,107591
 2.0000e+000 107715 -4.3760e-001 -2.1030e-001 -2.4522e-001 22031 108046,107513,107461
 2.0000e+000 107692 -1.2164e+000  3.1373e-001 -3.2286e-001 22031 107513,107565,107539
 2.0000e+000 107669 -2.3998e-001  1.6982e-001 -3.1612e-001 22031 107461,107513,107487
 2.0000e+000 107856 -6.4083e-001  2.8338e-002 -1.4064e-001 22031 107902,107565,107830
 2.0000e+000 107879 -4.0712e-001 -2.3323e-001 -3.7038e-002 22031 107643,107830,107435
 2.0000e+000 107928 -7.8243e-001  1.5105e-001 -3.0323e-001 22031 107643,107617,107902
 2.0000e+000 107951 -5.7682e-001  3.0195e-002  8.2490e-004 22031 107643,107902,107830
 2.0000e+000 108000 -5.6084e-001  1.7237e-001 -9.4588e-002 22031 107565,107902,107974
 2.0000e+000 108023 -5.4498e-001  1.2235e-001 -7.4815e-002 22031 107565,107974,107591
 2.0000e+000 108072 -3.1427e-001 -2.3332e-001 -9.2279e-002 22031 107435,107830,108046
 2.0000e+000 108095 -3.8518e-001 -3.9869e-001 -9.4840e-002 22031 107435,108046,107461
 2.0000e+000 108196  5.6948e-002  1.3297e-002 -1.1870e-001 21783 108118,108170,108144
 2.0000e+000 108655  1.1218e-001  6.3158e-001  3.7456e-001 21379 108407,108485,108459
 2.0000e+000 108632  1.2766e+000 -7.1387e-002  5.3905e-001 21379 108407,108511,108485
 2.0000e+000 108609  1.3033e+000 -3.1072e-001  2.5044e-001 21379 108381,108511,108407
 2.0000e+000 108586  6.2189e-001  2.7838e-001 -5.3912e-001 21379 108381,108537,108511
 2.0000e+000 108563  3.3791e-001  8.3787e-002  1.7091e-001 21379 108407,108459,108433
 2.0000e+000 109082 -8.9716e-002  3.4823e-001  1.2914e-001 20974 109105,108863,108811
 2.0000e+000 109059  1.9537e-001  5.0908e-001 -1.1152e-001 20974 109105,108811,108759
 2.0000e+000 109036 -8.7052e-002  5.0705e-001  8.2650e-002 20974 109177,108889,108863
 2.0000e+000 109013  4.7467e-001  8.2176e-001 -9.1814e-002 20974 108811,108863,108837
 2.0000e+000 108990 -1.9758e-001  1.9894e-002 -1.8901e-002 20974 108759,108941,108915
 2.0000e+000 108967  1.0806e-001 -1.5198e-001  1.4508e-002 20974 108759,108811,108785
 2.0000e+000 109131 -4.2860e-002  4.5192e-001  1.1719e-001 20974 109177,108863,109105
 2.0000e+000 109154 -3.1752e-002  5.9537e-002 -2.4837e-002 20974 108915,109105,108759
 2.0000e+000 109203 -1.0185e-001  4.5422e-001  1.4927e-001 20974 108915,108889,109177
 2.0000e+000 109226 -1.0102e-001  3.2135e-001  1.7850e-001 20974 108915,109177,109105
 2.0000e+000 109496 -6.5975e-001 -7.5694e-002 -6.0280e-002 20470 109271,109375,109297
 2.0000e+000 109473 -5.9509e-001 -4.9185e-003 -9.3670e-002 20470 109271,109401,109375
 2.0000e+000 109450 -7.4272e-001 -1.8318e-001 -9.9090e-002 20470 109297,109375,109349
 2.0000e+000 109427 -9.9211e-001 -6.7089e-001  1.6732e-001 20470 109297,109349,109323
 2.0000e+000 109955  1.0093e-001  1.1682e+000  7.7341e-001 20123 110050,109733,109707
 2.0000e+000 109932 -6.7612e-001  5.3470e-001  4.7436e-001 20123 110050,109707,109681
 2.0000e+000 109909  6.1880e-002  1.4865e-001  4.2039e-001 20123 109978,109759,109733
 2.0000e+000 109886 -1.7167e-001  1.7810e-001  4.3985e-001 20123 110122,109978,109733
 2.0000e+000 109863  2.0631e-001  1.6742e-001  2.7434e-001 20123 109785,109837,109811
 2.0000e+000 110004  9.8361e-002  2.8428e-001  3.0441e-001 20123 109785,109759,109978
 2.0000e+000 110027 -9.8831e-003  2.3284e-001  2.8914e-001 20123 109785,109978,109837
 2.0000e+000 110076 -3.0983e-001  3.7557e-001  3.5396e-001 20123 110122,109733,110050
 2.0000e+000 110099 -3.1828e-001  3.5801e-001  1.2234e-001 20123 109837,110050,109681
 2.0000e+000 110148  9.4350e-002  4.5947e-001  3.2508e-001 20123 109837,109978,110122
 2.0000e+000 110171 -3.1433e-002  6.3006e-001  2.3643e-001 20123 109837,110122,110050
 2.0000e+000 110500  6.4756e-001  9.7828e-002 -1.5532e-001 19511 110301,110379,110353
 2.0000e+000 110477  1.3032e+000  6.8775e-001 -4.3077e-001 19511 110301,110405,110379
 2.0000e+000 110454  2.7956e-001  1.4480e-001 -1.4768e-001 19511 110275,110405,110301
 2.0000e+000 110431  5.8108e-001  1.7644e-001  1.8943e-001 19511 110301,110353,110327
 2.0000e+000 110957 -4.5168e-001  8.0939e-001 -4.7087e-001 19107 110683,110735,110709
 2.0000e+000 110934 -3.1479e-001 -3.2870e-001 -9.1722e-001 19107 110683,110813,110735
 2.0000e+000 110911  1.7081e-001  4.9517e-001 -7.1727e-001 19107 110735,110813,110761
 2.0000e+000 110888 -6.1789e-001 -6.8976e-001 -5.0549e-001 19107 110683,110839,110813
 2.0000e+000 110865  4.2059e-002  1.6559e-001 -7.5498e-001 19107 110761,110813,110787
 2.0000e+000 111335 -3.7981e-001 -4.2502e-001 -7.2199e-002 18653 111087,111165,111139
 2.0000e+000 111312 -5.2020e-002 -1.8663e-001 -1.7972e-001 18653 111087,111217,111165
 2.0000e+000 111289 -3.1637e-001 -3.5272e-001  1.8171e-001 18653 111061,111217,111087
 2.0000e+000 111266 -4.7218e-001 -4.7293e-001 -1.8462e-001 18653 111087,111139,111113
 2.0000e+000 111243 -3.5218e-002 -1.6940e-001 -1.4788e-001 18653 111165,111217,111191
 2.0000e+000 111735 -1.1081e+000 -4.9783e-001  3.7594e-002 18213 111461,111513,111487
 2.0000e+000 111712 -1.0616e+000 -7.9511e-001  2.6926e-002 18213 111461,111617,111513
 2.0000e+000 111689 -9.9494e-001 -6.6571e-001 -8.4630e-002 18213 111513,111617,111591
 2.0000e+000 111666 -3.9059e-001 -3.5505e-001  1.2842e-001 18213 111513,111591,111539
 2.0000e+000 111643 -6.2028e-002 -3.1016e-001  2.5221e-002 18213 111539,111591,111565
 2.0000e+000 111885  2.4761e-001 -3.1358e-001  2.1206e-001 17659 111784,111836,111810
 2.0000e+000 111862  5.8633e-001  1.0813e-001  3.9138e-001 17659 111758,111836,111784
 2.0000e+000 112287  3.7388e-002  2.1831e-001 -1.4938e-001 17411 112065,112169,112143
 2.0000e+000 112264 -5.9381e-001  4.2956e-002  4.6956e-002 17411 112039,112169,112065
 2.0000e+000 112241 -6.2338e-001  2.1615e-002 -2.1556e-003 17411 112013,112169,112039
 2.0000e+000 112218  2.3549e+000  4.3812e-001 -5.2615e-001 17411 112091,112143,112117
 2.0000e+000 112195  4.2886e-003 -8.1255e-002  6.0968e-002 17411 112065,112143,112091
 2.0000e+000 112508 -6.4747e-001  2.3599e-001  6.0141e-002 17007 112384,112436,112410
 2.0000e+000 112485 -5.2070e-001  3.4916e-001  1.0910e-001 17007 112332,112436,112384
 2.0000e+000 112462 -6.3559e-001  1.2852e-001  6.7541e-002 17007 112332,112384,112358
 2.0000e+000 112658 -1.7743e+000 -4.6278e-001  3.4605e-001 16553 112557,112609,112583
 2.0000e+000 112635 -2.1419e+000 -1.9762e-001  4.2226e-001 16553 112531,112609,112557
 2.0000e+000 112761 -3.3408e-001  1.1213e+000 -1.9711e-001 16355 112683,112735,112709
 2.0000e+000 112913 -9.6146e-001  3.3742e-001  4.9092e-002 15949 112786,112838,112812
 2.0000e+000 112890 -5.3374e-001  1.0657e+000 -1.5715e-001 15949 112786,112864,112838
 2.0000e+000 113065  7.8725e-002 -1.3182e-001 -4.5705e-002 15609 112938,112990,112964
 2.0000e+000 113042  3.5600e-001  3.3478e-003  9.6191e-003 15609 112938,113016,112990
 2.0000e+000 113420  5.7545e-001  4.2707e-001  2.1290e-001 15284 113247,113325,113299
 2.0000e+000 113397  5.3103e-001  3.1803e-001  1.0974e-001 15284 113195,113325,113247
 2.0000e+000 113374  2.6555e-001  2.4595e-001  4.5219e-002 15284 113195,113247,113221
 2.0000e+000 113351  4.9625e-001  7.2591e-001  2.2020e-001 15284 113247,113299,113273
 2.0000e+000 113521  2.6616e-001 -1.4542e-001  1.3004e-001 202 113443,113495,113469
 2.5000e+000 65564 -4.8622e-002  7.0507e-002 -1.1452e-001 65155 65414,65466,65440
 2.5000e+000 65541 -1.1023e-001  2.5755e-002 -7.4393e-002 65155 65414,65492,65466
 2.5000e+000 65518  3.5124e-002  5.6494e-002 -5.9234e-003 65155 65388,65492,65414
 2.5000e+000 65883 -3.4556e-001  1.2584e+000  6.8467e-004 64957 65635,65739,65713
 2.5000e+000 65860 -1.3435e-001  2.2689e+000  1.5026e-002 64957 65635,65765,65739
 2.5000e+000 65837  1.8912e-001  2.4190e+000 -2.3453e-002 64957 65609,65765,65635
 2.5000e+000 65814 -2.4525e-001  1.7414e+000 -5.5411e-001 64957 65635,65713,65687
 2.5000e+000 65791 -1.1224e-001  2.0736e+000 -3.7068e-001 64957 65635,65687,65661
 2.5000e+000 65984 -3.4428e-001  3.2363e-001  2.4684e-001 64781 65906,65958,65932
 2.5000e+000 66232  5.4406e-001  6.7542e-001 -6.0339e-001 64469 66007,66059,66033
 2.5000e+000 66209 -4.6111e-001 -1.0729e-001 -9.5103e-001 64469 66007,66085,66059
 2.5000e+000 66186  1.2027e-001  1.4020e+000 -3.0682e-001 64469 66007,66137,66085
 2.5000e+000 66163 -1.0049e+000  6.9956e-002 -1.7545e+000 64469 66085,66137,66111
 2.5000e+000 66504 -8.4133e-004  2.2180e+000 -1.1703e-001 64271 66279,66383,66305
 2.5000e+000 66481 -2.4995e-001  2.2417e+000  6.8063e-002 64271 66279,66409,66383
 2.5000e+000 66458 -4.1914e-001  2.8517e+000 -1.6037e-001 64271 66305,66357,66331
 2.5000e+000 66435  1.2970e-001  2.7474e+000 -1.7327e-001 64271 66305,66383,66357
 2.5000e+000 66705 -1.2294e-003  2.8205e+000 -4.6892e-001 64073 66728,66581,66555
 2.5000e+000 66682  3.1892e-001  2.6794e+000 -4.5603e-001 64073 66728,66555,66529
 2.5000e+000 66659 -8.9389e-001  3.3444e+000  7.2119e-001 64073 66581,66633,66607
 2.5000e+000 66754 -1.1180e-001  2.7351e+000 -4.3176e-001 64073 66633,66581,66728
 2.5000e+000 66777  4.1325e-002  2.4623e+000 -3.6159e-001 64073 66633,66728,66529
 2.5000e+000 66951  3.9003e-001 -4.0467e-002  4.9830e-001 63783 66824,66876,66850
 2.5000e+000 66928 -1.3825e+000  1.0473e+000 -1.7815e-001 63783 66824,66902,66876
 2.5000e+000 67201  9.0493e-001  2.8256e+000 -1.3487e-001 63585 66976,67080,67054
 2.5000e+000 67178  4.4791e-001  2.6466e+000 -2.9196e-001 63585 66976,67106,67080
 2.5000e+000 67155  1.6636e-001  1.3659e+000  1.6361e-001 63585 66976,67054,67028
 2.5000e+000 67132  3.9167e-001  1.7736e+000  5.0413e-001 63585 66976,67028,67002
 2.5000e+000 67654 -2.3195e-001  1.6312e+000  5.1298e-002 63295 67357,67487,67383
 2.5000e+000 67631 -2.9563e-001  2.2249e+000 -4.4217e-001 63295 67331,67487,67357
 2.5000e+000 67608  1.1792e-001  2.8598e+000  9.2846e-002 63295 67331,67513,67487
 2.5000e+000 67585 -3.0102e-002  2.9879e+000 -9.9795e-002 63295 67435,67487,67461
 2.5000e+000 67562  1.1841e-001  2.9069e+000  4.8733e-002 63295 67383,67487,67435
 2.5000e+000 67539 -1.1851e-002  2.3219e+000 -1.1070e-001 63295 67383,67435,67409
 2.5000e+000 67853 -1.2022e-003  2.0168e+000 -3.1038e-002 62891 67876,67703,67677
 2.5000e+000 67830  1.0483e-001  2.4758e+000 -1.0592e-002 62891 67876,67677,67781
 2.5000e+000 67807 -2.1152e-001  1.6570e+000 -8.9650e-002 62891 67948,67729,67703
 2.5000e+000 67902  3.9388e-004  1.9243e+000 -2.4907e-001 62891 67948,67703,67876
 2.5000e+000 67925  5.1910e-001  2.0787e+000 -3.1431e-001 62891 67755,67876,67781
 2.5000e+000 67974  1.4148e-001  1.3225e+000 -4.2885e-002 62891 67755,67729,67948
 2.5000e+000 67997  1.7262e-001  1.4495e+000 -1.5274e-001 62891 67755,67948,67876
 2.5000e+000 68218 -6.1628e-002  4.0895e-002  1.0930e-001 62693 68042,68120,68068
 2.5000e+000 68195 -1.3997e-002  1.5727e-002  8.6010e-003 62693 68042,68146,68120
 2.5000e+000 68172  2.3719e-001 -2.1003e-001  7.3307e-002 62693 68068,68120,68094
 2.5000e+000 68468  9.8404e-002  1.4812e+000 -1.2513e+000 62289 68491,68295,68269
 2.5000e+000 68445  1.3130e-001  8.8646e-001  1.7788e-001 62289 68563,68491,68269
 2.5000e+000 68422 -4.2023e-001  6.1475e-001  8.3593e-002 62289 68563,68269,68243
 2.5000e+000 68399 -1.3968e+000  3.9455e+000 -2.1308e+000 62289 68295,68347,68321
 2.5000e+000 68517  1.8775e-001  4.7913e+000 -1.8116e+000 62289 68347,68295,68491
 2.5000e+000 68540 -4.8908e-001  2.0792e+000 -7.1793e-002 62289 68347,68491,68373
 2.5000e+000 68589  5.5838e-001  4.1790e-001 -2.7781e-001 62289 68373,68491,68563
 2.5000e+000 68612  2.3911e-001  2.8114e-001 -2.9870e-001 62289 68373,68563,68243
 2.5000e+000 68911  9.4871e-002  1.9033e+000 -7.0694e-002 62091 69222,68934,68741
 2.5000e+000 68888 -3.8341e-001  2.0219e+000 -6.9720e-002 62091 69006,68934,68689
 2.5000e+000 68865 -6.0514e-001  1.7683e+000 -3.0049e-001 62091 69006,68689,68663
 2.5000e+000 68842  3.4811e-001  2.3467e+000  3.5034e-001 62091 69078,68793,68767
 2.5000e+000 68819  1.5574e-001  1.9446e+000 -2.0005e-001 62091 69222,68741,68715
 2.5000e+000 68960  4.0765e-001  2.1503e+000 -1.7797e-001 62091 68767,68741,68934
 2.5000e+000 68983  1.6643e-001  2.4834e+000  7.1719e-002 62091 69078,68767,68934
 2.5000e+000 69032 -3.0525e-001  2.2244e+000 -1.8222e-002 62091 69150,69006,68637
 2.5000e+000 69055 -3.1481e-001  2.1423e+000 -8.8242e-002 62091 68637,69006,68663
 2.5000e+000 69104  1.9188e-001  1.9811e+000  3.1413e-002 62091 68637,68793,69078
 2.5000e+000 69127 -2.6104e-001  2.1811e+000 -4.2643e-002 62091 69150,68637,69078
 2.5000e+000 69176 -1.5011e-001  2.0338e+000  1.3237e-002 62091 68934,69006,69150
 2.5000e+000 69199  4.1855e-002  2.1516e+000 -6.9699e-002 62091 68934,69150,69078
 2.5000e+000 69248  3.4837e-002  1.7632e+000 -6.5855e-002 62091 68689,68934,69222
 2.5000e+000 69271  5.4908e-002  1.7228e+000 -1.5580e-001 62091 68689,69222,68715
 2.5000e+000 69521 -1.3098e+000  7.6469e-001  2.9624e-001 61893 69544,69348,69296
 2.5000e+000 69498 -5.1628e-001  1.1940e+000  1.2911e-001 61893 69544,69296,69400
 2.5000e+000 69475  9.1678e-002  6.9928e-001 -3.7625e-001 61893 69296,69426,69400
 2.5000e+000 69452  5.3314e-001  5.1302e+000 -2.8954e-001 61893 69296,69348,69322
 2.5000e+000 69570 -9.1727e-001  2.3997e-002  1.0409e+000 61893 69374,69348,69544
 2.5000e+000 69593  5.7090e-001  7.6759e-001  7.7835e-001 61893 69374,69544,69400
 2.5000e+000 70046 -1.6506e-001  1.8701e+000 -3.4486e-002 61467 69749,69905,69879
 2.5000e+000 70023 -2.1771e-001  1.5311e+000 -4.4202e-001 61467 69723,69905,69749
 2.5000e+000 70000 -2.6139e-001  1.7479e+000  6.1862e-003 61467 70069,69827,69775
 2.5000e+000 69977  2.3485e-001  2.8752e+000 -3.8358e-001 61467 70069,69775,69749
 2.5000e+000 69954  3.4158e-002  9.2994e-001  1.0903e-002 61467 70141,69853,69827
 2.5000e+000 69931 -4.4248e-001  1.9853e+000  6.2129e-001 61467 69775,69827,69801
 2.5000e+000 70095 -1.2134e-001  1.1524e+000  1.5490e-001 61467 70141,69827,70069
 2.5000e+000 70118 -1.8603e-001  1.7506e+000 -1.0299e-002 61467 69879,70069,69749
 2.5000e+000 70167 -1.2705e-001  1.2698e+000 -1.6264e-003 61467 69879,69853,70141
 2.5000e+000 70190 -4.7229e-002  1.7969e+000  1.4626e-001 61467 69879,70141,70069
 2.5000e+000 70291  2.3907e-001  3.1360e+000  3.3173e-001 61013 70213,70265,70239
 2.5000e+000 70441  4.5800e-001  5.2238e+000 -8.2869e-001 60651 70340,70392,70366
 2.5000e+000 70418 -1.0131e-001  6.1447e-001 -9.8610e-002 60651 70314,70392,70340
 2.5000e+000 70642 -1.6630e-001  1.8661e+000  5.7764e-001 60311 70665,70492,70466
 2.5000e+000 70619  9.6719e-002  2.4599e+000  5.2629e-001 60311 70665,70466,70570
 2.5000e+000 70596 -7.0216e-001  9.8376e-001  7.1537e-002 60311 70492,70544,70518
 2.5000e+000 70691  1.4807e-002  1.2958e+000 -5.5924e-002 60311 70544,70492,70665
 2.5000e+000 70714  4.1771e-001  2.2147e+000 -1.2856e-001 60311 70544,70665,70570
 2.5000e+000 70964 -4.3085e-001  1.4725e+000  2.1791e-001 59907 70987,70765,70739
 2.5000e+000 70941 -1.0757e-001  2.2032e+000  2.1479e-002 59907 71059,70987,70739
 2.5000e+000 70918  1.0424e-001  3.1702e+000 -9.5436e-002 59907 71059,70739,70869
 2.5000e+000 70895  4.2368e-002  2.1782e+000 -9.8959e-002 59907 70817,70869,70843
 2.5000e+000 71013 -6.6223e-002  1.5701e+000 -2.0636e-001 59907 70791,70765,70987
 2.5000e+000 71036 -5.9267e-002  1.6251e+000 -2.0491e-001 59907 70791,70987,70817
 2.5000e+000 71085  1.2818e-001  1.5594e+000 -1.2817e-001 59907 70817,70987,71059
 2.5000e+000 71108 -5.4564e-002  1.9764e+000 -6.9539e-002 59907 70817,71059,70869
 2.5000e+000 71441  1.7719e+000  4.5925e+000 -6.8926e-001 59417 71464,71242,71216
 2.5000e+000 71418  1.5547e+000  3.5917e+000  3.6805e-001 59417 71464,71216,71320
 2.5000e+000 71395  9.2112e-001  2.3983e+000  6.5649e-001 59417 71216,71346,71320
 2.5000e+000 71372 -1.4189e+000  1.9839e+000  1.5467e+000 59417 71268,71320,71294
 2.5000e+000 71490  1.3179e+000  4.2435e+000  5.5706e-001 59417 71268,71242,71464
 2.5000e+000 71513 -8.3750e-002  2.1231e+000  1.7822e+000 59417 71268,71464,71320
 2.5000e+000 71712  3.0721e-001  2.3663e+000 -7.0219e-002 58913 71562,71614,71588
 2.5000e+000 71689  1.1026e+000  1.9251e+000 -6.8463e-001 58913 71536,71614,71562
 2.5000e+000 71666  1.1632e+000  1.6540e+000 -5.5452e-001 58913 71536,71640,71614
 2.5000e+000 72171 -3.3459e-001  4.9139e-002 -7.3149e-001 58409 72194,72027,72001
 2.5000e+000 72148 -6.9070e-001  9.2492e-003 -3.8651e-001 58409 72194,72001,71949
 2.5000e+000 72125 -5.8566e-001 -5.7507e-001  7.9732e-002 58409 71923,72053,71949
 2.5000e+000 72102 -2.9470e-001  3.9870e-001 -7.3080e-001 58409 71949,72001,71975
 2.5000e+000 72079 -8.2269e-002 -2.7005e-001  2.1899e-001 58409 71897,72053,71923
 2.5000e+000 72220 -8.1187e-001 -1.1492e-001 -6.5914e-001 58409 72053,72027,72194
 2.5000e+000 72243 -1.0034e+000  3.0064e-003 -3.5252e-001 58409 72053,72194,71949
 2.5000e+000 72491 -3.3394e+000 -1.1217e+000 -2.1838e+000 57855 72514,72318,72292
 2.5000e+000 72468  2.1174e+000  1.2272e+000 -2.5666e+000 57855 72514,72292,72266
 2.5000e+000 72445 -1.7785e+000  4.3614e-001  1.8377e-001 57855 72318,72396,72370
 2.5000e+000 72422 -4.5690e+000  2.0105e+000 -1.2885e+000 57855 72318,72370,72344
 2.5000e+000 72540 -3.8472e+000 -3.8687e-001 -1.4113e+000 57855 72396,72318,72514
 2.5000e+000 72563 -3.3274e+000 -4.3632e-001 -1.5149e+000 57855 72396,72514,72266
 2.5000e+000 72811  1.3770e+000  6.5081e-001 -6.6163e-001 57401 72612,72690,72638
 2.5000e+000 72788  3.9870e-002  1.0367e-001  2.1825e-001 57401 72586,72690,72612
 2.5000e+000 72765 -8.3210e-001 -6.0980e-001 -1.1908e+000 57401 72638,72690,72664
 2.5000e+000 72742  3.4263e-001  1.5564e+000 -1.8396e-001 57401 72586,72716,72690
 2.5000e+000 73144  2.2251e-001  1.2686e+000 -1.9042e-001 57004 72919,72997,72945
 2.5000e+000 73121  3.4581e-001  2.3398e+000 -4.8154e-001 57004 72919,73049,72997
 2.5000e+000 73098  2.7417e-001  1.6103e+000 -4.1759e-001 57004 72945,72997,72971
 2.5000e+000 73075  4.5838e-001  2.7844e+000 -6.0656e-001 57004 72997,73049,73023
 2.5000e+000 73650 -1.3834e+000 -1.6288e-001  1.1463e-001 56592 73673,73379,73353
 2.5000e+000 73627 -1.7738e-001  1.5137e-001 -4.8907e-002 56592 73673,73353,73327
 2.5000e+000 73604 -2.5248e+000  5.7267e-002 -1.0231e-001 56592 73745,73509,73483
 2.5000e+000 73581 -2.8809e+000 -4.0350e-001 -1.4240e-001 56592 73379,73457,73405
 2.5000e+000 73558 -6.4764e-001  3.8224e-001  1.1151e-001 56592 73379,73483,73457
 2.5000e+000 73535  1.4550e+000  3.3289e-001 -6.5893e-002 56592 73405,73457,73431
 2.5000e+000 73699 -1.2374e+000  2.6099e-001  2.1337e-002 56592 73483,73379,73673
 2.5000e+000 73722 -2.0419e+000 -4.6868e-002 -9.5932e-002 56592 73745,73483,73673
 2.5000e+000 73771 -1.8934e+000 -4.0322e-001  4.4259e-001 56592 73327,73509,73745
 2.5000e+000 73794 -9.5268e-001 -1.9326e-001  3.9538e-001 56592 73327,73745,73673
 2.5000e+000 74123  2.9300e+000  2.3617e+000  4.1304e-001 56152 74146,74002,73924
 2.5000e+000 74100  2.0924e+000  2.1626e+000  2.8774e-001 56152 74146,73924,73898
 2.5000e+000 74077  2.9207e+000  1.6720e+000  6.2837e-001 56152 73924,74002,73976
 2.5000e+000 74054  2.8732e+000  1.5826e+000  1.1682e+000 56152 73924,73976,73950
 2.5000e+000 74172  4.0190e+000  2.0910e+000 -2.1873e-001 56152 74028,74002,74146
 2.5000e+000 74195  2.6447e+000  1.8599e+000 -2.8113e-001 56152 74028,74146,73898
 2.5000e+000 74345  1.6369e+000  1.3486e+000 -5.5864e-001 55634 74218,74270,74244
 2.5000e+000 74322  2.3807e+000 -4.4935e-001 -4.9146e-001 55634 74218,74296,74270
 2.5000e+000 74823  2.1943e-001 -1.3994e+000  2.6775e-001 55016 74918,74846,74581
 2.5000e+000 74800 -3.4285e-001 -5.0458e-001 -2.6332e-002 55016 74846,74477,74633
 2.5000e+000 74777 -1.0228e+000 -2.0808e+000  6.1913e-001 55016 74918,74581,74555
 2.5000e+000 74754 -1.7448e+000 -1.7358e+000  1.1464e+000 55016 74990,74503,74477
 2.5000e+000 74731 -9.6573e-001 -5.2088e-001  3.1753e-001 55016 74451,74633,74477
 2.5000e+000 74708 -1.4944e+000 -5.7457e-001  3.6270e-001 55016 74451,74659,74633
 2.5000e+000 74685 -2.4213e+000 -2.6559e+000  1.7863e+000 55016 74503,74555,74529
 2.5000e+000 74872  3.2085e-001 -1.3516e+000 -2.3123e-002 55016 74607,74581,74846
 2.5000e+000 74895 -1.4446e-001 -1.5268e+000  6.7632e-002 55016 74607,74846,74633
 2.5000e+000 74944 -1.6422e+000 -1.5728e+000  4.3305e-001 55016 74477,74846,74918
 2.5000e+000 74967 -1.9311e+000 -1.6091e+000  8.1197e-001 55016 74990,74477,74918
 2.5000e+000 75016 -1.0941e+000 -1.4656e+000  1.0247e+000 55016 74555,74503,74990
 2.5000e+000 75039 -1.2277e+000 -1.2482e+000  6.5584e-001 55016 74555,74990,74918
 2.5000e+000 75287 -2.9913e+000 -3.7699e+000 -2.7741e-003 54726 75310,75140,75114
 2.5000e+000 75264 -3.5900e+000 -2.2493e+000 -3.7197e-001 54726 75310,75114,75088
 2.5000e+000 75241 -4.7498e+000 -2.1668e+000 -2.1363e+000 54726 75088,75192,75166
 2.5000e+000 75218 -8.4559e+000 -1.6495e-001 -2.1721e+000 54726 75062,75192,75088
 2.5000e+000 75336 -2.2732e+000 -2.9195e+000 -9.2719e-001 54726 75166,75140,75310
 2.5000e+000 75359 -3.4497e+000 -1.3844e+000 -9.1925e-001 54726 75166,75310,75088
 2.5000e+000 75946 -1.2790e-001  2.4704e-001  2.7432e-001 54322 75969,75701,75649
 2.5000e+000 75923 -7.6333e-001 -1.7614e-001  4.5932e-001 54322 75969,75649,75623
 2.5000e+000 75900 -3.9623e-001 -1.7997e-002 -3.9543e-002 54322 76041,75753,75701
 2.5000e+000 75877 -1.8896e-001  1.0920e+000  2.1535e-002 54322 75623,75805,75779
 2.5000e+000 75854 -4.8815e-001  1.3806e-002 -2.1648e-001 54322 75701,75753,75727
 2.5000e+000 75831 -1.9696e-001 -4.2941e-002  5.3431e-002 54322 75649,75701,75675
 2.5000e+000 75995 -5.7927e-001  8.8221e-002  1.1808e-001 54322 76041,75701,75969
 2.5000e+000 76018 -5.6707e-001  3.5201e-001  2.2646e-001 54322 75779,75969,75623
 2.5000e+000 76067 -2.9689e-001  2.6459e-001 -1.0540e-001 54322 75779,75753,76041
 2.5000e+000 76090 -4.1915e-001  4.7018e-001  5.3447e-002 54322 75779,76041,75969
 2.5000e+000 76468 -9.2034e-002  3.8260e-001  2.7067e-002 53868 76491,76272,76220
 2.5000e+000 76445 -1.2670e-001  4.2906e-001 -3.1296e-002 53868 76491,76220,76324
 2.5000e+000 76422  2.1985e-002  4.1144e-001 -3.8973e-002 53868 76220,76272,76246
 2.5000e+000 76399 -1.9208e-001  8.3148e-001  1.5988e-001 53868 76194,76324,76220
 2.5000e+000 76376 -9.5602e-001  5.2184e-001 -8.6390e-003 53868 76194,76350,76324
 2.5000e+000 76517 -1.2204e-001  3.0725e-001  2.5206e-002 53868 76298,76272,76491
 2.5000e+000 76540 -1.4764e-001  3.7128e-001 -3.1698e-002 53868 76298,76491,76324
 2.5000e+000 76690 -7.2251e-002  4.8716e-001 -6.8771e-002 53356 76589,76641,76615
 2.5000e+000 76667  1.4472e-001  1.1771e+000  2.8134e-002 53356 76563,76641,76589
 2.5000e+000 76938 -4.9201e-001  6.2308e-001 -7.6624e-001 53009 77105,76961,76765
 2.5000e+000 76915  1.1308e-001  8.3756e-001 -3.7665e-001 53009 76961,76713,76843
 2.5000e+000 76892 -3.1787e-001  7.9436e-001 -1.7770e-001 53009 77033,76817,76791
 2.5000e+000 76869 -1.2066e+000  1.2975e-001 -1.4589e+000 53009 77105,76765,76739
 2.5000e+000 76987 -1.2590e-001  1.5614e+000 -5.3313e-001 53009 76791,76765,76961
 2.5000e+000 77010 -3.6747e-001  8.3533e-001 -4.1767e-001 53009 77033,76791,76961
 2.5000e+000 77059  4.6591e-002  9.5344e-001 -1.9852e-001 53009 76843,76817,77033
 2.5000e+000 77082 -2.4832e-002  9.7874e-001 -4.1973e-001 53009 76843,77033,76961
 2.5000e+000 77131  2.6641e-001  1.1056e+000 -4.4950e-001 53009 76713,76961,77105
 2.5000e+000 77154  1.4734e-001  1.0459e+000 -1.0296e+000 53009 76713,77105,76739
 2.5000e+000 77355  3.1130e+000 -2.7243e+000  1.7440e+000 52390 77378,77257,77231
 2.5000e+000 77332  2.3239e+000 -1.3059e+000  1.1695e+000 52390 77378,77231,77179
 2.5000e+000 77309  3.0060e+000 -2.7092e+000 -7.4321e-001 52390 77179,77231,77205
 2.5000e+000 77404  3.7028e+000 -1.7278e+000  1.2149e+000 52390 77283,77257,77378
 2.5000e+000 77427  3.0065e+000 -5.9634e-002  6.7251e-001 52390 77283,77378,77179
 2.5000e+000 77677 -2.0046e+000  2.9262e+000 -1.9175e+000 51986 77700,77504,77478
 2.5000e+000 77654  6.3600e-002  4.2011e+000 -2.4570e+000 51986 77700,77478,77452
 2.5000e+000 77631 -2.5242e-001  1.9063e+000 -6.9613e-001 51986 77772,77556,77530
 2.5000e+000 77608 -4.8969e-001  1.6340e+000 -9.7424e-001 51986 77452,77582,77556
 2.5000e+000 77726 -5.7196e-001  2.7139e+000 -7.8273e-001 51986 77530,77504,77700
 2.5000e+000 77749  3.6823e-002  2.5174e+000 -9.3005e-001 51986 77772,77530,77700
 2.5000e+000 77798  1.3107e-001  2.1923e+000 -1.2114e+000 51986 77452,77556,77772
 2.5000e+000 77821  3.3125e-001  2.3534e+000 -1.4112e+000 51986 77452,77772,77700
 2.5000e+000 78282  6.3835e-001 -3.7890e-001 -1.3709e-001 51738 78008,78138,78060
 2.5000e+000 78259  1.0833e+000 -4.8235e-001  6.5877e-001 51738 78008,78164,78138
 2.5000e+000 78236  3.3501e-001  1.0838e-001 -3.9752e-002 51738 78086,78138,78112
 2.5000e+000 78213  3.5960e-001  9.5203e-002 -6.6517e-003 51738 78060,78138,78086
 2.5000e+000 78190  1.9480e+000 -1.1975e+000 -8.9407e-001 51738 78008,78060,78034
 2.5000e+000 78432 -2.5781e-001 -9.9208e-002  7.4121e-003 51148 78305,78357,78331
 2.5000e+000 78409 -2.1915e-001  1.5792e-001 -3.7963e-002 51148 78305,78383,78357
 2.5000e+000 78891 -2.5306e-001 -5.5883e-002  3.3822e-001 50808 78914,78695,78669
 2.5000e+000 78868 -1.4794e-001  1.5087e-001  2.4239e-001 50808 78914,78669,78643
 2.5000e+000 78845  1.4267e-002  2.5049e-001  1.7142e-001 50808 78643,78773,78747
 2.5000e+000 78822  1.8164e-001  2.8156e-001  2.5046e-001 50808 78617,78773,78643
 2.5000e+000 78799 -6.4553e-002  2.7851e-001  3.1108e-001 50808 78695,78747,78721
 2.5000e+000 78940 -6.9170e-002  1.3026e-001  2.2640e-001 50808 78747,78695,78914
 2.5000e+000 78963 -1.4374e-001  1.9926e-001  1.6605e-001 50808 78747,78914,78643
 2.5000e+000 79260 -2.9303e-001 -2.3068e-001 -1.4537e-001 50468 79283,79090,79012
 2.5000e+000 79237 -3.8229e-001 -7.8514e-002 -1.4980e-001 50468 79283,79012,78986
 2.5000e+000 79214 -4.3381e-001 -2.8985e-001 -1.3365e-001 50468 79012,79090,79038
 2.5000e+000 79191 -2.0582e-001  1.2438e-001 -2.7492e-001 50468 78986,79142,79116
 2.5000e+000 79168 -1.9991e-001 -2.7643e-001 -2.1207e-001 50468 79038,79090,79064
 2.5000e+000 79309 -2.6875e-001 -1.4220e-001 -1.8294e-001 50468 79116,79090,79283
 2.5000e+000 79332 -3.5173e-001  2.5434e-002 -1.8098e-001 50468 79116,79283,78986
 2.5000e+000 79889  2.3621e+000  2.4339e+000 -8.7561e-001 50064 79569,79725,79699
 2.5000e+000 79866  3.1613e-001  1.3433e+000 -2.2464e+000 50064 79543,79725,79569
 2.5000e+000 79843  1.9682e+000  1.0552e+000 -8.2916e-001 50064 79621,79699,79673
 2.5000e+000 79820  2.0975e+000  1.3298e+000 -1.1783e+000 50064 79595,79699,79621
 2.5000e+000 79797  1.3536e+000  1.6853e+000 -1.4495e+000 50064 79569,79699,79595
 2.5000e+000 79774  2.3646e+000  4.2960e+000 -9.8537e-002 50064 79517,79725,79543
 2.5000e+000 79751  7.8808e-001  1.1263e+000 -9.4180e-001 50064 79621,79673,79647
 2.5000e+000 80169  1.8947e+000  2.5298e+000 -1.2270e+000 49724 80019,80097,80071
 2.5000e+000 80146  1.5153e+000  4.2467e+000 -1.6436e+000 49724 79993,80097,80019
 2.5000e+000 80123  1.0737e+000  2.1979e+000 -1.2485e+000 49724 80019,80071,80045
 2.5000e+000 80626 -1.2499e+000 -4.3020e-001 -2.3292e-001 49277 80352,80482,80378
 2.5000e+000 80603 -9.5230e-001 -3.5936e-001  9.7761e-002 49277 80352,80508,80482
 2.5000e+000 80580 -1.0786e+000 -2.9692e-001 -1.7105e-001 49277 80378,80482,80456
 2.5000e+000 80557 -1.2503e+000 -8.3930e-001 -1.5106e-001 49277 80378,80430,80404
 2.5000e+000 80534 -1.6383e+000 -5.2001e-001 -1.0712e-001 49277 80378,80456,80430
 2.5000e+000 81230 -2.6066e+000 -1.3690e+000  1.0225e+000 48716 81253,80835,80809
 2.5000e+000 81207 -1.5897e+000  1.8379e-001 -4.4238e-001 48716 81397,81253,80809
 2.5000e+000 81184 -1.3772e+000  1.2727e+000 -6.6871e-001 48716 81325,80913,80887
 2.5000e+000 81161 -1.0534e+000 -7.1515e-001 -3.8551e-001 48716 81397,80809,81017
 2.5000e+000 81138 -2.0284e+000  8.2512e-001 -1.0508e+000 48716 81469,80965,80913
 2.5000e+000 81115 -1.0201e+000 -1.9840e-002  1.1663e+000 48716 80835,80887,80861
 2.5000e+000 81092 -3.0084e-001 -1.7760e+000  1.8414e+000 48716 80809,81043,81017
 2.5000e+000 81069 -2.2161e+000 -1.1097e+000 -2.3638e+000 48716 80913,80965,80939
 2.5000e+000 81279  6.1760e-001  5.8252e-001  1.1914e-001 48716 80887,80835,81253
 2.5000e+000 81302 -2.0177e+000  9.4939e-001 -8.2951e-001 48716 81325,80887,81253
 2.5000e+000 81351 -1.5797e+000  9.3414e-001 -8.7040e-001 48716 81469,80913,81325
 2.5000e+000 81374 -1.8298e+000  1.6656e+000 -7.8603e-001 48716 80991,81325,81253
 2.5000e+000 81423 -1.3956e+000  1.3614e+000 -7.1260e-003 48716 80991,81253,81397
 2.5000e+000 81446 -1.0133e+000  2.5544e-001  6.2896e-002 48716 80991,81397,81017
 2.5000e+000 81495 -2.8277e+000  1.1272e+000 -1.1805e+000 48716 80991,80965,81469
 2.5000e+000 81518 -2.4818e+000  1.1384e+000 -1.0206e+000 48716 80991,81469,81325
 2.5000e+000 81717 -2.5412e-002  1.5035e-001 -4.8719e-002 48262 81740,81567,81541
 2.5000e+000 81694  1.1653e-001  2.3061e-001 -8.3208e-002 48262 81740,81541,81645
 2.5000e+000 81671 -3.9652e-002 -1.6958e-001 -4.8539e-002 48262 81567,81619,81593
 2.5000e+000 81766  5.4743e-002  8.1427e-002  5.0067e-002 48262 81619,81567,81740
 2.5000e+000 81789  1.8543e-001  1.4747e-001  2.1159e-002 48262 81619,81740,81645
 2.5000e+000 81939  1.4571e+000  2.9045e+000 -7.9775e-001 47957 82034,81962,81864
 2.5000e+000 81916  1.2157e-001  2.5257e+000 -1.0464e+000 47957 82166,81962,81838
 2.5000e+000 81988  2.2345e+000  2.9218e+000  3.5122e-001 47957 82294,81962,81890
 2.5000e+000 82011  1.2976e+000  2.2804e+000 -2.9556e-001 47957 81890,81962,81812
 2.5000e+000 82060  1.5534e+000  3.5840e+000 -5.1928e-001 47957 81838,81962,82034
 2.5000e+000 82192 -9.2437e-001  2.2128e+000  3.4316e-001 47957 81812,81962,82166
 2.5000e+000 82320  3.0058e+000  2.5686e+000 -2.2065e-001 47957 81864,81962,82294
 2.5000e+000 82549 -2.2075e-001 -8.1058e-002 -1.1868e-001 47617 82448,82500,82474
 2.5000e+000 82526  3.5544e-002  7.3525e-001 -4.1052e-002 47617 82422,82500,82448
 2.5000e+000 82902  8.9393e-001  5.7711e-001 -1.0989e-001 47255 82729,82807,82755
 2.5000e+000 82879  1.1658e+000  5.3149e-001  6.2119e-002 47255 82703,82807,82729
 2.5000e+000 82856  5.9855e-001  4.9255e-001  2.0098e-001 47255 82755,82807,82781
 2.5000e+000 82833  2.4759e+000  1.0930e+000  1.9404e-001 47255 82677,82807,82703
 2.5000e+000 83182  7.1002e-002 -9.0358e-001  4.7183e-001 46680 83032,83084,83058
 2.5000e+000 83159  5.1892e-001 -4.9698e-001  7.1320e-001 46680 83205,83084,83032
 2.5000e+000 83136 -6.6510e-001  1.4922e-001  5.5391e-001 46680 83006,83110,83084
 2.5000e+000 83231  1.1887e+000  7.2387e-002  1.0013e+000 46680 83006,83084,83205
 2.5000e+000 83737 -2.1001e+000 -5.9798e-001  3.6077e-001 46290 83832,83760,83492
 2.5000e+000 83714 -2.0817e+000 -2.8931e-001  3.0805e-001 46290 83760,83440,83414
 2.5000e+000 83691 -1.6195e+000 -9.0022e-001  2.7331e-001 46290 83832,83492,83466
 2.5000e+000 83668 -1.7665e+000 -1.6127e+000  5.6488e-001 46290 83492,83570,83544
 2.5000e+000 83645 -2.8614e+000 -8.1443e-001  6.1660e-002 46290 83414,83596,83570
 2.5000e+000 83622 -1.6106e+000 -1.1994e+000  8.3976e-001 46290 83492,83544,83518
 2.5000e+000 83786 -2.0264e+000 -5.4674e-001  3.0048e-001 46290 83570,83492,83760
 2.5000e+000 83809 -2.0795e+000 -7.1347e-001  1.0613e-001 46290 83570,83760,83414
 2.5000e+000 83858 -1.4856e+000 -2.4153e-001  5.3287e-001 46290 83440,83760,83832
 2.5000e+000 83881 -6.4052e-001 -4.7808e-001  3.4708e-001 46290 83440,83832,83466
 2.5000e+000 84161 -2.5869e-002 -5.0231e-001  4.2362e-002 45829 84011,84063,84037
 2.5000e+000 84138 -2.8643e-001 -5.3137e-001 -7.2356e-003 45829 84011,84089,84063
 2.5000e+000 84115  5.6787e-003 -4.0508e-001  1.5446e-002 45829 83985,84089,84011
 2.5000e+000 84311  1.3109e+000  1.4372e+000  1.0427e-001 45631 84184,84236,84210
 2.5000e+000 84288  7.9532e-001 -9.7125e-002 -4.9601e-002 45631 84184,84262,84236
 2.5000e+000 84657 -1.3380e-001 -2.8907e-001 -5.9640e-002 45155 84680,84490,84412
 2.5000e+000 84634 -1.9625e-001 -1.6118e-001 -1.0938e-002 45155 84680,84412,84360
 2.5000e+000 84611 -2.6895e-001 -3.8805e-001  6.0773e-002 45155 84412,84490,84438
 2.5000e+000 84588  1.6637e-002  6.3140e-002 -5.0992e-002 45155 84334,84516,84360
 2.5000e+000 84565 -1.1317e-001  5.9196e-002 -3.2807e-001 45155 84360,84412,84386
 2.5000e+000 84542 -2.2120e-001 -4.2198e-001  3.5400e-002 45155 84438,84490,84464
 2.5000e+000 84706 -1.4197e-001 -1.6589e-001 -8.5791e-002 45155 84516,84490,84680
 2.5000e+000 84729 -1.9357e-001 -2.7222e-002 -5.6031e-002 45155 84516,84680,84360
 2.5000e+000 85077 -5.6270e-002 -5.3607e-001 -2.1932e-001 44508 85100,84754,84910
 2.5000e+000 85054 -1.0901e-001  3.4192e-002 -7.9272e-002 44508 84754,84936,84910
 2.5000e+000 85031 -5.1599e-001 -9.2645e-001  1.0765e-001 44508 85100,84910,84884
 2.5000e+000 85008 -5.1692e-001 -2.3224e-001 -4.1327e-001 44508 84780,84884,84832
 2.5000e+000 84985 -5.2055e-001 -2.7497e-001 -4.6608e-001 44508 84780,84832,84806
 2.5000e+000 84962 -1.1993e+000 -9.0497e-001 -9.4429e-002 44508 84832,84884,84858
 2.5000e+000 85126 -4.3194e-001  1.7804e-002 -5.4804e-001 44508 84780,84754,85100
 2.5000e+000 85149 -7.8193e-001 -3.6037e-001 -2.5102e-001 44508 84780,85100,84884
 2.5000e+000 85482  3.6985e-001  1.1961e-001 -4.3303e-002 44104 85335,85387,85361
 2.5000e+000 85459  2.5687e-001 -1.8041e-001  3.1657e-002 44104 85309,85387,85335
 2.5000e+000 85436  1.3243e-001 -1.4918e-001 -1.1059e-001 44104 85257,85387,85309
 2.5000e+000 85413  5.0806e-002  6.1607e-003  1.7746e-002 44104 85257,85309,85283
 2.5000e+000 85811 -2.4239e-001 -3.6991e-001 -8.4235e-002 43600 85586,85664,85612
 2.5000e+000 85788 -2.0861e-001 -7.2134e-002 -2.0372e-002 43600 85586,85690,85664
 2.5000e+000 85765 -8.1638e-002  2.7053e-001 -1.8622e-001 43600 85586,85716,85690
 2.5000e+000 85742 -2.6006e-001 -3.0037e-001 -2.1249e-001 43600 85612,85664,85638
 2.5000e+000 86010  3.2753e-001  1.6672e-001 -7.4596e-002 43224 85886,85938,85912
 2.5000e+000 85987  2.7757e-001  1.9159e-002 -6.8927e-002 43224 85834,85938,85886
 2.5000e+000 85964  3.1327e-001 -7.5695e-001 -5.3533e-002 43224 85834,85886,85860
 2.5000e+000 86420  2.8553e+000  1.2717e+000 -3.6476e-001 42820 86195,86299,86221
 2.5000e+000 86397  2.8650e+000  2.6474e+000 -1.1350e+000 42820 86195,86325,86299
 2.5000e+000 86374  1.6436e+000  1.1345e+000  1.8924e-001 42820 86221,86299,86273
 2.5000e+000 86351  1.2940e+000  9.2028e-001 -2.0736e-001 42820 86221,86273,86247
 2.5000e+000 86749  2.9042e-001 -7.9671e-001 -3.1679e-001 42223 86550,86602,86576
 2.5000e+000 86726  2.2542e+000 -1.4955e+000  8.7210e-003 42223 86550,86628,86602
 2.5000e+000 86703  6.8096e-001 -1.9025e+000  9.6531e-001 42223 86524,86628,86550
 2.5000e+000 86680  1.7539e+000  7.8175e-001  7.4642e-001 42223 86524,86654,86628
 2.5000e+000 87078  5.2253e-001 -4.6141e-001  2.6790e-001 41883 87173,87101,86905
 2.5000e+000 87055  4.5493e-001  8.9510e-001  9.4537e-002 41883 87101,86879,86853
 2.5000e+000 87032  3.4900e-002  8.1380e-002 -2.3990e-002 41883 86853,86983,86931
 2.5000e+000 87009  8.8607e-002  2.5841e-001 -5.5713e-002 41883 86931,86983,86957
 2.5000e+000 87127  9.2039e-001  2.3193e-001 -1.0233e-001 41883 86931,86905,87101
 2.5000e+000 87150 -1.0480e-003 -1.6013e-001 -8.6238e-003 41883 86931,87101,86853
 2.5000e+000 87199  1.2113e-001  3.5300e-002  4.0572e-001 41883 86879,87101,87173
 2.5000e+000 87558 -1.2772e-001  9.6056e-001 -3.2069e-001 41471 87382,87460,87408
 2.5000e+000 87535 -1.4108e+000  9.3890e-001 -2.2283e-001 41471 87382,87486,87460
 2.5000e+000 87512  3.8039e-001  1.3505e-001 -5.9901e-002 41471 87408,87460,87434
 2.5000e+000 87806  1.2698e-001 -9.8160e-003 -4.7550e-001 41017 87829,87607,87581
 2.5000e+000 87783  1.3682e-001 -3.0461e-001 -7.1202e-002 41017 87829,87581,87685
 2.5000e+000 87760  4.4647e-001 -1.0748e-001 -1.7873e-001 41017 87581,87711,87685
 2.5000e+000 87737  2.7047e-001 -9.3756e-001 -3.9066e-002 41017 87633,87685,87659
 2.5000e+000 87855 -1.3344e-001 -1.9937e-001 -2.8161e-001 41017 87633,87607,87829
 2.5000e+000 87878 -2.1201e-001 -5.3904e-001  1.3298e-001 41017 87633,87829,87685
 2.5000e+000 88258  6.0816e-002  5.6749e-002 -1.2903e-002 40613 88281,88036,88010
 2.5000e+000 88235  2.0803e-002  7.5440e-002  2.9734e-003 40613 88281,88010,88088
 2.5000e+000 88212  3.4800e-003  1.3542e-001 -4.4143e-002 40613 87984,88088,88010
 2.5000e+000 88189 -2.6324e-002  6.3893e-002 -3.7200e-002 40613 87984,88114,88088
 2.5000e+000 88166  3.6895e-002  3.1819e-002 -3.1488e-002 40613 87984,88140,88114
 2.5000e+000 88307  2.8513e-002  4.6261e-002 -1.4089e-002 40613 88062,88036,88281
 2.5000e+000 88330 -2.2308e-002  5.8066e-002  4.1337e-003 40613 88062,88281,88088
 2.5000e+000 88649 -6.3123e-002  6.1186e-002  1.1768e-002 40095 88375,88505,88401
 2.5000e+000 88626 -4.5240e-002  2.5168e-002  3.0601e-002 40095 88375,88531,88505
 2.5000e+000 88603 -9.7667e-002  4.2207e-002  4.0012e-003 40095 88401,88505,88479
 2.5000e+000 88580 -1.2771e-001  3.7513e-001  1.8090e-001 40095 88427,88479,88453
 2.5000e+000 88557 -3.9770e-002  5.7743e-002 -1.5446e-002 40095 88401,88479,88427
 2.5000e+000 89078  7.7741e-001 -1.6102e+000 -1.0512e+000 39897 89101,88833,88807
 2.5000e+000 89055 -4.2315e-002 -1.8289e+000 -1.0962e+000 39897 89101,88807,88911
 2.5000e+000 89032 -9.2067e-001 -1.5457e+000 -1.7169e+000 39897 88781,88911,88807
 2.5000e+000 89009 -1.7721e+000 -2.1395e+000 -2.0925e+000 39897 88781,88937,88911
 2.5000e+000 88986  3.2092e+000  2.6205e-001 -6.4640e-001 39897 88833,88885,88859
 2.5000e+000 88963 -2.4585e+000 -1.9795e+000 -2.4993e+000 39897 88755,88937,88781
 2.5000e+000 89127  1.4940e+000 -1.9781e+000 -1.7426e+000 39897 88885,88833,89101
 2.5000e+000 89150  2.7518e-001 -2.4082e+000 -1.9096e+000 39897 88885,89101,88911
 2.5000e+000 89300 -1.8315e+000 -1.8279e+000  6.8058e-001 39607 89453,89323,89199
 2.5000e+000 89277 -2.6609e+000 -1.1698e+000  5.4192e-001 39607 89525,89453,89199
 2.5000e+000 89349 -1.5297e+000 -1.7835e+000 -7.7123e-002 39607 89225,89199,89323
 2.5000e+000 89479 -1.5407e+000 -8.0767e-001  5.1621e-001 39607 89251,89323,89453
 2.5000e+000 89502 -1.4286e+000 -8.8390e-002  1.2949e+000 39607 89251,89453,89173
 2.5000e+000 89551 -1.1681e+000 -8.2656e-001  7.5456e-001 39607 89173,89453,89525
 2.5000e+000 90264 -1.2302e+000 -1.9444e+000 -3.3805e-001 39039 89996,90074,90048
 2.5000e+000 90241 -8.5511e-001 -1.0404e+000 -2.2943e-001 39039 89918,90074,89996
 2.5000e+000 90218 -1.2915e+000 -1.2834e+000 -4.1958e-003 39039 89918,89996,89944
 2.5000e+000 90195 -1.5200e+000 -1.1110e+000  7.5590e-002 39039 89892,90074,89918
 2.5000e+000 90172 -3.0386e-001 -1.9647e+000 -4.4370e-001 39039 89996,90048,90022
 2.5000e+000 90149 -2.1828e+000  8.3942e-001 -6.1183e-002 39039 89892,90100,90074
 2.5000e+000 90126 -1.5568e+000 -1.3859e+000 -2.1559e-001 39039 89944,89996,89970
 2.5000e+000 90770 -3.3448e-001 -4.9131e-001 -4.0222e-002 38635 90473,90603,90577
 2.5000e+000 90747 -1.3097e-001 -4.3074e-001  7.5614e-003 38635 90447,90603,90473
 2.5000e+000 90724 -2.6904e-001 -6.4851e-001 -9.6593e-002 38635 90499,90577,90551
 2.5000e+000 90701 -2.9796e-001 -6.9650e-001 -3.5299e-002 38635 90473,90577,90499
 2.5000e+000 90678 -2.3782e-001 -9.0484e-001 -7.9159e-002 38635 90499,90551,90525
 2.5000e+000 90655 -3.2512e-001 -3.2047e-001  7.2082e-002 38635 90447,90629,90603
 2.5000e+000 90871 -2.6706e-002 -2.9703e-001 -1.5959e-001 38231 90793,90845,90819
 2.5000e+000 91458  1.7207e-001 -2.4842e-001 -9.8999e-002 37534 91161,91317,91291
 2.5000e+000 91435  8.1292e-002  2.4578e-002  8.4025e-002 37534 91135,91317,91161
 2.5000e+000 91412 -3.4189e-001 -1.1010e+000 -4.8390e-001 37534 91187,91291,91239
 2.5000e+000 91389  4.8949e-003 -1.0840e+000  5.4469e-002 37534 91161,91291,91187
 2.5000e+000 91366 -3.6950e-002 -7.6660e-001 -3.5003e-001 37534 91239,91291,91265
 2.5000e+000 91343  6.4549e-001 -1.1792e+000 -9.0753e-001 37534 91187,91239,91213
 2.5000e+000 91915 -6.7637e-001 -7.9252e-001  3.3999e-002 37080 91938,91745,91667
 2.5000e+000 91892 -6.0118e-001 -6.6454e-001  1.7870e-001 37080 91938,91667,91797
 2.5000e+000 91869 -8.3269e-001  1.7478e-001 -1.3400e-001 37080 91641,91797,91667
 2.5000e+000 91846 -7.8728e-001 -9.4752e-001  5.1692e-002 37080 91667,91719,91693
 2.5000e+000 91823 -7.1281e-001 -7.8154e-001  3.0171e-002 37080 91667,91745,91719
 2.5000e+000 91964 -5.8926e-001 -5.4385e-001  7.6561e-002 37080 91771,91745,91938
 2.5000e+000 91987 -5.9581e-001 -5.7867e-001  2.2263e-001 37080 91771,91938,91797
 2.5000e+000 92235 -3.5343e-001 -5.5703e-001 -3.5142e-002 36397 92036,92088,92062
 2.5000e+000 92212 -2.3623e-001 -3.9091e-001 -8.6662e-002 36397 92036,92114,92088
 2.5000e+000 92189 -8.7992e-002 -2.6670e-001  1.1960e-002 36397 92036,92140,92114
 2.5000e+000 92166 -1.5399e-001 -1.7968e-001  2.5177e-002 36397 92010,92140,92036
 2.5000e+000 92694 -1.5939e-001 -6.0835e-003  3.0192e-002 36057 92446,92498,92472
 2.5000e+000 92671 -9.7394e-002  1.4506e-001  3.3112e-002 36057 92446,92550,92498
 2.5000e+000 92648  1.3622e-001  4.0398e-002 -2.8496e-002 36057 92446,92576,92550
 2.5000e+000 92625 -1.6768e-001 -1.0774e-001  1.8160e-002 36057 92420,92576,92446
 2.5000e+000 92602 -5.4111e-002 -5.1607e-002 -2.0592e-001 36057 92498,92550,92524
 2.5000e+000 93023 -3.7540e-001 -5.2005e-001 -1.0349e-001 35717 92876,92928,92902
 2.5000e+000 93000 -3.4652e-001 -5.2713e-001 -1.0578e-001 35717 92824,92928,92876
 2.5000e+000 92977 -8.0296e-002 -4.7306e-001 -7.0813e-002 35717 92798,92928,92824
 2.5000e+000 92954 -3.2378e-001 -6.9012e-001 -4.1568e-001 35717 92824,92876,92850
 2.5000e+000 93499 -9.3687e-002 -8.1303e-001  3.4106e-001 35405 93522,93309,93257
 2.5000e+000 93476  1.9412e-001 -5.6014e-001  2.1775e-001 35405 93666,93522,93257
 2.5000e+000 93453  2.9311e-002 -2.2839e+000  2.0721e-001 35405 93594,93127,93335
 2.5000e+000 93430 -1.9796e-001 -5.2472e-001  5.0012e-002 35405 93666,93257,93231
 2.5000e+000 93407 -1.1051e+000 -2.9641e+000 -9.8086e-001 35405 93127,93179,93153
 2.5000e+000 93384 -1.3319e+000 -5.2505e-002  3.2268e-001 35405 93179,93231,93205
 2.5000e+000 93361  3.9415e-001  7.2754e-001  2.5501e-001 35405 93257,93309,93283
 2.5000e+000 93548  8.2605e-001 -2.1679e-001  9.0463e-001 35405 93335,93309,93522
 2.5000e+000 93571  3.1447e-001 -1.1987e+000  4.3480e-001 35405 93594,93335,93522
 2.5000e+000 93620 -2.0739e-002 -1.1028e+000  9.7831e-002 35405 93179,93127,93594
 2.5000e+000 93643 -2.5517e-001 -6.7897e-001  1.1777e-001 35405 93738,93594,93522
 2.5000e+000 93692 -2.0925e-001 -7.0189e-001  5.9126e-002 35405 93738,93522,93666
 2.5000e+000 93715 -4.6010e-001 -7.1681e-001 -1.4092e-001 35405 93179,93666,93231
 2.5000e+000 93764 -2.9275e-001 -7.6148e-001  1.3410e-001 35405 93179,93594,93738
 2.5000e+000 93787 -2.6540e-001 -7.9157e-001  8.3390e-002 35405 93179,93738,93666
 2.5000e+000 94372  4.9324e-001  5.6473e-002 -2.0264e-001 34951 94395,94127,94075
 2.5000e+000 94349  1.0220e+000  3.9031e-002 -6.3847e-002 34951 94395,94075,94231
 2.5000e+000 94326  1.1490e-001 -3.6370e-001 -1.4373e-001 34951 94049,94231,94075
 2.5000e+000 94303 -1.4246e-001 -2.9978e-001  2.0044e-001 34951 94075,94127,94101
 2.5000e+000 94280  1.0375e+000  8.0139e-002  2.7087e-001 34951 94127,94205,94153
 2.5000e+000 94257  1.3291e+000  9.5882e-002  6.4736e-001 34951 94153,94205,94179
 2.5000e+000 94421  9.2957e-001 -1.7149e-001  1.3829e-001 34951 94205,94127,94395
 2.5000e+000 94444  1.9312e+000  9.7768e-002  2.3472e-001 34951 94205,94395,94231
 2.5000e+000 94692  6.1601e-005  4.2198e-002  1.6033e-002 34397 94715,94519,94467
 2.5000e+000 94669 -4.7290e-003 -6.3374e-004  1.2590e-002 34397 94715,94467,94597
 2.5000e+000 94646 -1.1508e-002  1.4081e-002  4.7015e-002 34397 94545,94597,94571
 2.5000e+000 94623  2.2626e-003  5.7411e-002 -6.7727e-003 34397 94467,94519,94493
 2.5000e+000 94741  1.8347e-002  1.8443e-001  3.3236e-002 34397 94545,94519,94715
 2.5000e+000 94764 -3.9466e-002  4.8050e-002  3.0583e-002 34397 94545,94715,94597
 2.5000e+000 94985 -3.5611e-002  1.8230e-001 -2.2084e-002 33985 94835,94913,94887
 2.5000e+000 94962  2.7270e-001  9.5082e-001 -7.6214e-002 33985 94809,94913,94835
 2.5000e+000 94939  2.7098e-002  1.6243e-001 -2.0027e-002 33985 94835,94887,94861
 2.5000e+000 95186 -2.9730e-001 -6.0860e-001 -2.9188e-001 33645 95281,95209,95036
 2.5000e+000 95163  4.5802e-002 -7.3451e-001  5.2056e-002 33645 95209,95010,95088
 2.5000e+000 95140  2.5675e-001 -2.9967e-001 -6.3191e-002 33645 95010,95114,95088
 2.5000e+000 95235 -6.0479e-001 -7.2840e-001 -2.9016e-001 33645 95062,95036,95209
 2.5000e+000 95258 -4.5876e-001 -9.3479e-001  2.3914e-001 33645 95413,95209,95088
 2.5000e+000 95307 -1.1529e-001 -3.3063e-001 -3.9296e-001 33645 95010,95209,95281
 2.5000e+000 95439 -2.8927e-001 -7.1614e-001  1.5718e-001 33645 95062,95209,95413
 2.5000e+000 95766 -3.6244e-001  3.8916e-002 -5.1071e-001 33141 95789,95593,95567
 2.5000e+000 95743 -4.8267e-002 -1.8504e-001 -1.9085e-001 33141 95861,95789,95567
 2.5000e+000 95720 -7.5497e-002 -1.0703e-001 -4.8901e-002 33141 95861,95567,95671
 2.5000e+000 95697 -1.0814e-001 -1.1404e-001 -5.4026e-002 33141 95541,95671,95567
 2.5000e+000 95815 -9.1465e-002  6.2519e-001 -4.2818e-001 33141 95619,95593,95789
 2.5000e+000 95838  2.9496e-002  1.1855e-001 -1.8358e-001 33141 95619,95789,95645
 2.5000e+000 95887  5.5138e-002  6.4973e-002 -1.9088e-001 33141 95645,95789,95861
 2.5000e+000 95910  3.7292e-002  1.4683e-001 -2.8818e-002 33141 95645,95861,95671
 2.5000e+000 96060 -3.9983e-001 -4.0530e-001 -3.1608e-001 32487 95959,96011,95985
 2.5000e+000 96037  1.2970e-002 -3.1092e-001 -6.4111e-002 32487 95933,96011,95959
 2.5000e+000 96570 -3.4890e-001 -2.9452e-001  1.2527e-001 32033 96665,96593,96377
 2.5000e+000 96547 -5.0315e-001 -5.7642e-002 -2.9036e-001 32033 96737,96593,96325
 2.5000e+000 96524 -3.8237e-001 -4.1746e-001  3.4560e-002 32033 96665,96377,96351
 2.5000e+000 96501 -5.6951e-001 -6.7999e-003 -2.1152e-001 32033 96737,96325,96299
 2.5000e+000 96478 -5.2902e-001  2.0689e-001 -1.9999e-001 32033 96247,96429,96299
 2.5000e+000 96455 -9.5646e-001 -9.6565e-001 -1.7346e-001 32033 96247,96299,96273
 2.5000e+000 96619 -5.8781e-002 -5.9500e-002  1.1138e-001 32033 96809,96593,96403
 2.5000e+000 96642  1.8806e-001  5.9941e-001 -6.1422e-001 32033 96403,96593,96429
 2.5000e+000 96691 -1.6069e-001 -5.8635e-001 -7.6817e-003 32033 96325,96593,96665
 2.5000e+000 96714 -3.2081e-001 -8.0973e-001 -1.2835e-001 32033 96325,96665,96351
 2.5000e+000 96763 -6.1912e-001 -1.1629e-001 -3.1055e-001 32033 96429,96593,96737
 2.5000e+000 96786 -6.4226e-001 -4.7664e-002 -2.3010e-001 32033 96429,96737,96299
 2.5000e+000 96835 -7.1913e-002 -1.5294e-001  6.5262e-002 32033 96377,96593,96809
 2.5000e+000 97064  3.2311e-003  1.7346e-002  3.9188e-003 31671 97087,96989,96963
 2.5000e+000 97041 -1.3463e-003  2.0068e-002 -8.9937e-003 31671 97087,96963,96937
 2.5000e+000 97113  2.2599e-002  3.5708e-002 -1.0138e-002 31671 97159,97087,97015
 2.5000e+000 97136  9.5264e-003  4.2849e-002 -4.1747e-003 31671 97015,97087,96937
 2.5000e+000 97185 -1.4106e-002 -3.6397e-002  1.0070e-002 31671 96989,97087,97159
 2.5000e+000 97563 -7.0394e-003  6.5747e-002 -6.9489e-003 31117 97586,97367,97341
 2.5000e+000 97540  2.7457e-002  5.6407e-002 -2.2583e-002 31117 97658,97586,97341
 2.5000e+000 97517  5.5417e-002  6.3045e-002 -1.0904e-002 31117 97658,97341,97315
 2.5000e+000 97494 -6.9543e-002  1.1287e-001  2.9698e-002 31117 97289,97445,97315
 2.5000e+000 97471 -3.7595e-002 -6.7780e-004 -7.5389e-003 31117 97367,97419,97393
 2.5000e+000 97612 -2.2883e-002  9.4434e-003  4.6363e-003 31117 97419,97367,97586
 2.5000e+000 97635 -4.5566e-002  4.4868e-002 -5.1775e-002 31117 97419,97586,97445
 2.5000e+000 97684 -3.0067e-002  7.8351e-002 -3.0232e-002 31117 97445,97586,97658
 2.5000e+000 97707  3.1157e-003  9.0257e-002 -1.7084e-002 31117 97445,97658,97315
 2.5000e+000 98215 -2.1271e-001 -9.9850e-002 -2.7372e-001 30563 98238,97996,97944
 2.5000e+000 98192 -3.9725e-001 -6.3118e-002 -2.7680e-001 30563 98310,98238,97944
 2.5000e+000 98169 -5.7775e-001 -3.7722e-001 -3.5404e-001 30563 98310,97944,97918
 2.5000e+000 98146 -1.4158e-001 -8.3957e-002 -1.0308e-002 30563 97892,98074,97918
 2.5000e+000 98123 -5.8928e-002  1.2106e-001 -1.4643e-001 30563 97996,98048,98022
 2.5000e+000 98100 -4.1799e-001 -6.3598e-002 -4.4712e-001 30563 97944,97996,97970
 2.5000e+000 98264 -2.3376e-001 -3.1376e-002 -2.5618e-001 30563 98048,97996,98238
 2.5000e+000 98287 -1.3199e-001  3.0868e-001  2.4560e-002 30563 98048,98238,98074
 2.5000e+000 98336 -3.0463e-001 -1.8826e-001 -4.6986e-002 30563 98074,98238,98310
 2.5000e+000 98359 -3.8320e-001 -2.6426e-001 -9.0509e-002 30563 98074,98310,97918
 2.5000e+000 98607 -5.8732e-001  1.9244e-002 -2.9084e-003 30073 98630,98460,98408
 2.5000e+000 98584 -9.2223e-001  8.8802e-004 -5.4237e-002 30073 98630,98408,98382
 2.5000e+000 98561 -1.9011e-001  1.7960e-001 -1.5988e-001 30073 98382,98512,98486
 2.5000e+000 98538 -4.2910e-001 -6.9137e-002  1.4667e-001 30073 98408,98460,98434
 2.5000e+000 98656 -4.1697e-001 -8.3872e-002 -6.8969e-002 30073 98486,98460,98630
 2.5000e+000 98679 -6.4187e-001 -1.5032e-002 -1.1703e-001 30073 98486,98630,98382
 2.5000e+000 99157  2.3805e-001 -9.0595e-002  1.5308e-001 29669 99180,98837,98811
 2.5000e+000 99134  1.5642e-001 -2.1932e-003  2.8530e-001 29669 99324,99180,98811
 2.5000e+000 99111  1.5417e-001  2.6580e-001 -1.2970e-001 29669 99252,98863,98837
 2.5000e+000 99088  7.2710e-002 -1.9187e-001  3.4834e-001 29669 99324,98811,98993
 2.5000e+000 99065 -8.2882e-001  2.8035e-001  3.3744e-002 29669 98863,98941,98915
 2.5000e+000 99042 -8.8567e-001  2.9774e-001  1.1541e-002 29669 98863,98915,98889
 2.5000e+000 99019 -1.0634e-001 -2.1843e-001  6.1663e-001 29669 98785,98993,98811
 2.5000e+000 99206  9.8406e-002 -1.4206e-001  1.0773e-002 29669 99252,98837,99180
 2.5000e+000 99229 -2.4370e-001  1.1839e-001  2.4791e-001 29669 98941,99180,98967
 2.5000e+000 99278 -3.0154e-002  5.6901e-001 -7.3604e-002 29669 98941,98863,99252
 2.5000e+000 99301  8.7394e-002  3.8776e-001  8.3311e-002 29669 98941,99252,99180
 2.5000e+000 99350  4.0364e-002  2.3546e-001  2.4247e-001 29669 98967,99180,99324
 2.5000e+000 99373  2.3553e-002  9.8160e-002  2.7338e-001 29669 98967,99324,98993
 2.5000e+000 99958  3.0272e-001  2.0527e-001  4.5589e-002 29051 99981,99765,99739
 2.5000e+000 99935  6.1066e-002  4.3467e-002 -6.9165e-002 29051 99981,99739,99661
 2.5000e+000 99912  3.7246e-001 -3.1282e-001 -1.5617e-001 29051 99765,99817,99791
 2.5000e+000 99889 -3.5831e-001 -1.7155e-001  2.0026e-001 29051 99635,99817,99661
 2.5000e+000 99866 -4.2908e-001 -1.2404e-003  2.8558e-001 29051 99661,99739,99687
 2.5000e+000 99843 -5.1055e-001  1.3280e-001  1.4633e-001 29051 99687,99739,99713
 2.5000e+000 100007  4.7001e-001  1.0916e-002  4.4217e-002 29051 99817,99765,99981
 2.5000e+000 100030  3.1003e-001 -3.2561e-002 -1.9770e-002 29051 99817,99981,99661
 2.5000e+000 100278  5.5882e-001  2.2336e-001  1.4167e-001 28525 100445,100301,100131
 2.5000e+000 100255  3.2748e-002  3.2684e-001  4.7529e-002 28525 100373,100301,100079
 2.5000e+000 100232 -3.0228e-004  6.0850e-003  8.4005e-002 28525 100373,100079,100053
 2.5000e+000 100209  3.5476e-001  4.0696e-001 -3.9057e-002 28525 100445,100131,100105
 2.5000e+000 100327  1.2851e+000  8.8684e-002  9.8058e-002 28525 100517,100301,100157
 2.5000e+000 100350  2.9573e-001  3.1383e-001 -1.9564e-001 28525 100157,100301,100183
 2.5000e+000 100399  3.3618e-002 -9.6817e-003  2.1364e-001 28525 100183,100301,100373
 2.5000e+000 100422  7.2448e-002 -2.3687e-001  2.4832e-001 28525 100183,100373,100053
 2.5000e+000 100471  2.8664e-001  9.2984e-002 -1.4347e-001 28525 100079,100301,100445
 2.5000e+000 100494 -2.5713e-001  1.2217e-002 -3.5152e-001 28525 100079,100445,100105
 2.5000e+000 100543  1.0758e+000  1.2512e-001 -6.0278e-002 28525 100131,100301,100517
 2.5000e+000 101209 -1.5905e+000  9.3142e-002  1.5192e-002 28185 100938,101016,100990
 2.5000e+000 101186 -1.6643e+000 -1.1567e-001 -1.0908e-001 28185 100912,101016,100938
 2.5000e+000 101163 -6.0500e-001  2.3254e-001 -7.0689e-003 28185 100912,101068,101016
 2.5000e+000 101140 -1.9529e+000 -3.6356e-001 -3.2866e-001 28185 100886,101068,100912
 2.5000e+000 101117 -6.5833e-001  1.4721e-001  1.6114e-002 28185 101016,101068,101042
 2.5000e+000 101094 -3.8784e+000 -6.3143e-001  2.3862e-002 28185 100938,100990,100964
 2.5000e+000 101408  4.6724e-002 -1.3523e-001 -2.4191e-001 27781 101503,101431,101310
 2.5000e+000 101385 -3.4080e-001  2.5792e-001 -5.4034e-001 27781 101431,101258,101232
 2.5000e+000 101362  1.8048e-001 -2.0258e-001 -3.1040e-001 27781 101503,101310,101284
 2.5000e+000 101457  7.3422e-001  2.2854e-001 -3.7642e-001 27781 101336,101310,101431
 2.5000e+000 101480  1.3625e-001  5.1659e-001 -7.0381e-001 27781 101575,101431,101232
 2.5000e+000 101529  2.7357e-001 -5.7929e-002 -4.7735e-001 27781 101258,101431,101503
 2.5000e+000 101552  1.0909e-001 -4.1338e-001 -2.9244e-001 27781 101705,101503,101284
 2.5000e+000 101601  2.6153e-001  7.0124e-001 -7.6483e-001 27781 101336,101431,101575
 2.5000e+000 101731 -1.8981e-001 -2.5312e-001 -4.7145e-001 27781 101258,101503,101705
 2.5000e+000 102237 -6.1186e-001 -3.2645e-001  2.6558e-002 27419 102476,102260,101992
 2.5000e+000 102214 -4.2314e-001 -4.4760e-001 -4.3162e-002 27419 102260,101940,101914
 2.5000e+000 102191 -6.5322e-001 -4.9422e-001  8.1084e-002 27419 102404,102332,102096
 2.5000e+000 102168 -5.8269e-001 -4.5304e-001  2.0491e-002 27419 102404,102096,102044
 2.5000e+000 102145 -5.7825e-001 -3.5302e-001  4.6840e-002 27419 102476,101992,101966
 2.5000e+000 102122 -4.3183e-001 -4.4101e-001 -4.0134e-003 27419 102044,102096,102070
 2.5000e+000 102286 -7.7323e-001 -4.7974e-001  9.9785e-002 27419 102018,101992,102260
 2.5000e+000 102309 -6.2568e-001 -4.0318e-001 -5.1965e-003 27419 102332,102018,102260
 2.5000e+000 102358 -6.7682e-001 -7.8369e-001  1.9318e-001 27419 101914,102096,102332
 2.5000e+000 102381 -5.7461e-001 -5.7160e-001  2.7626e-002 27419 101914,102332,102260
 2.5000e+000 102430 -5.2039e-001 -4.9194e-001 -1.7459e-002 27419 102018,102332,102404
 2.5000e+000 102453 -4.5850e-001 -4.2302e-001 -8.4790e-002 27419 102018,102404,102044
 2.5000e+000 102502 -5.1808e-001 -4.0981e-001  4.9251e-002 27419 101940,102260,102476
 2.5000e+000 102525 -1.1201e-001 -2.1751e-001 -4.6688e-003 27419 101940,102476,101966
 2.5000e+000 103031 -5.0636e-001  4.6736e-001  3.7110e-001 26715 102708,102786,102760
 2.5000e+000 103008  2.6781e-002 -1.5698e-001  2.4012e-002 26715 102708,102890,102786
 2.5000e+000 102985  6.7419e-001 -2.7443e-001 -1.1725e-002 26715 102838,102890,102864
 2.5000e+000 102962  2.1681e-001  2.9527e-001  5.2934e-002 26715 102786,102890,102838
 2.5000e+000 102939  1.0026e+000  6.8776e-001  5.0885e-001 26715 102786,102838,102812
 2.5000e+000 102916 -8.2018e-001 -2.6504e-002  1.4831e-001 26715 102708,102760,102734
 2.5000e+000 103279  8.5921e-003  4.3036e-002 -6.4165e-002 26303 103302,103158,103080
 2.5000e+000 103256  9.3253e-002 -2.8318e-002 -6.7484e-002 26303 103302,103080,103054
 2.5000e+000 103233  1.7789e-001  1.2694e-001 -2.9240e-002 26303 103080,103158,103106
 2.5000e+000 103210 -2.4443e-001  3.2146e-002 -2.3168e-002 26303 103106,103158,103132
 2.5000e+000 103328 -1.3389e-001 -2.4605e-002 -3.4065e-002 26303 103184,103158,103302
 2.5000e+000 103351  2.8265e-002 -3.6184e-002 -5.2503e-002 26303 103184,103302,103054
 2.5000e+000 103501 -6.2778e-001 -4.4619e-001  2.3185e-002 25849 103374,103426,103400
 2.5000e+000 103478 -5.8595e-001 -3.9518e-001  4.8319e-003 25849 103374,103452,103426
 2.5000e+000 104090 -7.7107e-002  7.8478e-002  7.8947e-002 25445 103793,103871,103819
 2.5000e+000 104067  1.2578e-001 -7.5170e-004 -6.8042e-003 25445 103793,103949,103871
 2.5000e+000 104044  2.2684e-001  1.5320e-001  5.8726e-002 25445 103871,103949,103923
 2.5000e+000 104021 -2.1630e-001  1.1937e-001 -9.4391e-002 25445 103819,103871,103845
 2.5000e+000 103998  1.7894e-001  1.2486e-001  1.9040e-001 25445 103767,103949,103793
 2.5000e+000 103975  2.8852e-001  1.0462e-001  5.0883e-002 25445 103871,103923,103897
 2.5000e+000 104419 -3.3260e-001 -2.3126e-001 -1.0033e-001 25083 104220,104298,104272
 2.5000e+000 104396 -5.4275e-001 -4.6641e-001 -1.0967e-002 25083 104220,104324,104298
 2.5000e+000 104373 -3.0824e-001 -2.6399e-001 -7.0973e-002 25083 104220,104272,104246
 2.5000e+000 104350 -5.2251e-001 -4.2227e-001  4.4656e-003 25083 104194,104324,104220
 2.5000e+000 105102 -7.5057e-003 -2.5359e-001 -7.4512e-002 24793 104785,104863,104837
 2.5000e+000 105079 -8.2843e-002 -5.9243e-001 -2.6752e-001 24793 104759,104863,104785
 2.5000e+000 105056 -1.1829e-001 -1.4943e-001 -2.6355e-001 24793 104759,104915,104863
 2.5000e+000 105033 -1.9330e-001 -2.5278e-001 -2.2718e-001 24793 104733,104915,104759
 2.5000e+000 105010  1.2699e-001 -5.1589e-002 -2.3302e-001 24793 104863,104915,104889
 2.5000e+000 104987 -3.4027e-001 -7.3832e-002 -3.4413e-001 24793 104681,104915,104733
 2.5000e+000 104964 -1.1136e-001 -3.5491e-001 -1.2766e-001 24793 104785,104837,104811
 2.5000e+000 104941 -2.8285e-001  1.9410e-001 -3.2431e-001 24793 104681,104733,104707
 2.5000e+000 105252  6.8598e-001  6.8041e-001 -2.1917e-002 24389 105477,105275,105177
 2.5000e+000 105229  5.2239e-001  7.7161e-001  2.8326e-002 24389 105347,105275,105151
 2.5000e+000 105301  7.7381e-001  6.3954e-001 -6.5972e-002 24389 105203,105177,105275
 2.5000e+000 105324  8.3363e-001  9.8778e-001  1.0972e-001 24389 105203,105275,105125
 2.5000e+000 105373  6.2085e-001  5.2194e-001  5.7049e-002 24389 105125,105275,105347
 2.5000e+000 105503  7.0906e-001  7.6696e-001 -3.4731e-002 24389 105151,105275,105477
 2.5000e+000 106088 -6.4924e-001  3.9004e-001  5.5520e-001 23735 105791,105921,105895
 2.5000e+000 106065 -1.9955e+000 -8.3465e-002  6.6010e-001 23735 105765,105921,105791
 2.5000e+000 106042 -3.9601e-001  6.0131e-001  3.4230e-001 23735 105765,105947,105921
 2.5000e+000 106019 -2.2243e+000 -1.2284e-001  7.6122e-001 23735 105817,105895,105869
 2.5000e+000 105996 -1.4532e+000  1.0920e-001  7.0308e-001 23735 105791,105895,105817
 2.5000e+000 105973 -1.3481e+000  1.1176e-002  6.3077e-001 23735 105817,105869,105843
 2.5000e+000 106417  4.9633e-001  1.6115e+000 -3.4526e-001 23295 106218,106296,106270
 2.5000e+000 106394  1.9179e-001  4.7165e-001 -2.8534e-001 23295 106218,106322,106296
 2.5000e+000 106371 -9.5640e-002  2.4632e-001 -4.0647e-001 23295 106218,106270,106244
 2.5000e+000 106348  3.8614e-001  5.5453e-001 -9.4565e-002 23295 106192,106322,106218
 2.5000e+000 106746 -1.8216e-001  4.8071e-001  1.7478e-001 23005 106521,106599,106547
 2.5000e+000 106723  3.8155e-001  7.7571e-001 -1.7041e-004 23005 106521,106651,106599
 2.5000e+000 106700  2.2306e-001  3.9495e-001 -8.1513e-002 23005 106547,106599,106573
 2.5000e+000 106677  5.4090e-001  7.4125e-001  3.9390e-001 23005 106599,106651,106625
 2.5000e+000 107331 -1.3542e-001  8.3259e-002 -1.1787e-001 22601 107060,107190,107138
 2.5000e+000 107308 -5.1817e-001 -1.3448e-002 -2.6851e-001 22601 107034,107190,107060
 2.5000e+000 107285 -6.8684e-001 -1.8843e-001 -2.7429e-001 22601 107060,107138,107112
 2.5000e+000 107262 -7.6933e-001 -1.1060e-001 -2.6440e-001 22601 107008,107190,107034
 2.5000e+000 107239 -6.5318e-002  4.8702e-001 -5.4801e-001 22601 107060,107112,107086
 2.5000e+000 107216 -2.1776e-001  1.7314e-001 -6.1077e-002 22601 107138,107190,107164
 2.5000e+000 107807 -4.7334e-001 -3.3660e-002 -7.9020e-002 22031 107974,107902,107617
 2.5000e+000 107784 -5.5667e-001  2.2506e-001 -2.0882e-001 22031 107830,107565,107513
 2.5000e+000 107761 -4.0629e-001 -7.9511e-002 -2.5393e-001 22031 108046,107830,107513
 2.5000e+000 107738 -3.7425e-001  1.3901e-001  1.3379e-002 22031 107974,107617,107591
 2.5000e+000 107715 -4.4918e-001 -1.8935e-001 -2.4867e-001 22031 108046,107513,107461
 2.5000e+000 107692 -1.2985e+000  3.6050e-001 -3.4743e-001 22031 107513,107565,107539
 2.5000e+000 107669 -2.4707e-001  1.7735e-001 -3.2811e-001 22031 107461,107513,107487
 2.5000e+000 107856 -6.7092e-001  6.2133e-002 -1.4729e-001 22031 107902,107565,107830
 2.5000e+000 107879 -4.2974e-001 -2.1521e-001 -3.5256e-002 22031 107643,107830,107435
 2.5000e+000 107928 -8.3423e-001  2.0667e-001 -3.3326e-001 22031 107643,107617,107902
 2.5000e+000 107951 -6.1057e-001  6.0686e-002  3.9144e-003 22031 107643,107902,107830
 2.5000e+000 108000 -5.8829e-001  2.1148e-001 -1.0021e-001 22031 107565,107902,107974
 2.5000e+000 108023 -5.7054e-001  1.5819e-001 -7.8537e-002 22031 107565,107974,107591
 2.5000e+000 108072 -3.3053e-001 -2.1508e-001 -9.4249e-002 22031 107435,107830,108046
 2.5000e+000 108095 -4.0460e-001 -3.8984e-001 -9.0824e-002 22031 107435,108046,107461
 2.5000e+000 108196  6.0458e-002  3.8595e-002 -1.4443e-001 21783 108118,108170,108144
 2.5000e+000 108655  1.2090e-001  6.8959e-001  4.0790e-001 21379 108407,108485,108459
 2.5000e+000 108632  1.3879e+000 -6.2912e-002  5.8252e-001 21379 108407,108511,108485
 2.5000e+000 108609  1.4153e+000 -2.9677e-001  2.9996e-001 21379 108381,108511,108407
 2.5000e+000 108586  6.6755e-001  3.4050e-001 -5.5745e-001 21379 108381,108537,108511
 2.5000e+000 108563  3.6561e-001  8.9746e-002  1.8638e-001 21379 108407,108459,108433
 2.5000e+000 109082 -7.5947e-002  4.2638e-001  1.1845e-001 20974 109105,108863,108811
 2.5000e+000 109059  2.3360e-001  5.9823e-001 -1.2572e-001 20974 109105,108811,108759
 2.5000e+000 109036 -7.9571e-002  7.4944e-001  4.9610e-003 20974 109177,108889,108863
 2.5000e+000 109013  5.0898e-001  8.0087e-001 -9.8564e-002 20974 108811,108863,108837
 2.5000e+000 108990 -2.3446e-001  4.1056e-002 -4.9430e-002 20974 108759,108941,108915
 2.5000e+000 108967  1.3670e-001 -1.5027e-001  1.8873e-002 20974 108759,108811,108785
 2.5000e+000 109131  1.6616e-002  6.2268e-001  8.1000e-002 20974 109177,108863,109105
 2.5000e+000 109154 -1.5474e-002  5.7733e-002 -3.6044e-002 20974 108915,109105,108759
 2.5000e+000 109203 -1.2597e-001  6.3980e-001  1.3484e-001 20974 108915,108889,109177
 2.5000e+000 109226 -1.1507e-001  3.6125e-001  2.0325e-001 20974 108915,109177,109105
 2.5000e+000 109496 -6.8492e-001 -4.5659e-002 -6.1560e-002 20470 109271,109375,109297
 2.5000e+000 109473 -6.2135e-001  3.1923e-002 -9.8643e-002 20470 109271,109401,109375
 2.5000e+000 109450 -7.7814e-001 -1.6969e-001 -1.0591e-001 20470 109297,109375,109349
 2.5000e+000 109427 -1.0443e+000 -6.9626e-001  1.8208e-001 20470 109297,109349,109323
 2.5000e+000 109955  1.1979e-001  1.2693e+000  8.0938e-001 20123 110050,109733,109707
 2.5000e+000 109932 -6.8658e-001  5.8518e-001  4.8231e-001 20123 110050,109707,109681
 2.5000e+000 109909  8.5136e-002  2.0909e-001  4.5630e-001 20123 109978,109759,109733
 2.5000e+000 109886 -1.7313e-001  2.0420e-001  4.6020e-001 20123 110122,109978,109733
 2.5000e+000 109863  2.2631e-001  1.8443e-001  2.7517e-001 20123 109785,109837,109811
 2.5000e+000 110004  1.0709e-001  3.1670e-001  3.2603e-001 20123 109785,109759,109978
 2.5000e+000 110027 -6.6635e-003  2.5309e-001  2.9160e-001 20123 109785,109978,109837
 2.5000e+000 110076 -3.2061e-001  4.1585e-001  3.6847e-001 20123 110122,109733,110050
 2.5000e+000 110099 -3.1946e-001  3.8031e-001  1.1507e-001 20123 109837,110050,109681
 2.5000e+000 110148  1.1092e-001  5.0598e-001  3.3722e-001 20123 109837,109978,110122
 2.5000e+000 110171 -2.3531e-002  6.8857e-001  2.4244e-001 20123 109837,110122,110050
 2.5000e+000 110500  7.3758e-001  1.4749e-001 -1.7758e-001 19511 110301,110379,110353
 2.5000e+000 110477  1.3689e+000  7.3865e-001 -4.4367e-001 19511 110301,110405,110379
 2.5000e+000 110454  3.0198e-001  1.8125e-001 -1.6814e-001 19511 110275,110405,110301
 2.5000e+000 110431  6.5366e-001  2.3671e-001  2.4307e-001 19511 110301,110353,110327
 2.5000e+000 110957 -3.2752e-001  8.8756e-001 -5.2186e-001 19107 110683,110735,110709
 2.5000e+000 110934 -2.4175e-001 -3.1817e-001 -9.4117e-001 19107 110683,110813,110735
 2.5000e+000 110911  2.1765e-001  5.2574e-001 -7.6198e-001 19107 110735,110813,110761
 2.5000e+000 110888 -6.5549e-001 -6.9429e-001 -5.7832e-001 19107 110683,110839,110813
 2.5000e+000 110865  6.5658e-002  1.4773e-001 -7.8916e-001 19107 110761,110813,110787
 2.5000e+000 111335 -3.6242e-001 -4.0769e-001 -8.6192e-002 18653 111087,111165,111139
 2.5000e+000 111312 -7.3261e-002 -1.8486e-001 -1.8458e-001 18653 111087,111217,111165
 2.5000e+000 111289 -3.0262e-001 -3.2936e-001  1.3163e-001 18653 111061,111217,111087
 2.5000e+000 111266 -4.1256e-001 -4.0841e-001 -1.6210e-001 18653 111087,111139,111113
 2.5000e+000 111243 -5.9405e-002 -1.7637e-001 -1.5035e-001 18653 111165,111217,111191
 2.5000e+000 111735 -1.1220e+000 -4.7440e-001  2.0802e-002 18213 111461,111513,111487
 2.5000e+000 111712 -1.1061e+000 -7.9764e-001  2.3068e-002 18213 111461,111617,111513
 2.5000e+000 111689 -1.0414e+000 -6.7588e-001 -1.0164e-001 18213 111513,111617,111591
 2.5000e+000 111666 -4.2275e-001 -3.5093e-001  1.1721e-001 18213 111513,111591,111539
 2.5000e+000 111643 -1.0842e-001 -3.2215e-001  2.0013e-002 18213 111539,111591,111565
 2.5000e+000 111885  3.1793e-001 -3.4249e-001  2.2029e-001 17659 111784,111836,111810
 2.5000e+000 111862  7.6812e-001  1.6376e-001  4.3643e-001 17659 111758,111836,111784
 2.5000e+000 112287  1.2808e-002  2.9183e-001 -2.0523e-001 17411 112065,112169,112143
 2.5000e+000 112264 -8.9361e-001  4.3649e-002  7.6237e-002 17411 112039,112169,112065
 2.5000e+000 112241 -9.3944e-001  3.4998e-002 -2.3809e-002 17411 112013,112169,112039
 2.5000e+000 112218  2.5612e+000  5.4420e-001 -5.6087e-001 17411 112091,112143,112117
 2.5000e+000 112195 -1.9882e-002 -1.0430e-001  9.8890e-002 17411 112065,112143,112091
 2.5000e+000 112508 -6.7458e-001  2.7724e-001  6.4872e-002 17007 112384,112436,112410
 2.5000e+000 112485 -5.3898e-001  3.9970e-001  1.1782e-001 17007 112332,112436,112384
 2.5000e+000 112462 -6.6287e-001  1.6100e-001  7.3208e-002 17007 112332,112384,112358
 2.5000e+000 112658 -1.8109e+000 -4.5737e-001  3.3798e-001 16553 112557,112609,112583
 2.5000e+000 112635 -2.0911e+000 -2.1984e-001  4.0896e-001 16553 112531,112609,112557
 2.5000e+000 112761 -4.0230e-001  1.1977e+000 -2.2309e-001 16355 112683,112735,112709
 2.5000e+000 112913 -1.0126e+000  3.8663e-001  5.2971e-002 15949 112786,112838,112812
 2.5000e+000 112890 -5.5160e-001  1.1722e+000 -1.6897e-001 15949 112786,112864,112838
 2.5000e+000 113065  9.4205e-002 -2.3004e-001 -4.8115e-002 15609 112938,112990,112964
 2.5000e+000 113042  3.9872e-001 -5.8295e-002  2.4257e-002 15609 112938,113016,112990
 2.5000e+000 113420  6.0800e-001  4.7444e-001  2.2033e-001 15284 113247,113325,113299
 2.5000e+000 113397  5.6350e-001  3.6524e-001  1.1741e-001 15284 113195,113325,113247
 2.5000e+000 113374  3.1793e-001  2.9990e-001  5.5236e-002 15284 113195,113247,113221
 2.5000e+000 113351  5.4072e-001  8.0575e-001  2.3464e-001 15284 113247,113299,113273
 2.5000e+000 113521  3.2581e-001 -1.6525e-001  1.8029e-001 202 113443,113495,113469
 3.0000e+000 65564  4.9691e-002  6.1108e-002 -1.8385e-001 65155 65414,65466,65440
 3.0000e+000 65541 -1.7891e-001  2.0712e-002 -4.8605e-003 65155 65414,65492,65466
 3.0000e+000 65518 -2.6708e-002  8.3954e-002 -9.2759e-003 65155 65388,65492,65414
 3.0000e+000 65883 -3.3753e-001  1.2409e+000  6.9160e-003 64957 65635,65739,65713
 3.0000e+000 65860 -1.2026e-001  2.2158e+000  1.1653e-002 64957 65635,65765,65739
 3.0000e+000 65837  1.8403e-001  2.3556e+000 -2.1973e-002 64957 65609,65765,65635
 3.0000e+000 65814 -2.3890e-001  1.7133e+000 -5.3272e-001 64957 65635,65713,65687
 3.0000e+000 65791 -1.0725e-001  2.0220e+000 -3.6309e-001 64957 65635,65687,65661
 3.0000e+000 65984 -2.7575e-001  3.2063e-001  1.8812e-001 64781 65906,65958,65932
 3.0000e+000 66232  5.2264e-001  6.4990e-001 -5.8545e-001 64469 66007,66059,66033
 3.0000e+000 66209 -4.0873e-001 -1.0574e-001 -9.1533e-001 64469 66007,66085,66059
 3.0000e+000 66186  1.7996e-001  1.3967e+000 -3.7372e-001 64469 66007,66137,66085
 3.0000e+000 66163 -9.2310e-001  1.1657e-001 -1.8194e+000 64469 66085,66137,66111
 3.0000e+000 66504 -2.6133e-003  2.1679e+000 -1.1273e-001 64271 66279,66383,66305
 3.0000e+000 66481 -2.4197e-001  2.1895e+000  6.3258e-002 64271 66279,66409,66383
 3.0000e+000 66458 -4.1100e-001  2.7852e+000 -1.5656e-001 64271 66305,66357,66331
 3.0000e+000 66435  1.2953e-001  2.6813e+000 -1.6970e-001 64271 66305,66383,66357
 3.0000e+000 66705 -2.6369e-002  2.9225e+000 -5.0600e-001 64073 66728,66581,66555
 3.0000e+000 66682  3.5886e-001  2.6911e+000 -5.0597e-001 64073 66728,66555,66529
 3.0000e+000 66659 -8.9308e-001  3.3340e+000  6.8839e-001 64073 66581,66633,66607
 3.0000e+000 66754 -1.2039e-001  2.7615e+000 -4.3869e-001 64073 66633,66581,66728
 3.0000e+000 66777  4.8250e-002  2.3524e+000 -3.6067e-001 64073 66633,66728,66529
 3.0000e+000 66951  3.8843e-001 -3.6905e-002  4.9471e-001 63783 66824,66876,66850
 3.0000e+000 66928 -1.3781e+000  1.0440e+000 -1.7948e-001 63783 66824,66902,66876
 3.0000e+000 67201  9.1392e-001  2.8053e+000 -1.2710e-001 63585 66976,67080,67054
 3.0000e+000 67178  4.4128e-001  2.6191e+000 -2.8006e-001 63585 66976,67106,67080
 3.0000e+000 67155  1.1505e-001  1.3777e+000  2.0491e-001 63585 66976,67054,67028
 3.0000e+000 67132  3.3619e-001  1.7875e+000  5.1177e-001 63585 66976,67028,67002
 3.0000e+000 67654 -2.2529e-001  1.5952e+000  4.8074e-002 63295 67357,67487,67383
 3.0000e+000 67631 -2.8722e-001  2.1710e+000 -4.3081e-001 63295 67331,67487,67357
 3.0000e+000 67608  1.1443e-001  2.7896e+000  9.0900e-002 63295 67331,67513,67487
 3.0000e+000 67585 -2.9482e-002  2.9157e+000 -9.7355e-002 63295 67435,67487,67461
 3.0000e+000 67562  1.1522e-001  2.8378e+000  4.6164e-002 63295 67383,67487,67435
 3.0000e+000 67539 -1.3284e-002  2.2703e+000 -1.0888e-001 63295 67383,67435,67409
 3.0000e+000 67853 -1.1923e-002  1.9575e+000 -2.3280e-002 62891 67876,67703,67677
 3.0000e+000 67830  1.0340e-001  2.4085e+000 -1.2211e-002 62891 67876,67677,67781
 3.0000e+000 67807 -1.9694e-001  1.6158e+000 -8.7952e-002 62891 67948,67729,67703
 3.0000e+000 67902  4.3372e-003  1.8713e+000 -2.4066e-001 62891 67948,67703,67876
 3.0000e+000 67925  5.1132e-001  2.0222e+000 -3.0826e-001 62891 67755,67876,67781
 3.0000e+000 67974  1.3888e-001  1.2957e+000 -4.3730e-002 62891 67755,67729,67948
 3.0000e+000 67997  1.6771e-001  1.4173e+000 -1.4917e-001 62891 67755,67948,67876
 3.0000e+000 68218 -9.3783e-003  2.5212e-002  1.7046e-002 62693 68042,68120,68068
 3.0000e+000 68195 -2.0156e-002  1.7455e-002  9.8998e-003 62693 68042,68146,68120
 3.0000e+000 68172 -1.6720e-002  2.9852e-002  1.8166e-002 62693 68068,68120,68094
 3.0000e+000 68468 -4.0315e-001  2.1537e+000 -1.4821e+000 62289 68491,68295,68269
 3.0000e+000 68445  2.0690e-001  1.8032e+000 -7.0080e-002 62289 68563,68491,68269
 3.0000e+000 68422 -7.5737e-002  1.4211e+000 -3.0002e-001 62289 68563,68269,68243
 3.0000e+000 68399 -1.4140e+000  4.6080e+000 -2.1059e+000 62289 68295,68347,68321
 3.0000e+000 68517  2.4282e-003  5.3947e+000 -1.7974e+000 62289 68347,68295,68491
 3.0000e+000 68540 -4.7409e-001  2.7482e+000 -7.0759e-002 62289 68347,68491,68373
 3.0000e+000 68589  3.1090e-001  1.0814e+000 -3.2268e-001 62289 68373,68491,68563
 3.0000e+000 68612  2.5837e-001  9.2974e-001 -5.1734e-001 62289 68373,68563,68243
 3.0000e+000 68911  9.2308e-002  1.8591e+000 -7.1898e-002 62091 69222,68934,68741
 3.0000e+000 68888 -3.7243e-001  1.9735e+000 -7.0752e-002 62091 69006,68934,68689
 3.0000e+000 68865 -5.8881e-001  1.7229e+000 -2.9349e-001 62091 69006,68689,68663
 3.0000e+000 68842  3.3908e-001  2.2861e+000  3.3937e-001 62091 69078,68793,68767
 3.0000e+000 68819  1.5280e-001  1.8996e+000 -1.9658e-001 62091 69222,68741,68715
 3.0000e+000 68960  3.9919e-001  2.0974e+000 -1.7587e-001 62091 68767,68741,68934
 3.0000e+000 68983  1.6252e-001  2.4204e+000  6.6614e-002 62091 69078,68767,68934
 3.0000e+000 69032 -2.9951e-001  2.1667e+000 -1.9187e-002 62091 69150,69006,68637
 3.0000e+000 69055 -3.0890e-001  2.0880e+000 -8.5633e-002 62091 68637,69006,68663
 3.0000e+000 69104  1.8472e-001  1.9249e+000  3.0359e-002 62091 68637,68793,69078
 3.0000e+000 69127 -2.5577e-001  2.1235e+000 -4.3365e-002 62091 69150,68637,69078
 3.0000e+000 69176 -1.4727e-001  1.9827e+000  1.1964e-002 62091 68934,69006,69150
 3.0000e+000 69199  4.0451e-002  2.0961e+000 -6.9131e-002 62091 68934,69150,69078
 3.0000e+000 69248  3.4354e-002  1.7246e+000 -6.6354e-002 62091 68689,68934,69222
 3.0000e+000 69271  5.3741e-002  1.6856e+000 -1.5312e-001 62091 68689,69222,68715
 3.0000e+000 69521 -1.5824e+000  1.0345e+000  4.4412e-001 61893 69544,69348,69296
 3.0000e+000 69498 -5.8452e-001  1.5777e+000  2.3033e-001 61893 69544,69296,69400
 3.0000e+000 69475  1.9853e-001  9.5197e-001 -4.1196e-001 61893 69296,69426,69400
 3.0000e+000 69452  2.1363e-001  5.8086e+000 -5.3717e-002 61893 69296,69348,69322
 3.0000e+000 69570 -1.0894e+000  9.3815e-002  1.3833e+000 61893 69374,69348,69544
 3.0000e+000 69593  7.8448e-001  1.0328e+000  1.0484e+000 61893 69374,69544,69400
 3.0000e+000 70046 -1.6318e-001  1.8203e+000 -3.3049e-002 61467 69749,69905,69879
 3.0000e+000 70023 -2.1623e-001  1.4891e+000 -4.3035e-001 61467 69723,69905,69749
 3.0000e+000 70000 -2.5638e-001  1.7033e+000  5.1561e-003 61467 70069,69827,69775
 3.0000e+000 69977  2.2709e-001  2.7985e+000 -3.7365e-001 61467 70069,69775,69749
 3.0000e+000 69954  3.1340e-002  9.0938e-001  1.0477e-002 61467 70141,69853,69827
 3.0000e+000 69931 -4.3266e-001  1.9377e+000  6.0692e-001 61467 69775,69827,69801
 3.0000e+000 70095 -1.1939e-001  1.1252e+000  1.5014e-001 61467 70141,69827,70069
 3.0000e+000 70118 -1.8179e-001  1.7056e+000 -1.0221e-002 61467 69879,70069,69749
 3.0000e+000 70167 -1.2516e-001  1.2391e+000 -1.6478e-003 61467 69879,69853,70141
 3.0000e+000 70190 -4.7623e-002  1.7503e+000  1.4182e-001 61467 69879,70141,70069
 3.0000e+000 70291  2.3199e-001  3.0656e+000  3.2487e-001 61013 70213,70265,70239
 3.0000e+000 70441  9.9312e-001  6.3548e+000 -1.0317e+000 60651 70340,70392,70366
 3.0000e+000 70418  6.8565e-001  1.9983e+000 -1.4965e-001 60651 70314,70392,70340
 3.0000e+000 70642 -1.8643e-001  1.8275e+000  6.1499e-001 60311 70665,70492,70466
 3.0000e+000 70619  7.9004e-002  2.4068e+000  5.2526e-001 60311 70665,70466,70570
 3.0000e+000 70596 -7.0929e-001  1.0146e+000  9.4933e-002 60311 70492,70544,70518
 3.0000e+000 70691  3.4236e-002  1.2799e+000 -9.1736e-003 60311 70544,70492,70665
 3.0000e+000 70714  4.3540e-001  2.1800e+000 -1.2186e-001 60311 70544,70665,70570
 3.0000e+000 70964 -4.2489e-001  1.3958e+000  2.5406e-001 59907 70987,70765,70739
 3.0000e+000 70941 -9.4954e-002  2.1382e+000  2.5638e-002 59907 71059,70987,70739
 3.0000e+000 70918  1.1159e-001  3.0721e+000 -8.8036e-002 59907 71059,70739,70869
 3.0000e+000 70895  6.0913e-002  2.1244e+000 -9.6419e-002 59907 70817,70869,70843
 3.0000e+000 71013  1.2369e-002  1.5230e+000 -1.8080e-001 59907 70791,70765,70987
 3.0000e+000 71036 -3.6474e-002  1.6037e+000 -2.0739e-001 59907 70791,70987,70817
 3.0000e+000 71085  1.3521e-001  1.5168e+000 -1.1850e-001 59907 70817,70987,71059
 3.0000e+000 71108 -4.0420e-002  1.9185e+000 -6.2182e-002 59907 70817,71059,70869
 3.0000e+000 71441  1.9986e+000  5.0714e+000 -4.4856e-001 59417 71464,71242,71216
 3.0000e+000 71418  1.7003e+000  3.9304e+000  4.9833e-001 59417 71464,71216,71320
 3.0000e+000 71395  1.1944e+000  2.6110e+000  7.4142e-001 59417 71216,71346,71320
 3.0000e+000 71372 -2.2771e-001  2.1493e+000  1.9217e+000 59417 71268,71320,71294
 3.0000e+000 71490  1.6411e+000  4.7455e+000  9.4213e-001 59417 71268,71242,71464
 3.0000e+000 71513  2.0855e-001  2.4346e+000  2.0590e+000 59417 71268,71464,71320
 3.0000e+000 71712  4.0829e-001  2.4551e+000  3.6713e-002 58913 71562,71614,71588
 3.0000e+000 71689  1.0100e+000  1.8866e+000 -6.3776e-001 58913 71536,71614,71562
 3.0000e+000 71666  1.1785e+000  1.6226e+000 -5.0815e-001 58913 71536,71640,71614
 3.0000e+000 72171 -4.4526e-001 -3.4697e-001 -8.5837e-001 58409 72194,72027,72001
 3.0000e+000 72148 -9.3358e-001 -3.5600e-001 -3.6985e-001 58409 72194,72001,71949
 3.0000e+000 72125 -8.1440e-001 -9.6975e-001  1.9909e-001 58409 71923,72053,71949
 3.0000e+000 72102 -7.0432e-002  2.8924e-001 -8.2588e-001 58409 71949,72001,71975
 3.0000e+000 72079 -7.9339e-001 -6.2602e-001  5.4959e-001 58409 71897,72053,71923
 3.0000e+000 72220 -1.1102e+000 -5.8532e-001 -7.7999e-001 58409 72053,72027,72194
 3.0000e+000 72243 -1.3766e+000 -3.9654e-001 -3.4125e-001 58409 72053,72194,71949
 3.0000e+000 72491 -3.3696e+000 -1.1072e+000 -2.1795e+000 57855 72514,72318,72292
 3.0000e+000 72468  2.1332e+000  1.3016e+000 -2.6236e+000 57855 72514,72292,72266
 3.0000e+000 72445 -1.8028e+000  4.3861e-001  1.9088e-001 57855 72318,72396,72370
 3.0000e+000 72422 -4.5808e+000  2.1410e+000 -1.2808e+000 57855 72318,72370,72344
 3.0000e+000 72540 -3.8804e+000 -3.9052e-001 -1.4102e+000 57855 72396,72318,72514
 3.0000e+000 72563 -3.3561e+000 -4.7008e-001 -1.5338e+000 57855 72396,72514,72266
 3.0000e+000 72811  1.5300e+000  6.3174e-001 -6.3685e-001 57401 72612,72690,72638
 3.0000e+000 72788 -1.3975e-002 -3.6686e-003  2.5686e-001 57401 72586,72690,72612
 3.0000e+000 72765 -8.0844e-001 -6.4546e-001 -1.1677e+000 57401 72638,72690,72664
 3.0000e+000 72742  3.3419e-001  1.4435e+000 -1.5110e-001 57401 72586,72716,72690
 3.0000e+000 73144  2.1978e-001  1.2315e+000 -1.8655e-001 57004 72919,72997,72945
 3.0000e+000 73121  3.4180e-001  2.2765e+000 -4.7079e-001 57004 72919,73049,72997
 3.0000e+000 73098  2.7945e-001  1.5795e+000 -4.1680e-001 57004 72945,72997,72971
 3.0000e+000 73075  4.5249e-001  2.7237e+000 -6.0134e-001 57004 72997,73049,73023
 3.0000e+000 73650 -8.1981e-001 -3.3745e-001  1.0380e+000 56592 73673,73379,73353
 3.0000e+000 73627 -2.2729e+000 -8.1897e-001  1.1052e+000 56592 73673,73353,73327
 3.0000e+000 73604 -2.3696e+000 -6.2227e-001  3.3203e-001 56592 73745,73509,73483
 3.0000e+000 73581 -2.1626e+000  2.7269e-002  6.1295e-002 56592 73379,73457,73405
 3.0000e+000 73558 -6.4740e-001  5.8049e-001  1.9126e-001 56592 73379,73483,73457
 3.0000e+000 73535  1.3854e+000  3.1252e-001 -4.9602e-002 56592 73405,73457,73431
 3.0000e+000 73699 -1.0719e+000 -6.7569e-002 -5.6049e-002 56592 73483,73379,73673
 3.0000e+000 73722 -2.1065e+000 -6.0073e-001  3.0781e-001 56592 73745,73483,73673
 3.0000e+000 73771 -2.0072e+000 -1.0170e+000  6.6896e-001 56592 73327,73509,73745
 3.0000e+000 73794 -1.4665e+000 -8.1411e-001  5.9762e-001 56592 73327,73745,73673
 3.0000e+000 74123  3.0880e+000  2.5407e+000  5.6215e-001 56152 74146,74002,73924
 3.0000e+000 74100  2.1352e+000  2.3344e+000  3.9545e-001 56152 74146,73924,73898
 3.0000e+000 74077  3.0343e+000  1.6526e+000  8.4352e-001 56152 73924,74002,73976
 3.0000e+000 74054  3.1965e+000  2.0580e+000  1.5268e+000 56152 73924,73976,73950
 3.0000e+000 74172  4.3103e+000  2.1857e+000 -1.5123e-001 56152 74028,74002,74146
 3.0000e+000 74195  2.7548e+000  1.9660e+000 -2.5050e-001 56152 74028,74146,73898
 3.0000e+000 74345  2.7174e+000  1.7137e+000 -7.6927e-001 55634 74218,74270,74244
 3.0000e+000 74322  3.0373e+000 -6.2587e-001 -5.1439e-001 55634 74218,74296,74270
 3.0000e+000 74823  1.5630e-001 -1.4245e+000  3.4601e-001 55016 74918,74846,74581
 3.0000e+000 74800 -4.5759e-001 -8.6435e-001 -1.3114e-002 55016 74846,74477,74633
 3.0000e+000 74777 -1.1322e+000 -2.2616e+000  7.4526e-001 55016 74918,74581,74555
 3.0000e+000 74754 -1.8298e+000 -1.7108e+000  1.2032e+000 55016 74990,74503,74477
 3.0000e+000 74731 -8.6092e-001 -9.6897e-001  6.5604e-002 55016 74451,74633,74477
 3.0000e+000 74708 -8.8392e-001 -7.6966e-001 -7.6793e-003 55016 74451,74659,74633
 3.0000e+000 74685 -2.5162e+000 -2.8536e+000  2.1335e+000 55016 74503,74555,74529
 3.0000e+000 74872  2.5518e-001 -1.4605e+000 -6.2076e-002 55016 74607,74581,74846
 3.0000e+000 74895 -2.9150e-001 -1.7253e+000  6.5552e-002 55016 74607,74846,74633
 3.0000e+000 74944 -1.8479e+000 -1.7844e+000  4.0833e-001 55016 74477,74846,74918
 3.0000e+000 74967 -2.0730e+000 -1.6166e+000  8.0537e-001 55016 74990,74477,74918
 3.0000e+000 75016 -9.8220e-001 -1.3426e+000  1.2804e+000 55016 74555,74503,74990
 3.0000e+000 75039 -1.2275e+000 -1.2861e+000  8.3036e-001 55016 74555,74990,74918
 3.0000e+000 75287 -3.0734e+000 -4.0050e+000  4.3941e-002 54726 75310,75140,75114
 3.0000e+000 75264 -3.6532e+000 -2.4814e+000 -3.1588e-001 54726 75310,75114,75088
 3.0000e+000 75241 -5.0108e+000 -2.4634e+000 -2.0877e+000 54726 75088,75192,75166
 3.0000e+000 75218 -8.8402e+000 -3.0975e-001 -2.1029e+000 54726 75062,75192,75088
 3.0000e+000 75336 -2.3949e+000 -3.1617e+000 -8.9404e-001 54726 75166,75140,75310
 3.0000e+000 75359 -3.5308e+000 -1.6051e+000 -8.7316e-001 54726 75166,75310,75088
 3.0000e+000 75946 -1.2247e-001  2.3939e-001  2.6688e-001 54322 75969,75701,75649
 3.0000e+000 75923 -7.4888e-001 -1.7963e-001  4.5040e-001 54322 75969,75649,75623
 3.0000e+000 75900 -3.8797e-001 -1.6065e-002 -3.9876e-002 54322 76041,75753,75701
 3.0000e+000 75877 -1.8326e-001  1.0610e+000  1.8623e-002 54322 75623,75805,75779
 3.0000e+000 75854 -4.7078e-001  1.7144e-002 -2.1083e-001 54322 75701,75753,75727
 3.0000e+000 75831 -1.9103e-001 -4.0244e-002  6.2003e-002 54322 75649,75701,75675
 3.0000e+000 75995 -5.6686e-001  8.6965e-002  1.1343e-001 54322 76041,75701,75969
 3.0000e+000 76018 -5.5569e-001  3.4082e-001  2.1920e-001 54322 75779,75969,75623
 3.0000e+000 76067 -2.8889e-001  2.5794e-001 -1.0446e-001 54322 75779,75753,76041
 3.0000e+000 76090 -4.0955e-001  4.5708e-001  4.9761e-002 54322 75779,76041,75969
 3.0000e+000 76468 -8.9853e-002  3.7339e-001  2.4663e-002 53868 76491,76272,76220
 3.0000e+000 76445 -1.2519e-001  4.1697e-001 -3.1032e-002 53868 76491,76220,76324
 3.0000e+000 76422  2.1102e-002  4.0397e-001 -3.9314e-002 53868 76220,76272,76246
 3.0000e+000 76399 -1.8876e-001  8.0897e-001  1.5519e-001 53868 76194,76324,76220
 3.0000e+000 76376 -9.3549e-001  5.0627e-001 -9.2073e-003 53868 76194,76350,76324
 3.0000e+000 76517 -1.1942e-001  3.0229e-001  2.1115e-002 53868 76298,76272,76491
 3.0000e+000 76540 -1.4636e-001  3.6255e-001 -3.3081e-002 53868 76298,76491,76324
 3.0000e+000 76690 -6.9659e-002  4.8026e-001 -6.8124e-002 53356 76589,76641,76615
 3.0000e+000 76667  1.4149e-001  1.1470e+000  2.6155e-002 53356 76563,76641,76589
 3.0000e+000 76938 -4.4745e-001  6.0058e-001 -7.8443e-001 53009 77105,76961,76765
 3.0000e+000 76915  1.3392e-001  7.7397e-001 -3.7351e-001 53009 76961,76713,76843
 3.0000e+000 76892 -3.0322e-001  7.7971e-001 -1.9141e-001 53009 77033,76817,76791
 3.0000e+000 76869 -1.1554e+000  8.4050e-002 -1.4572e+000 53009 77105,76765,76739
 3.0000e+000 76987 -1.0209e-001  1.6077e+000 -5.4620e-001 53009 76791,76765,76961
 3.0000e+000 77010 -3.5421e-001  8.1302e-001 -4.2478e-001 53009 77033,76791,76961
 3.0000e+000 77059  5.0441e-002  9.3262e-001 -2.0534e-001 53009 76843,76817,77033
 3.0000e+000 77082 -2.0012e-002  9.5475e-001 -4.2037e-001 53009 76843,77033,76961
 3.0000e+000 77131  2.7890e-001  1.0823e+000 -4.4706e-001 53009 76713,76961,77105
 3.0000e+000 77154  1.5787e-001  1.0112e+000 -1.0092e+000 53009 76713,77105,76739
 3.0000e+000 77355  3.3040e+000 -2.8753e+000  1.8363e+000 52390 77378,77257,77231
 3.0000e+000 77332  2.5500e+000 -1.5270e+000  1.2881e+000 52390 77378,77231,77179
 3.0000e+000 77309  3.3379e+000 -2.9375e+000 -7.9406e-001 52390 77179,77231,77205
 3.0000e+000 77404  3.8739e+000 -1.9298e+000  1.3354e+000 52390 77283,77257,77378
 3.0000e+000 77427  3.2063e+000 -3.4642e-001  8.1687e-001 52390 77283,77378,77179
 3.0000e+000 77677 -1.9018e+000  2.9998e+000 -1.9342e+000 51986 77700,77504,77478
 3.0000e+000 77654  1.5494e-001  4.3093e+000 -2.4987e+000 51986 77700,77478,77452
 3.0000e+000 77631 -2.2398e-001  1.9201e+000 -7.0125e-001 51986 77772,77556,77530
 3.0000e+000 77608 -4.9611e-001  1.5469e+000 -9.9288e-001 51986 77452,77582,77556
 3.0000e+000 77726 -4.7313e-001  2.8295e+000 -8.1120e-001 51986 77530,77504,77700
 3.0000e+000 77749  9.2169e-002  2.5925e+000 -9.4130e-001 51986 77772,77530,77700
 3.0000e+000 77798  1.7817e-001  2.2254e+000 -1.2635e+000 51986 77452,77556,77772
 3.0000e+000 77821  3.8797e-001  2.4023e+000 -1.4684e+000 51986 77452,77772,77700
 3.0000e+000 78282  6.2811e-001 -5.5143e-001 -8.6957e-002 51738 78008,78138,78060
 3.0000e+000 78259  5.9931e-002 -1.4299e+000  1.6868e+000 51738 78008,78164,78138
 3.0000e+000 78236  2.0217e-001  1.8913e-002  2.5789e-002 51738 78086,78138,78112
 3.0000e+000 78213  8.5759e-002 -1.9894e-001 -1.8735e-002 51738 78060,78138,78086
 3.0000e+000 78190  1.4042e+000 -1.1442e+000 -5.4315e-001 51738 78008,78060,78034
 3.0000e+000 78432 -2.5395e-001 -9.2514e-002  6.6366e-003 51148 78305,78357,78331
 3.0000e+000 78409 -2.1452e-001  1.5471e-001 -3.7592e-002 51148 78305,78383,78357
 3.0000e+000 78891 -2.3691e-001 -5.1567e-002  3.3055e-001 50808 78914,78695,78669
 3.0000e+000 78868 -1.3442e-001  1.5304e-001  2.4435e-001 50808 78914,78669,78643
 3.0000e+000 78845  2.9733e-003  2.3612e-001  1.6153e-001 50808 78643,78773,78747
 3.0000e+000 78822  1.9323e-001  2.9000e-001  2.5084e-001 50808 78617,78773,78643
 3.0000e+000 78799 -6.6975e-002  2.6798e-001  2.9385e-001 50808 78695,78747,78721
 3.0000e+000 78940 -7.3293e-002  1.2946e-001  2.1791e-001 50808 78747,78695,78914
 3.0000e+000 78963 -1.3651e-001  2.0095e-001  1.6478e-001 50808 78747,78914,78643
 3.0000e+000 79260 -2.8592e-001 -2.1910e-001 -1.4814e-001 50468 79283,79090,79012
 3.0000e+000 79237 -3.6586e-001 -7.5023e-002 -1.5108e-001 50468 79283,79012,78986
 3.0000e+000 79214 -4.2181e-001 -2.7630e-001 -1.3781e-001 50468 79012,79090,79038
 3.0000e+000 79191 -2.0379e-001  1.1949e-001 -2.7241e-001 50468 78986,79142,79116
 3.0000e+000 79168 -2.0459e-001 -2.6588e-001 -2.1296e-001 50468 79038,79090,79064
 3.0000e+000 79309 -2.6752e-001 -1.3450e-001 -1.8400e-001 50468 79116,79090,79283
 3.0000e+000 79332 -3.4050e-001  2.5191e-002 -1.8054e-001 50468 79116,79283,78986
 3.0000e+000 79889  2.4160e+000  2.5057e+000 -9.0512e-001 50064 79569,79725,79699
 3.0000e+000 79866  3.5917e-001  1.4331e+000 -2.2883e+000 50064 79543,79725,79569
 3.0000e+000 79843  2.0187e+000  1.0971e+000 -8.5425e-001 50064 79621,79699,79673
 3.0000e+000 79820  2.1533e+000  1.3836e+000 -1.2087e+000 50064 79595,79699,79621
 3.0000e+000 79797  1.4043e+000  1.7546e+000 -1.4811e+000 50064 79569,79699,79595
 3.0000e+000 79774  2.4128e+000  4.4163e+000 -1.1336e-001 50064 79517,79725,79543
 3.0000e+000 79751  8.1498e-001  1.1686e+000 -9.6943e-001 50064 79621,79673,79647
 3.0000e+000 80169  1.9435e+000  2.6183e+000 -1.2467e+000 49724 80019,80097,80071
 3.0000e+000 80146  1.5957e+000  4.3785e+000 -1.6491e+000 49724 79993,80097,80019
 3.0000e+000 80123  1.1328e+000  2.2986e+000 -1.2890e+000 49724 80019,80071,80045
 3.0000e+000 80626 -1.2160e+000 -4.3811e-001 -2.2717e-001 49277 80352,80482,80378
 3.0000e+000 80603 -9.3966e-001 -3.7586e-001  1.0089e-001 49277 80352,80508,80482
 3.0000e+000 80580 -1.0682e+000 -2.8876e-001 -1.6772e-001 49277 80378,80482,80456
 3.0000e+000 80557 -1.2141e+000 -8.2267e-001 -1.4350e-001 49277 80378,80430,80404
 3.0000e+000 80534 -1.6127e+000 -5.0389e-001 -9.6891e-002 49277 80378,80456,80430
 3.0000e+000 81230 -2.1813e+000 -1.2768e+000  1.0122e+000 48716 81253,80835,80809
 3.0000e+000 81207 -1.2525e+000  2.0374e-001 -2.1911e-001 48716 81397,81253,80809
 3.0000e+000 81184 -1.2694e+000  1.3167e+000 -5.9281e-001 48716 81325,80913,80887
 3.0000e+000 81161 -1.0156e+000 -5.9034e-001 -1.1896e-001 48716 81397,80809,81017
 3.0000e+000 81138 -1.9042e+000  9.0400e-001 -9.2846e-001 48716 81469,80965,80913
 3.0000e+000 81115 -1.0190e+000  6.2779e-002  1.2331e+000 48716 80835,80887,80861
 3.0000e+000 81092 -5.3407e-001 -1.7308e+000  2.0635e+000 48716 80809,81043,81017
 3.0000e+000 81069 -2.0868e+000 -9.8813e-001 -2.2128e+000 48716 80913,80965,80939
 3.0000e+000 81279  6.6398e-001  5.2369e-001  1.2992e-001 48716 80887,80835,81253
 3.0000e+000 81302 -1.8132e+000  1.0338e+000 -7.5316e-001 48716 81325,80887,81253
 3.0000e+000 81351 -1.4442e+000  1.0078e+000 -7.4375e-001 48716 81469,80913,81325
 3.0000e+000 81374 -1.6843e+000  1.7422e+000 -6.5538e-001 48716 80991,81325,81253
 3.0000e+000 81423 -1.4120e+000  1.3396e+000  1.8073e-001 48716 80991,81253,81397
 3.0000e+000 81446 -1.3376e+000  3.3108e-001  3.1359e-001 48716 80991,81397,81017
 3.0000e+000 81495 -2.7225e+000  1.2029e+000 -1.0567e+000 48716 80991,80965,81469
 3.0000e+000 81518 -2.3675e+000  1.2071e+000 -8.9250e-001 48716 80991,81469,81325
 3.0000e+000 81717 -2.8000e-002  1.5060e-001 -5.0351e-002 48262 81740,81567,81541
 3.0000e+000 81694  1.1099e-001  2.2841e-001 -8.3207e-002 48262 81740,81541,81645
 3.0000e+000 81671 -4.2397e-002 -1.5788e-001 -4.8841e-002 48262 81567,81619,81593
 3.0000e+000 81766  5.0578e-002  8.3877e-002  4.6224e-002 48262 81619,81567,81740
 3.0000e+000 81789  1.7878e-001  1.4823e-001  1.8878e-002 48262 81619,81740,81645
 3.0000e+000 81939  1.6055e+000  3.0061e+000 -7.2321e-001 47957 82034,81962,81864
 3.0000e+000 81916  2.3642e-001  2.5947e+000 -9.5687e-001 47957 82166,81962,81838
 3.0000e+000 81988  2.2347e+000  3.0243e+000  3.7338e-001 47957 82294,81962,81890
 3.0000e+000 82011  1.4086e+000  2.4880e+000 -2.0475e-001 47957 81890,81962,81812
 3.0000e+000 82060  1.6513e+000  3.5513e+000 -4.4812e-001 47957 81838,81962,82034
 3.0000e+000 82192 -6.4333e-001  2.3491e+000  3.9441e-001 47957 81812,81962,82166
 3.0000e+000 82320  3.1018e+000  2.7121e+000 -1.8901e-001 47957 81864,81962,82294
 3.0000e+000 82549 -2.2085e-001 -7.1139e-002 -1.1566e-001 47617 82448,82500,82474
 3.0000e+000 82526  2.6825e-002  7.2003e-001 -4.0819e-002 47617 82422,82500,82448
 3.0000e+000 82902  4.2684e-001  3.1619e-001 -8.4165e-002 47255 82729,82807,82755
 3.0000e+000 82879  8.7008e-001  3.4913e-001  1.8367e-001 47255 82703,82807,82729
 3.0000e+000 82856  3.2557e-001  3.6090e-001  5.3191e-002 47255 82755,82807,82781
 3.0000e+000 82833  2.0195e+000  8.4171e-001  2.9939e-001 47255 82677,82807,82703
 3.0000e+000 83182  9.4596e-002 -8.8911e-001  4.8121e-001 46680 83032,83084,83058
 3.0000e+000 83159  5.6072e-001 -4.8802e-001  7.3593e-001 46680 83205,83084,83032
 3.0000e+000 83136 -6.8535e-001  1.7196e-001  5.6470e-001 46680 83006,83110,83084
 3.0000e+000 83231  1.2523e+000  9.4873e-002  1.0298e+000 46680 83006,83084,83205
 3.0000e+000 83737 -2.0670e+000 -5.9902e-001  3.7413e-001 46290 83832,83760,83492
 3.0000e+000 83714 -2.0416e+000 -2.9543e-001  3.2401e-001 46290 83760,83440,83414
 3.0000e+000 83691 -1.6023e+000 -8.9109e-001  2.8952e-001 46290 83832,83492,83466
 3.0000e+000 83668 -1.7435e+000 -1.6079e+000  5.8271e-001 46290 83492,83570,83544
 3.0000e+000 83645 -2.8743e+000 -8.0977e-001  8.8558e-002 46290 83414,83596,83570
 3.0000e+000 83622 -1.5722e+000 -1.1882e+000  8.5939e-001 46290 83492,83544,83518
 3.0000e+000 83786 -1.9993e+000 -5.4541e-001  3.2115e-001 46290 83570,83492,83760
 3.0000e+000 83809 -2.0436e+000 -7.0222e-001  1.3560e-001 46290 83570,83760,83414
 3.0000e+000 83858 -1.4729e+000 -2.5199e-001  5.4124e-001 46290 83440,83760,83832
 3.0000e+000 83881 -6.5805e-001 -4.8388e-001  3.6262e-001 46290 83440,83832,83466
 3.0000e+000 84161 -1.4403e-002 -4.9517e-001  3.9838e-002 45829 84011,84063,84037
 3.0000e+000 84138 -2.8096e-001 -5.2445e-001 -1.1311e-002 45829 84011,84089,84063
 3.0000e+000 84115  6.6427e-003 -4.0031e-001  7.1188e-003 45829 83985,84089,84011
 3.0000e+000 84311  1.0908e+000  1.3950e+000  1.3490e-001 45631 84184,84236,84210
 3.0000e+000 84288  5.5301e-001 -1.9781e-001 -2.0403e-002 45631 84184,84262,84236
 3.0000e+000 84657 -1.3878e-001 -2.7093e-001 -6.0673e-002 45155 84680,84490,84412
 3.0000e+000 84634 -1.9723e-001 -1.4840e-001 -1.3971e-002 45155 84680,84412,84360
 3.0000e+000 84611 -2.7200e-001 -3.6912e-001  5.9766e-002 45155 84412,84490,84438
 3.0000e+000 84588  1.1004e-002  6.8863e-002 -5.1732e-002 45155 84334,84516,84360
 3.0000e+000 84565 -1.1727e-001  6.4496e-002 -3.2844e-001 45155 84360,84412,84386
 3.0000e+000 84542 -2.2676e-001 -4.0834e-001  3.1509e-002 45155 84438,84490,84464
 3.0000e+000 84706 -1.4757e-001 -1.5274e-001 -8.5597e-002 45155 84516,84490,84680
 3.0000e+000 84729 -1.9602e-001 -2.0184e-002 -5.7029e-002 45155 84516,84680,84360
 3.0000e+000 85077 -5.5726e-002 -5.2283e-001 -2.1924e-001 44508 85100,84754,84910
 3.0000e+000 85054 -1.0818e-001  3.6937e-002 -8.1273e-002 44508 84754,84936,84910
 3.0000e+000 85031 -5.0532e-001 -9.0971e-001  1.0836e-001 44508 85100,84910,84884
 3.0000e+000 85008 -4.8882e-001 -2.0255e-001 -4.1198e-001 44508 84780,84884,84832
 3.0000e+000 84985 -5.0363e-001 -2.6412e-001 -4.5289e-001 44508 84780,84832,84806
 3.0000e+000 84962 -1.1774e+000 -8.8416e-001 -8.8699e-002 44508 84832,84884,84858
 3.0000e+000 85126 -4.2316e-001  2.9172e-002 -5.4225e-001 44508 84780,84754,85100
 3.0000e+000 85149 -7.6521e-001 -3.4676e-001 -2.4451e-001 44508 84780,85100,84884
 3.0000e+000 85482  3.5494e-001  1.1691e-001 -4.4261e-002 44104 85335,85387,85361
 3.0000e+000 85459  2.5034e-001 -1.7808e-001  2.7867e-002 44104 85309,85387,85335
 3.0000e+000 85436  1.3596e-001 -1.4398e-001 -1.0482e-001 44104 85257,85387,85309
 3.0000e+000 85413  5.6674e-002  6.4541e-003  1.9692e-002 44104 85257,85309,85283
 3.0000e+000 85811 -2.3967e-001 -3.5361e-001 -9.1011e-002 43600 85586,85664,85612
 3.0000e+000 85788 -2.0038e-001 -5.1899e-002 -3.1303e-002 43600 85586,85690,85664
 3.0000e+000 85765 -8.6734e-002  2.7193e-001 -1.8832e-001 43600 85586,85716,85690
 3.0000e+000 85742 -2.5815e-001 -2.8277e-001 -2.2199e-001 43600 85612,85664,85638
 3.0000e+000 86010  3.2726e-001  1.7437e-001 -8.7419e-002 43224 85886,85938,85912
 3.0000e+000 85987  2.8367e-001  2.8381e-002 -7.4384e-002 43224 85834,85938,85886
 3.0000e+000 85964  3.2627e-001 -7.4205e-001 -6.1874e-002 43224 85834,85886,85860
 3.0000e+000 86420  2.9848e+000  1.3455e+000 -3.3715e-001 42820 86195,86299,86221
 3.0000e+000 86397  2.9772e+000  2.7390e+000 -1.1431e+000 42820 86195,86325,86299
 3.0000e+000 86374  1.7794e+000  1.2310e+000  2.1435e-001 42820 86221,86299,86273
 3.0000e+000 86351  1.3912e+000  9.6473e-001 -2.0989e-001 42820 86221,86273,86247
 3.0000e+000 86749  3.2963e-001 -7.5060e-001 -2.5299e-001 42223 86550,86602,86576
 3.0000e+000 86726  2.3621e+000 -1.4328e+000  6.5549e-002 42223 86550,86628,86602
 3.0000e+000 86703  7.2025e-001 -1.8723e+000  1.0090e+000 42223 86524,86628,86550
 3.0000e+000 86680  1.8097e+000  8.0392e-001  7.7351e-001 42223 86524,86654,86628
 3.0000e+000 87078  5.7851e-001 -4.2375e-001  2.8078e-001 41883 87173,87101,86905
 3.0000e+000 87055  4.9255e-001  9.0696e-001  1.1287e-001 41883 87101,86879,86853
 3.0000e+000 87032  6.8571e-002  9.6951e-002 -1.7635e-002 41883 86853,86983,86931
 3.0000e+000 87009  1.2280e-001  2.9808e-001 -6.6267e-002 41883 86931,86983,86957
 3.0000e+000 87127  9.8188e-001  2.7180e-001 -1.0545e-001 41883 86931,86905,87101
 3.0000e+000 87150  4.3405e-002 -1.3086e-001 -6.9779e-003 41883 86931,87101,86853
 3.0000e+000 87199  1.7501e-001  6.6589e-002  4.1630e-001 41883 86879,87101,87173
 3.0000e+000 87558 -6.5676e-002  7.8754e-001 -3.2968e-001 41471 87382,87460,87408
 3.0000e+000 87535 -1.5601e+000  8.0530e-001 -1.9150e-001 41471 87382,87486,87460
 3.0000e+000 87512  3.6516e-001  1.0391e-001 -1.0899e-001 41471 87408,87460,87434
 3.0000e+000 87806  1.4202e-001  2.4242e-002 -4.7704e-001 41017 87829,87607,87581
 3.0000e+000 87783  1.4959e-001 -2.7400e-001 -7.5307e-002 41017 87829,87581,87685
 3.0000e+000 87760  4.5675e-001 -8.6239e-002 -1.8080e-001 41017 87581,87711,87685
 3.0000e+000 87737  2.8295e-001 -8.9609e-001 -3.5484e-002 41017 87633,87685,87659
 3.0000e+000 87855 -1.1588e-001 -1.6553e-001 -2.8024e-001 41017 87633,87607,87829
 3.0000e+000 87878 -1.9629e-001 -5.0854e-001  1.3181e-001 41017 87633,87829,87685
 3.0000e+000 88258  1.9444e-002  4.9179e-002 -8.8408e-003 40613 88281,88036,88010
 3.0000e+000 88235  8.2751e-003  5.5253e-002 -4.4270e-003 40613 88281,88010,88088
 3.0000e+000 88212  1.4572e-002  5.3554e-002 -2.0150e-003 40613 87984,88088,88010
 3.0000e+000 88189  3.0575e-003  2.9379e-002 -1.1408e-002 40613 87984,88114,88088
 3.0000e+000 88166 -4.2413e-003 -3.4117e-003 -5.1866e-005 40613 87984,88140,88114
 3.0000e+000 88307  1.1531e-002  4.2602e-002 -1.2250e-002 40613 88062,88036,88281
 3.0000e+000 88330 -7.8201e-004  5.0032e-002 -8.0623e-003 40613 88062,88281,88088
 3.0000e+000 88649  5.8542e-004  5.5116e-002  5.7289e-004 40095 88375,88505,88401
 3.0000e+000 88626  1.6493e-002  1.9877e-002  1.8923e-002 40095 88375,88531,88505
 3.0000e+000 88603 -7.5039e-002  4.0894e-002 -1.4834e-003 40095 88401,88505,88479
 3.0000e+000 88580  5.9608e-003  5.2686e-001  2.2822e-001 40095 88427,88479,88453
 3.0000e+000 88557 -3.2171e-002  9.9551e-002 -2.0587e-002 40095 88401,88479,88427
 3.0000e+000 89078  9.8492e-001 -1.4700e+000 -9.5711e-001 39897 89101,88833,88807
 3.0000e+000 89055  1.3862e-001 -1.7030e+000 -1.0078e+000 39897 89101,88807,88911
 3.0000e+000 89032 -7.5426e-001 -1.4257e+000 -1.6372e+000 39897 88781,88911,88807
 3.0000e+000 89009 -1.5663e+000 -1.9382e+000 -1.9212e+000 39897 88781,88937,88911
 3.0000e+000 88986  3.4386e+000  3.7813e-001 -5.7930e-001 39897 88833,88885,88859
 3.0000e+000 88963 -2.2996e+000 -1.8179e+000 -2.3512e+000 39897 88755,88937,88781
 3.0000e+000 89127  1.7261e+000 -1.8576e+000 -1.6741e+000 39897 88885,88833,89101
 3.0000e+000 89150  4.6468e-001 -2.3120e+000 -1.8514e+000 39897 88885,89101,88911
 3.0000e+000 89300 -1.8504e+000 -1.8143e+000  7.1700e-001 39607 89453,89323,89199
 3.0000e+000 89277 -2.6951e+000 -1.1528e+000  5.7463e-001 39607 89525,89453,89199
 3.0000e+000 89349 -1.4961e+000 -1.7485e+000 -4.8972e-002 39607 89225,89199,89323
 3.0000e+000 89479 -1.5262e+000 -7.8639e-001  5.4024e-001 39607 89251,89323,89453
 3.0000e+000 89502 -1.4438e+000 -8.4634e-002  1.3109e+000 39607 89251,89453,89173
 3.0000e+000 89551 -1.1762e+000 -7.8959e-001  7.7502e-001 39607 89173,89453,89525
 3.0000e+000 90264 -1.1940e+000 -1.9051e+000 -3.3965e-001 39039 89996,90074,90048
 3.0000e+000 90241 -8.1322e-001 -1.0106e+000 -2.2543e-001 39039 89918,90074,89996
 3.0000e+000 90218 -1.2639e+000 -1.2414e+000  8.9391e-003 39039 89918,89996,89944
 3.0000e+000 90195 -1.4809e+000 -1.0818e+000  8.0519e-002 39039 89892,90074,89918
 3.0000e+000 90172 -2.6019e-001 -1.9098e+000 -4.3689e-001 39039 89996,90048,90022
 3.0000e+000 90149 -2.1592e+000  8.4880e-001 -4.9323e-002 39039 89892,90100,90074
 3.0000e+000 90126 -1.5316e+000 -1.3447e+000 -2.0770e-001 39039 89944,89996,89970
 3.0000e+000 90770 -3.3488e-001 -4.7140e-001 -4.5886e-002 38635 90473,90603,90577
 3.0000e+000 90747 -1.4575e-001 -4.1954e-001  8.0033e-003 38635 90447,90603,90473
 3.0000e+000 90724 -2.7947e-001 -6.3249e-001 -9.2439e-002 38635 90499,90577,90551
 3.0000e+000 90701 -3.0080e-001 -6.7187e-001 -4.0551e-002 38635 90473,90577,90499
 3.0000e+000 90678 -2.3598e-001 -8.6833e-001 -8.0871e-002 38635 90499,90551,90525
 3.0000e+000 90655 -3.2320e-001 -3.0683e-001  6.6317e-002 38635 90447,90629,90603
 3.0000e+000 90871 -3.5504e-002 -2.8226e-001 -1.5746e-001 38231 90793,90845,90819
 3.0000e+000 91458  1.9906e-001 -2.2623e-001 -9.0056e-002 37534 91161,91317,91291
 3.0000e+000 91435  8.8296e-002  4.8411e-002  9.6540e-002 37534 91135,91317,91161
 3.0000e+000 91412 -2.9738e-001 -1.0624e+000 -4.8250e-001 37534 91187,91291,91239
 3.0000e+000 91389  2.8808e-002 -1.0560e+000  6.3511e-002 37534 91161,91291,91187
 3.0000e+000 91366  5.1792e-003 -7.1872e-001 -3.4597e-001 37534 91239,91291,91265
 3.0000e+000 91343  6.7347e-001 -1.1307e+000 -8.9909e-001 37534 91187,91239,91213
 3.0000e+000 91915 -6.5430e-001 -7.5195e-001  3.4211e-002 37080 91938,91745,91667
 3.0000e+000 91892 -5.8876e-001 -6.2601e-001  1.8133e-001 37080 91938,91667,91797
 3.0000e+000 91869 -8.2147e-001  2.0153e-001 -1.3014e-001 37080 91641,91797,91667
 3.0000e+000 91846 -7.7260e-001 -8.9140e-001  6.2541e-002 37080 91667,91719,91693
 3.0000e+000 91823 -7.0517e-001 -7.4557e-001  3.2546e-002 37080 91667,91745,91719
 3.0000e+000 91964 -5.6284e-001 -5.0041e-001  6.8382e-002 37080 91771,91745,91938
 3.0000e+000 91987 -5.7865e-001 -5.3992e-001  2.1796e-001 37080 91771,91938,91797
 3.0000e+000 92235 -3.6109e-001 -5.3499e-001 -3.4357e-002 36397 92036,92088,92062
 3.0000e+000 92212 -2.4360e-001 -3.7229e-001 -8.5849e-002 36397 92036,92114,92088
 3.0000e+000 92189 -9.6920e-002 -2.5090e-001  9.5109e-003 36397 92036,92140,92114
 3.0000e+000 92166 -1.6593e-001 -1.5836e-001  2.3732e-002 36397 92010,92140,92036
 3.0000e+000 92694 -1.5481e-001 -6.0034e-003  2.8883e-002 36057 92446,92498,92472
 3.0000e+000 92671 -8.8534e-002  1.4768e-001  3.7829e-002 36057 92446,92550,92498
 3.0000e+000 92648  1.3023e-001  2.4235e-002 -1.7326e-002 36057 92446,92576,92550
 3.0000e+000 92625 -1.3162e-001 -1.0300e-001  2.2248e-002 36057 92420,92576,92446
 3.0000e+000 92602 -5.6595e-002 -5.2460e-002 -2.0062e-001 36057 92498,92550,92524
 3.0000e+000 93023 -3.8651e-001 -4.8862e-001 -1.0536e-001 35717 92876,92928,92902
 3.0000e+000 93000 -3.5313e-001 -4.9947e-001 -1.0910e-001 35717 92824,92928,92876
 3.0000e+000 92977 -9.4631e-002 -4.5133e-001 -7.0773e-002 35717 92798,92928,92824
 3.0000e+000 92954 -3.2072e-001 -6.4744e-001 -4.3040e-001 35717 92824,92876,92850
 3.0000e+000 93499  1.0341e-002 -7.5457e-001  3.7536e-001 35405 93522,93309,93257
 3.0000e+000 93476  2.8663e-001 -5.2103e-001  2.5714e-001 35405 93666,93522,93257
 3.0000e+000 93453  1.3246e-001 -2.2532e+000  2.8304e-001 35405 93594,93127,93335
 3.0000e+000 93430 -8.8431e-002 -4.6970e-001  7.9125e-002 35405 93666,93257,93231
 3.0000e+000 93407 -9.8395e-001 -3.0079e+000 -8.4571e-001 35405 93127,93179,93153
 3.0000e+000 93384 -1.2444e+000 -2.5291e-002  3.6911e-001 35405 93179,93231,93205
 3.0000e+000 93361  4.9407e-001  8.1774e-001  2.7040e-001 35405 93257,93309,93283
 3.0000e+000 93548  9.0185e-001 -1.6444e-001  9.5361e-001 35405 93335,93309,93522
 3.0000e+000 93571  3.8813e-001 -1.1609e+000  5.0392e-001 35405 93594,93335,93522
 3.0000e+000 93620  1.1107e-001 -1.0766e+000  1.6550e-001 35405 93179,93127,93594
 3.0000e+000 93643 -1.4122e-001 -6.2797e-001  1.8259e-001 35405 93738,93594,93522
 3.0000e+000 93692 -9.2649e-002 -6.6109e-001  1.0770e-001 35405 93738,93522,93666
 3.0000e+000 93715 -3.5275e-001 -6.9183e-001 -1.0456e-001 35405 93179,93666,93231
 3.0000e+000 93764 -1.8953e-001 -7.3636e-001  1.9683e-001 35405 93179,93594,93738
 3.0000e+000 93787 -1.5640e-001 -7.7477e-001  1.3293e-001 35405 93179,93738,93666
 3.0000e+000 94372  5.7943e-001  3.4959e-002 -1.7772e-001 34951 94395,94127,94075
 3.0000e+000 94349  1.1312e+000 -8.0376e-003 -1.2691e-002 34951 94395,94075,94231
 3.0000e+000 94326  2.7064e-001 -4.3933e-001 -1.6262e-001 34951 94049,94231,94075
 3.0000e+000 94303 -7.9152e-002 -3.0211e-001  2.4613e-001 34951 94075,94127,94101
 3.0000e+000 94280  1.2010e+000  1.6027e-001  3.3349e-001 34951 94127,94205,94153
 3.0000e+000 94257  1.4548e+000  1.1667e-001  6.8931e-001 34951 94153,94205,94179
 3.0000e+000 94421  1.0292e+000 -1.6099e-001  1.6715e-001 34951 94205,94127,94395
 3.0000e+000 94444  2.0590e+000  9.0194e-002  2.9536e-001 34951 94205,94395,94231
 3.0000e+000 94692 -3.1838e-002  7.2406e-002  8.6612e-003 34397 94715,94519,94467
 3.0000e+000 94669 -2.5119e-002  7.3207e-002  4.2363e-003 34397 94715,94467,94597
 3.0000e+000 94646 -2.3823e-002 -9.0759e-003  3.3429e-003 34397 94545,94597,94571
 3.0000e+000 94623 -5.5751e-002  2.3181e-002 -7.2696e-003 34397 94467,94519,94493
 3.0000e+000 94741 -1.9979e-002  6.3570e-002  1.1977e-002 34397 94545,94519,94715
 3.0000e+000 94764 -1.6551e-002  6.8566e-002  2.6835e-003 34397 94545,94715,94597
 3.0000e+000 94985 -4.8245e-002  1.6360e-001 -1.7075e-002 33985 94835,94913,94887
 3.0000e+000 94962  1.4102e-001  6.3193e-001 -4.3790e-002 33985 94809,94913,94835
 3.0000e+000 94939  2.4766e-002  1.6633e-001 -2.3449e-002 33985 94835,94887,94861
 3.0000e+000 95186 -2.7521e-001 -5.5942e-001 -2.9111e-001 33645 95281,95209,95036
 3.0000e+000 95163  5.7076e-002 -7.0096e-001  5.3903e-002 33645 95209,95010,95088
 3.0000e+000 95140  2.7599e-001 -2.7303e-001 -6.2557e-002 33645 95010,95114,95088
 3.0000e+000 95235 -5.8225e-001 -6.6898e-001 -2.7270e-001 33645 95062,95036,95209
 3.0000e+000 95258 -4.3143e-001 -8.9422e-001  2.4290e-001 33645 95413,95209,95088
 3.0000e+000 95307 -1.0307e-001 -3.0982e-001 -3.8292e-001 33645 95010,95209,95281
 3.0000e+000 95439 -2.8419e-001 -6.9004e-001  1.6780e-001 33645 95062,95209,95413
 3.0000e+000 95766 -3.6416e-001  9.2881e-002 -5.2660e-001 33141 95789,95593,95567
 3.0000e+000 95743 -4.6062e-002 -1.4272e-001 -1.9409e-001 33141 95861,95789,95567
 3.0000e+000 95720 -7.5229e-002 -6.3880e-002 -4.9601e-002 33141 95861,95567,95671
 3.0000e+000 95697 -1.0239e-001 -8.1324e-002 -5.7619e-002 33141 95541,95671,95567
 3.0000e+000 95815 -8.8820e-002  7.0600e-001 -4.4692e-001 33141 95619,95593,95789
 3.0000e+000 95838  3.2333e-002  1.7490e-001 -1.9066e-001 33141 95619,95789,95645
 3.0000e+000 95887  6.1435e-002  1.1225e-001 -1.9936e-001 33141 95645,95789,95861
 3.0000e+000 95910  3.6810e-002  1.9283e-001 -3.4698e-002 33141 95645,95861,95671
 3.0000e+000 96060 -4.1627e-001 -3.6405e-001 -3.1883e-001 32487 95959,96011,95985
 3.0000e+000 96037 -5.1879e-003 -2.7545e-001 -6.7179e-002 32487 95933,96011,95959
 3.0000e+000 96570 -3.0265e-001 -2.3950e-001  1.2077e-001 32033 96665,96593,96377
 3.0000e+000 96547 -4.5954e-001  9.1326e-004 -2.8459e-001 32033 96737,96593,96325
 3.0000e+000 96524 -3.3567e-001 -3.5608e-001  3.5041e-002 32033 96665,96377,96351
 3.0000e+000 96501 -5.2343e-001  6.6615e-002 -2.0352e-001 32033 96737,96325,96299
 3.0000e+000 96478 -4.7157e-001  2.5615e-001 -1.8298e-001 32033 96247,96429,96299
 3.0000e+000 96455 -9.2366e-001 -9.4938e-001 -1.4235e-001 32033 96247,96299,96273
 3.0000e+000 96619 -1.7500e-002 -1.7499e-002  1.0455e-001 32033 96809,96593,96403
 3.0000e+000 96642  2.2457e-001  6.2873e-001 -6.0713e-001 32033 96403,96593,96429
 3.0000e+000 96691 -1.2207e-001 -5.1636e-001 -6.5181e-003 32033 96325,96593,96665
 3.0000e+000 96714 -2.7583e-001 -7.2843e-001 -1.2086e-001 32033 96325,96665,96351
 3.0000e+000 96763 -5.7469e-001 -6.5104e-002 -3.1165e-001 32033 96429,96593,96737
 3.0000e+000 96786 -5.9681e-001  1.2517e-002 -2.2717e-001 32033 96429,96737,96299
 3.0000e+000 96835 -3.5622e-002 -1.0289e-001  6.2677e-002 32033 96377,96593,96809
 3.0000e+000 97064  1.6030e-003  3.6623e-002  2.2166e-002 31671 97087,96989,96963
 3.0000e+000 97041  6.3205e-003  5.1636e-002 -1.4294e-002 31671 97087,96963,96937
 3.0000e+000 97113 -2.8407e-002  2.4761e-002  2.0576e-002 31671 97159,97087,97015
 3.0000e+000 97136 -2.2035e-002 -1.9925e-002 -7.6804e-003 31671 97015,97087,96937
 3.0000e+000 97185 -8.9313e-003  1.8222e-002  1.6762e-002 31671 96989,97087,97159
 3.0000e+000 97563 -3.6523e-002  4.9373e-002  2.6226e-003 31117 97586,97367,97341
 3.0000e+000 97540 -1.6372e-002  3.2789e-002 -1.5547e-002 31117 97658,97586,97341
 3.0000e+000 97517  6.6910e-003  2.0774e-002 -6.2039e-003 31117 97658,97341,97315
 3.0000e+000 97494 -6.4859e-002 -1.2729e-002 -2.0746e-002 31117 97289,97445,97315
 3.0000e+000 97471 -1.7948e-002  2.6271e-002  2.9158e-003 31117 97367,97419,97393
 3.0000e+000 97612 -2.5652e-002 -5.9276e-003  6.7014e-003 31117 97419,97367,97586
 3.0000e+000 97635 -6.2782e-002  1.2641e-002 -3.4875e-002 31117 97419,97586,97445
 3.0000e+000 97684 -5.5433e-002  2.6968e-002 -1.2320e-002 31117 97445,97586,97658
 3.0000e+000 97707 -2.9188e-002  1.7400e-002 -2.7005e-003 31117 97445,97658,97315
 3.0000e+000 98215 -1.9335e-001 -5.6639e-002 -2.7215e-001 30563 98238,97996,97944
 3.0000e+000 98192 -3.6352e-001 -1.1315e-002 -2.7121e-001 30563 98310,98238,97944
 3.0000e+000 98169 -5.3126e-001 -3.2755e-001 -3.3398e-001 30563 98310,97944,97918
 3.0000e+000 98146 -1.3530e-001 -4.4562e-002  3.6647e-003 30563 97892,98074,97918
 3.0000e+000 98123 -5.2468e-002  1.9795e-001 -1.7108e-001 30563 97996,98048,98022
 3.0000e+000 98100 -3.7072e-001 -1.9896e-003 -4.5704e-001 30563 97944,97996,97970
 3.0000e+000 98264 -2.0858e-001  1.6173e-002 -2.5750e-001 30563 98048,97996,98238
 3.0000e+000 98287 -1.2082e-001  3.4869e-001  2.0392e-002 30563 98048,98238,98074
 3.0000e+000 98336 -2.9576e-001 -1.4497e-001 -4.2773e-002 30563 98074,98238,98310
 3.0000e+000 98359 -3.5950e-001 -2.2481e-001 -7.4558e-002 30563 98074,98310,97918
 3.0000e+000 98607 -6.0612e-001  7.4000e-002 -3.5864e-003 30073 98630,98460,98408
 3.0000e+000 98584 -9.4528e-001  5.4376e-002 -5.5840e-002 30073 98630,98408,98382
 3.0000e+000 98561 -2.0162e-001  2.3547e-001 -1.6825e-001 30073 98382,98512,98486
 3.0000e+000 98538 -4.3885e-001 -1.5095e-002  1.4999e-001 30073 98408,98460,98434
 3.0000e+000 98656 -4.3346e-001 -3.1339e-002 -7.0524e-002 30073 98486,98460,98630
 3.0000e+000 98679 -6.6115e-001  3.7357e-002 -1.1933e-001 30073 98486,98630,98382
 3.0000e+000 99157  3.3979e-001 -1.0629e-001  1.6186e-001 29669 99180,98837,98811
 3.0000e+000 99134  2.5621e-001 -1.4963e-002  2.9758e-001 29669 99324,99180,98811
 3.0000e+000 99111  2.5098e-001  2.9841e-001 -1.5608e-001 29669 99252,98863,98837
 3.0000e+000 99088  1.6556e-001 -2.2923e-001  3.6828e-001 29669 99324,98811,98993
 3.0000e+000 99065 -7.2086e-001  3.8102e-001  6.2270e-002 29669 98863,98941,98915
 3.0000e+000 99042 -6.8090e-001  3.6464e-001  8.0702e-002 29669 98863,98915,98889
 3.0000e+000 99019 -2.2830e-002 -2.5618e-001  6.5606e-001 29669 98785,98993,98811
 3.0000e+000 99206  1.9154e-001 -1.6038e-001  1.6652e-003 29669 99252,98837,99180
 3.0000e+000 99229 -1.6554e-001  1.3210e-001  2.5590e-001 29669 98941,99180,98967
 3.0000e+000 99278  4.7552e-002  6.3868e-001 -9.2647e-002 29669 98941,98863,99252
 3.0000e+000 99301  1.8324e-001  4.3514e-001  8.4273e-002 29669 98941,99252,99180
 3.0000e+000 99350  1.2927e-001  2.5326e-001  2.5090e-001 29669 98967,99180,99324
 3.0000e+000 99373  1.1268e-001  9.7042e-002  2.8557e-001 29669 98967,99324,98993
 3.0000e+000 99958  3.6363e-001  2.8293e-001  6.7503e-002 29051 99981,99765,99739
 3.0000e+000 99935  7.7867e-002  4.4175e-002 -6.5803e-002 29051 99981,99739,99661
 3.0000e+000 99912  4.2536e-001 -4.1096e-001 -1.8912e-001 29051 99765,99817,99791
 3.0000e+000 99889 -3.8914e-001 -2.3519e-001  2.3645e-001 29051 99635,99817,99661
 3.0000e+000 99866 -5.0661e-001 -1.6956e-003  3.5871e-001 29051 99661,99739,99687
 3.0000e+000 99843 -6.2903e-001  1.6047e-001  1.8392e-001 29051 99687,99739,99713
 3.0000e+000 100007  5.5401e-001  1.5525e-002  7.4312e-002 29051 99817,99765,99981
 3.0000e+000 100030  3.7741e-001 -6.5177e-002  2.5717e-003 29051 99817,99981,99661
 3.0000e+000 100278  6.7202e-001  3.1035e-001  1.4237e-001 28525 100445,100301,100131
 3.0000e+000 100255  1.3994e-001  3.7057e-001  6.0895e-002 28525 100373,100301,100079
 3.0000e+000 100232  1.1645e-001  1.3575e-002  1.1124e-001 28525 100373,100079,100053
 3.0000e+000 100209  4.6839e-001  5.0887e-001 -4.9571e-002 28525 100445,100131,100105
 3.0000e+000 100327  1.3890e+000  1.3398e-001  1.0346e-001 28525 100517,100301,100157
 3.0000e+000 100350  4.0390e-001  3.6275e-001 -1.8853e-001 28525 100157,100301,100183
 3.0000e+000 100399  1.1811e-001 -7.0053e-004  2.4324e-001 28525 100183,100301,100373
 3.0000e+000 100422  1.7628e-001 -2.5439e-001  2.8975e-001 28525 100183,100373,100053
 3.0000e+000 100471  4.0023e-001  1.4477e-001 -1.2574e-001 28525 100079,100301,100445
 3.0000e+000 100494 -1.2893e-001  8.0380e-002 -3.5072e-001 28525 100079,100445,100105
 3.0000e+000 100543  1.1686e+000  1.6277e-001 -5.0067e-002 28525 100131,100301,100517
 3.0000e+000 101209 -1.5363e+000  1.6827e-001  2.9418e-002 28185 100938,101016,100990
 3.0000e+000 101186 -1.6175e+000 -7.3401e-002 -1.1499e-001 28185 100912,101016,100938
 3.0000e+000 101163 -5.6455e-001  2.6968e-001 -8.8397e-003 28185 100912,101068,101016
 3.0000e+000 101140 -1.9230e+000 -3.4896e-001 -3.3837e-001 28185 100886,101068,100912
 3.0000e+000 101117 -6.1117e-001  1.6450e-001  4.8831e-003 28185 101016,101068,101042
 3.0000e+000 101094 -3.8363e+000 -5.6627e-001  4.3687e-002 28185 100938,100990,100964
 3.0000e+000 101408  8.2175e-002 -7.9051e-002 -2.4405e-001 27781 101503,101431,101310
 3.0000e+000 101385 -3.0027e-001  3.3098e-001 -5.3588e-001 27781 101431,101258,101232
 3.0000e+000 101362  2.2127e-001 -1.4512e-001 -3.1253e-001 27781 101503,101310,101284
 3.0000e+000 101457  7.6070e-001  2.8792e-001 -3.8469e-001 27781 101336,101310,101431
 3.0000e+000 101480  1.7560e-001  5.9416e-001 -7.1282e-001 27781 101575,101431,101232
 3.0000e+000 101529  3.0863e-001  5.7214e-003 -4.7585e-001 27781 101258,101431,101503
 3.0000e+000 101552  1.4324e-001 -3.6524e-001 -2.9158e-001 27781 101705,101503,101284
 3.0000e+000 101601  2.8897e-001  7.5095e-001 -7.7097e-001 27781 101336,101431,101575
 3.0000e+000 101731 -1.4562e-001 -1.8685e-001 -4.6650e-001 27781 101258,101503,101705
 3.0000e+000 102237 -6.3082e-001 -2.9325e-001  3.3128e-002 27419 102476,102260,101992
 3.0000e+000 102214 -4.3319e-001 -4.1252e-001 -4.1917e-002 27419 102260,101940,101914
 3.0000e+000 102191 -6.7364e-001 -4.5943e-001  8.8411e-002 27419 102404,102332,102096
 3.0000e+000 102168 -5.9638e-001 -4.1643e-001  2.1240e-002 27419 102404,102096,102044
 3.0000e+000 102145 -5.9196e-001 -3.2350e-001  5.6289e-002 27419 102476,101992,101966
 3.0000e+000 102122 -4.2346e-001 -4.2708e-001 -4.5844e-004 27419 102044,102096,102070
 3.0000e+000 102286 -8.0610e-001 -4.5437e-001  1.1286e-001 27419 102018,101992,102260
 3.0000e+000 102309 -6.4292e-001 -3.7008e-001 -3.3560e-004 27419 102332,102018,102260
 3.0000e+000 102358 -6.9773e-001 -7.5685e-001  2.0380e-001 27419 101914,102096,102332
 3.0000e+000 102381 -5.9179e-001 -5.3730e-001  3.2462e-002 27419 101914,102332,102260
 3.0000e+000 102430 -5.2694e-001 -4.5456e-001 -1.5900e-002 27419 102018,102332,102404
 3.0000e+000 102453 -4.6020e-001 -3.8271e-001 -9.0503e-002 27419 102018,102404,102044
 3.0000e+000 102502 -5.3188e-001 -3.7015e-001  5.8054e-002 27419 101940,102260,102476
 3.0000e+000 102525 -1.1064e-001 -1.7746e-001  1.1298e-002 27419 101940,102476,101966
 3.0000e+000 103031 -6.3459e-001  5.9481e-001  4.6164e-001 26715 102708,102786,102760
 3.0000e+000 103008  3.9182e-003 -1.9556e-001  4.2367e-002 26715 102708,102890,102786
 3.0000e+000 102985  8.0838e-001 -3.6159e-001  1.4803e-002 26715 102838,102890,102864
 3.0000e+000 102962  2.6160e-001  4.2044e-001  8.0272e-002 26715 102786,102890,102838
 3.0000e+000 102939  1.1453e+000  8.5975e-001  5.7665e-001 26715 102786,102838,102812
 3.0000e+000 102916 -1.0309e+000 -3.4591e-002  1.8476e-001 26715 102708,102760,102734
 3.0000e+000 103279 -4.3710e-004  2.8952e-002 -6.5562e-002 26303 103302,103158,103080
 3.0000e+000 103256  9.2564e-002 -4.7870e-002 -6.8834e-002 26303 103302,103080,103054
 3.0000e+000 103233  2.0380e-001  1.2800e-001 -2.8830e-002 26303 103080,103158,103106
 3.0000e+000 103210 -2.7046e-001  3.5465e-003 -3.4691e-002 26303 103106,103158,103132
 3.0000e+000 103328 -1.6034e-001 -4.2645e-002 -3.3592e-002 26303 103184,103158,103302
 3.0000e+000 103351  1.8994e-002 -5.2936e-002 -5.2614e-002 26303 103184,103302,103054
 3.0000e+000 103501 -6.8260e-001 -3.5971e-001  2.9922e-002 25849 103374,103426,103400
 3.0000e+000 103478 -6.2865e-001 -3.8327e-001  4.9380e-003 25849 103374,103452,103426
 3.0000e+000 104090 -5.6151e-002  1.2163e-001  8.5050e-002 25445 103793,103871,103819
 3.0000e+000 104067  1.5439e-001  3.3965e-002 -3.8986e-003 25445 103793,103949,103871
 3.0000e+000 104044  2.4871e-001  1.9098e-001  4.8938e-002 25445 103871,103949,103923
 3.0000e+000 104021 -1.7875e-001  1.6022e-001 -7.2271e-002 25445 103819,103871,103845
 3.0000e+000 103998  1.8044e-001  1.4834e-001  1.9265e-001 25445 103767,103949,103793
 3.0000e+000 103975  3.2613e-001  1.3274e-001  3.9904e-002 25445 103871,103923,103897
 3.0000e+000 104419 -3.2497e-001 -1.8797e-001 -1.0487e-001 25083 104220,104298,104272
 3.0000e+000 104396 -5.5926e-001 -4.4111e-001 -7.1429e-003 25083 104220,104324,104298
 3.0000e+000 104373 -2.8819e-001 -2.3555e-001 -6.1026e-002 25083 104220,104272,104246
 3.0000e+000 104350 -5.4250e-001 -3.9109e-001  9.6876e-003 25083 104194,104324,104220
 3.0000e+000 105102  1.8820e-002 -2.2469e-001 -8.3073e-002 24793 104785,104863,104837
 3.0000e+000 105079 -5.1892e-002 -5.4766e-001 -2.7026e-001 24793 104759,104863,104785
 3.0000e+000 105056 -9.5313e-002 -1.1748e-001 -2.6985e-001 24793 104759,104915,104863
 3.0000e+000 105033 -1.7479e-001 -2.0585e-001 -2.2666e-001 24793 104733,104915,104759
 3.0000e+000 105010  1.3107e-001 -2.9311e-002 -2.3121e-001 24793 104863,104915,104889
 3.0000e+000 104987 -3.1787e-001 -5.0010e-002 -3.3810e-001 24793 104681,104915,104733
 3.0000e+000 104964 -8.0749e-002 -3.2899e-001 -1.3303e-001 24793 104785,104837,104811
 3.0000e+000 104941 -2.4482e-001  2.2180e-001 -3.3067e-001 24793 104681,104733,104707
 3.0000e+000 105252  7.7482e-001  7.7248e-001 -4.1445e-002 24389 105477,105275,105177
 3.0000e+000 105229  6.0068e-001  8.1988e-001  1.4568e-002 24389 105347,105275,105151
 3.0000e+000 105301  8.3705e-001  7.0569e-001 -7.3967e-002 24389 105203,105177,105275
 3.0000e+000 105324  9.2661e-001  1.0185e+000  8.1911e-002 24389 105203,105275,105125
 3.0000e+000 105373  7.3155e-001  5.9264e-001  3.2273e-002 24389 105125,105275,105347
 3.0000e+000 105503  8.1261e-001  8.4543e-001 -2.7360e-002 24389 105151,105275,105477
 3.0000e+000 106088 -6.0717e-001  4.3733e-001  5.8686e-001 23735 105791,105921,105895
 3.0000e+000 106065 -1.9556e+000 -5.4550e-002  6.6122e-001 23735 105765,105921,105791
 3.0000e+000 106042 -3.4733e-001  6.1752e-001  3.4822e-001 23735 105765,105947,105921
 3.0000e+000 106019 -2.2010e+000 -6.1595e-002  7.9359e-001 23735 105817,105895,105869
 3.0000e+000 105996 -1.4163e+000  1.7079e-001  7.2991e-001 23735 105791,105895,105817
 3.0000e+000 105973 -1.2628e+000  6.8600e-002  6.5799e-001 23735 105817,105869,105843
 3.0000e+000 106417  5.5362e-001  1.7172e+000 -3.6687e-001 23295 106218,106296,106270
 3.0000e+000 106394  2.1781e-001  5.2969e-001 -2.9341e-001 23295 106218,106322,106296
 3.0000e+000 106371 -5.2887e-002  3.0882e-001 -4.0992e-001 23295 106218,106270,106244
 3.0000e+000 106348  4.2052e-001  6.1616e-001 -1.0460e-001 23295 106192,106322,106218
 3.0000e+000 106746 -6.8278e-002  5.4773e-001  1.6477e-001 23005 106521,106599,106547
 3.0000e+000 106723  4.5450e-001  7.9301e-001  7.8410e-003 23005 106521,106651,106599
 3.0000e+000 106700  2.9914e-001  4.7929e-001 -5.7183e-002 23005 106547,106599,106573
 3.0000e+000 106677  6.1093e-001  7.5874e-001  3.9508e-001 23005 106599,106651,106625
 3.0000e+000 107331 -1.8168e-001  1.0203e-001 -1.5305e-001 22601 107060,107190,107138
 3.0000e+000 107308 -6.0345e-001 -1.8527e-002 -3.1835e-001 22601 107034,107190,107060
 3.0000e+000 107285 -8.9533e-001 -2.3230e-001 -2.8921e-001 22601 107060,107138,107112
 3.0000e+000 107262 -9.4751e-001 -1.5898e-001 -3.2506e-001 22601 107008,107190,107034
 3.0000e+000 107239 -3.1152e-002  5.9626e-001 -6.3305e-001 22601 107060,107112,107086
 3.0000e+000 107216 -3.2148e-001  2.0205e-001 -6.0706e-002 22601 107138,107190,107164
 3.0000e+000 107807 -4.7689e-001  1.1993e-002 -8.4312e-002 22031 107974,107902,107617
 3.0000e+000 107784 -5.6932e-001  2.7170e-001 -2.1958e-001 22031 107830,107565,107513
 3.0000e+000 107761 -4.0053e-001 -3.4675e-002 -2.6199e-001 22031 108046,107830,107513
 3.0000e+000 107738 -3.7230e-001  1.9322e-001  1.4657e-002 22031 107974,107617,107591
 3.0000e+000 107715 -4.4319e-001 -1.5104e-001 -2.4988e-001 22031 108046,107513,107461
 3.0000e+000 107692 -1.3681e+000  4.2528e-001 -3.7318e-001 22031 107513,107565,107539
 3.0000e+000 107669 -2.3465e-001  1.9447e-001 -3.4218e-001 22031 107461,107513,107487
 3.0000e+000 107856 -6.8630e-001  1.1444e-001 -1.5314e-001 22031 107902,107565,107830
 3.0000e+000 107879 -4.3780e-001 -1.7942e-001 -3.1513e-002 22031 107643,107830,107435
 3.0000e+000 107928 -8.7556e-001  2.8356e-001 -3.6592e-001 22031 107643,107617,107902
 3.0000e+000 107951 -6.3181e-001  1.0862e-001  8.5626e-003 22031 107643,107902,107830
 3.0000e+000 108000 -6.0131e-001  2.6919e-001 -1.0572e-001 22031 107565,107902,107974
 3.0000e+000 108023 -5.8171e-001  2.1252e-001 -8.2175e-002 22031 107565,107974,107591
 3.0000e+000 108072 -3.3136e-001 -1.7991e-001 -9.4878e-002 22031 107435,107830,108046
 3.0000e+000 108095 -4.0876e-001 -3.6496e-001 -8.4023e-002 22031 107435,108046,107461
 3.0000e+000 108196  6.9417e-002  2.5634e-002 -1.4977e-001 21783 108118,108170,108144
 3.0000e+000 108655  1.3450e-001  7.6213e-001  4.4948e-001 21379 108407,108485,108459
 3.0000e+000 108632  1.5310e+000 -5.7753e-002  6.3858e-001 21379 108407,108511,108485
 3.0000e+000 108609  1.5685e+000 -2.8652e-001  3.5767e-001 21379 108381,108511,108407
 3.0000e+000 108586  7.1511e-001  3.9766e-001 -5.7887e-001 21379 108381,108537,108511
 3.0000e+000 108563  4.0558e-001  1.0424e-001  2.0484e-001 21379 108407,108459,108433
 3.0000e+000 109082 -7.6338e-002  4.9071e-001  1.4854e-001 20974 109105,108863,108811
 3.0000e+000 109059  2.7277e-001  6.8297e-001 -1.1744e-001 20974 109105,108811,108759
 3.0000e+000 109036 -7.4240e-002  9.2258e-001 -4.0795e-004 20974 109177,108889,108863
 3.0000e+000 109013  5.8926e-001  1.0199e+000 -1.0903e-001 20974 108811,108863,108837
 3.0000e+000 108990 -2.5236e-001  2.2301e-002 -3.6618e-002 20974 108759,108941,108915
 3.0000e+000 108967  1.2452e-001 -1.8935e-001  1.6729e-002 20974 108759,108811,108785
 3.0000e+000 109131  4.6951e-002  7.5106e-001  9.6883e-002 20974 109177,108863,109105
 3.0000e+000 109154 -3.2927e-003  4.3366e-002 -2.2642e-002 20974 108915,109105,108759
 3.0000e+000 109203 -1.0983e-001  7.8446e-001  1.7547e-001 20974 108915,108889,109177
 3.0000e+000 109226 -1.0678e-001  4.0481e-001  2.5952e-001 20974 108915,109177,109105
 3.0000e+000 109496 -6.9608e-001  2.7788e-003 -6.2474e-002 20470 109271,109375,109297
 3.0000e+000 109473 -6.3485e-001  8.7503e-002 -1.0351e-001 20470 109271,109401,109375
 3.0000e+000 109450 -8.0104e-001 -1.3989e-001 -1.1309e-001 20470 109297,109375,109349
 3.0000e+000 109427 -1.0852e+000 -7.0825e-001  1.9810e-001 20470 109297,109349,109323
 3.0000e+000 109955  1.5865e-001  1.3830e+000  8.4668e-001 20123 110050,109733,109707
 3.0000e+000 109932 -6.7552e-001  6.4931e-001  4.9203e-001 20123 110050,109707,109681
 3.0000e+000 109909  1.2903e-001  2.8770e-001  4.9666e-001 20123 109978,109759,109733
 3.0000e+000 109886 -1.5455e-001  2.4360e-001  4.8273e-001 20123 110122,109978,109733
 3.0000e+000 109863  2.6148e-001  2.0878e-001  2.7788e-001 20123 109785,109837,109811
 3.0000e+000 110004  1.3416e-001  3.6234e-001  3.5108e-001 20123 109785,109759,109978
 3.0000e+000 110027  1.4304e-002  2.8477e-001  2.9450e-001 20123 109785,109978,109837
 3.0000e+000 110076 -3.1080e-001  4.6969e-001  3.8542e-001 20123 110122,109733,110050
 3.0000e+000 110099 -2.9988e-001  4.1787e-001  1.1064e-001 20123 109837,110050,109681
 3.0000e+000 110148  1.4663e-001  5.6632e-001  3.5142e-001 20123 109837,109978,110122
 3.0000e+000 110171  3.7950e-003  7.6087e-001  2.5067e-001 20123 109837,110122,110050
 3.0000e+000 110500  8.4931e-001  2.0451e-001 -1.9610e-001 19511 110301,110379,110353
 3.0000e+000 110477  1.4588e+000  8.0372e-001 -4.5404e-001 19511 110301,110405,110379
 3.0000e+000 110454  3.4949e-001  2.3270e-001 -1.8709e-001 19511 110275,110405,110301
 3.0000e+000 110431  7.4623e-001  3.0063e-001  3.0100e-001 19511 110301,110353,110327
 3.0000e+000 110957 -1.1143e-001  9.9490e-001 -5.7523e-001 19107 110683,110735,110709
 3.0000e+000 110934 -9.1015e-002 -2.7666e-001 -9.5411e-001 19107 110683,110813,110735
 3.0000e+000 110911  3.2759e-001  6.0696e-001 -8.0856e-001 19107 110735,110813,110761
 3.0000e+000 110888 -5.7641e-001 -6.8298e-001 -5.8804e-001 19107 110683,110839,110813
 3.0000e+000 110865  1.4462e-001  1.6661e-001 -8.1824e-001 19107 110761,110813,110787
 3.0000e+000 111335 -2.8521e-001 -3.7967e-001 -9.8213e-002 18653 111087,111165,111139
 3.0000e+000 111312 -3.7349e-002 -1.5434e-001 -1.9224e-001 18653 111087,111217,111165
 3.0000e+000 111289 -2.4389e-001 -2.8262e-001  8.0032e-002 18653 111061,111217,111087
 3.0000e+000 111266 -2.8384e-001 -3.3520e-001 -1.2227e-001 18653 111087,111139,111113
 3.0000e+000 111243 -3.7397e-002 -1.8006e-001 -1.5655e-001 18653 111165,111217,111191
 3.0000e+000 111735 -1.1095e+000 -4.4014e-001  5.1860e-003 18213 111461,111513,111487
 3.0000e+000 111712 -1.1263e+000 -7.8502e-001  2.1108e-002 18213 111461,111617,111513
 3.0000e+000 111689 -1.0636e+000 -6.7117e-001 -1.1680e-001 18213 111513,111617,111591
 3.0000e+000 111666 -4.3647e-001 -3.3465e-001  1.0585e-001 18213 111513,111591,111539
 3.0000e+000 111643 -1.3572e-001 -3.2102e-001  1.4351e-002 18213 111539,111591,111565
 3.0000e+000 111885  4.5211e-001 -3.8342e-001  2.2647e-001 17659 111784,111836,111810
 3.0000e+000 111862  1.0184e+000  2.1470e-001  4.8252e-001 17659 111758,111836,111784
 3.0000e+000 112287 -2.6357e-003  3.6112e-001 -2.4681e-001 17411 112065,112169,112143
 3.0000e+000 112264 -1.1145e+000  5.9744e-002  9.8038e-002 17411 112039,112169,112065
 3.0000e+000 112241 -1.1866e+000  4.8152e-002 -6.1411e-002 17411 112013,112169,112039
 3.0000e+000 112218  2.8189e+000  6.5184e-001 -6.1139e-001 17411 112091,112143,112117
 3.0000e+000 112195 -3.6700e-002 -1.1118e-001  1.2732e-001 17411 112065,112143,112091
 3.0000e+000 112508 -6.8794e-001  3.3677e-001  7.0010e-002 17007 112384,112436,112410
 3.0000e+000 112485 -5.4248e-001  4.6969e-001  1.2745e-001 17007 112332,112436,112384
 3.0000e+000 112462 -6.7636e-001  2.1094e-001  7.9454e-002 17007 112332,112384,112358
 3.0000e+000 112658 -1.8256e+000 -4.4695e-001  3.3023e-001 16553 112557,112609,112583
 3.0000e+000 112635 -2.0324e+000 -2.3337e-001  3.9655e-001 16553 112531,112609,112557
 3.0000e+000 112761 -3.6936e-001  1.3659e+000 -2.3107e-001 16355 112683,112735,112709
 3.0000e+000 112913 -1.0518e+000  4.5477e-001  5.7188e-002 15949 112786,112838,112812
 3.0000e+000 112890 -5.5495e-001  1.3026e+000 -1.8154e-001 15949 112786,112864,112838
 3.0000e+000 113065  1.3211e-001 -1.0425e-001 -5.1864e-002 15609 112938,112990,112964
 3.0000e+000 113042  4.4684e-001  4.9320e-002  1.1008e-002 15609 112938,113016,112990
 3.0000e+000 113420  6.6098e-001  5.4100e-001  2.2940e-001 15284 113247,113325,113299
 3.0000e+000 113397  6.1532e-001  4.2908e-001  1.2642e-001 15284 113195,113325,113247
 3.0000e+000 113374  3.9031e-001  3.6999e-001  6.7992e-002 15284 113195,113247,113221
 3.0000e+000 113351  6.0471e-001  9.0465e-001  2.5044e-001 15284 113247,113299,113273
 3.0000e+000 113521  3.6133e-001 -1.5705e-001  1.8405e-001 202 113443,113495,113469
 3.5000e+000 65564  1.7515e-001  2.9412e-002 -2.9218e-001 65155 65414,65466,65440
 3.5000e+000 65541 -1.8235e-001 -1.9042e-002 -8.7674e-003 65155 65414,65492,65466
 3.5000e+000 65518 -1.2258e-002  3.9588e-002  1.6164e-002 65155 65388,65492,65414
 3.5000e+000 65883 -3.9367e-001  1.5052e+000  3.4888e-003 64957 65635,65739,65713
 3.5000e+000 65860 -1.9136e-001  2.6430e+000  4.3594e-002 64957 65635,65765,65739
 3.5000e+000 65837  2.2006e-001  2.8404e+000 -1.7602e-002 64957 65609,65765,65635
 3.5000e+000 65814 -3.0030e-001  2.0207e+000 -6.6120e-001 64957 65635,65713,65687
 3.5000e+000 65791 -1.4793e-001  2.4485e+000 -4.2296e-001 64957 65635,65687,65661
 3.5000e+000 65984 -4.8652e-001  5.0927e-001  3.6075e-001 64781 65906,65958,65932
 3.5000e+000 66232  7.0707e-001  8.6024e-001 -7.7110e-001 64469 66007,66059,66033
 3.5000e+000 66209 -7.6106e-001 -1.2944e-001 -1.2397e+000 64469 66007,66085,66059
 3.5000e+000 66186 -8.8867e-002  1.6972e+000 -1.4868e-001 64469 66007,66137,66085
 3.5000e+000 66163 -1.4349e+000  5.3838e-002 -1.8305e+000 64469 66085,66137,66111
 3.5000e+000 66504 -9.2609e-003  2.5254e+000 -1.3328e-001 64271 66279,66383,66305
 3.5000e+000 66481 -2.8206e-001  2.5548e+000  7.4571e-002 64271 66279,66409,66383
 3.5000e+000 66458 -4.9659e-001  3.3010e+000 -1.8204e-001 64271 66305,66357,66331
 3.5000e+000 66435  1.6691e-001  3.1435e+000 -2.0939e-001 64271 66305,66383,66357
 3.5000e+000 66705  2.1098e-001  3.0192e+000 -5.7384e-001 64073 66728,66581,66555
 3.5000e+000 66682  7.2232e-001  3.0636e+000 -4.8545e-001 64073 66728,66555,66529
 3.5000e+000 66659 -1.0799e+000  4.0350e+000  8.4743e-001 64073 66581,66633,66607
 3.5000e+000 66754 -1.3521e-001  3.1344e+000 -6.1228e-001 64073 66633,66581,66728
 3.5000e+000 66777  1.7782e-001  3.0531e+000 -4.7206e-001 64073 66633,66728,66529
 3.5000e+000 66951  4.9751e-001 -2.5511e-002  6.3372e-001 63783 66824,66876,66850
 3.5000e+000 66928 -1.7672e+000  1.3412e+000 -2.3152e-001 63783 66824,66902,66876
 3.5000e+000 67201  9.5226e-001  3.3323e+000 -1.3576e-001 63585 66976,67080,67054
 3.5000e+000 67178  5.6519e-001  3.1889e+000 -3.4954e-001 63585 66976,67106,67080
 3.5000e+000 67155  2.1583e-001  1.4512e+000  1.3614e-001 63585 66976,67054,67028
 3.5000e+000 67132  4.6107e-001  1.8844e+000  5.3709e-001 63585 66976,67028,67002
 3.5000e+000 67654 -2.6518e-001  1.9196e+000  5.2601e-002 63295 67357,67487,67383
 3.5000e+000 67631 -3.4906e-001  2.5775e+000 -5.1646e-001 63295 67331,67487,67357
 3.5000e+000 67608  1.3898e-001  3.3052e+000  9.1347e-002 63295 67331,67513,67487
 3.5000e+000 67585 -3.2589e-002  3.4565e+000 -1.0807e-001 63295 67435,67487,67461
 3.5000e+000 67562  1.3736e-001  3.3764e+000  4.7805e-002 63295 67383,67487,67435
 3.5000e+000 67539 -2.1395e-002  2.7388e+000 -1.2875e-001 63295 67383,67435,67409
 3.5000e+000 67853  6.7175e-002  2.4503e+000 -5.9516e-002 62891 67876,67703,67677
 3.5000e+000 67830  1.4835e-001  2.9090e+000 -1.9079e-002 62891 67876,67677,67781
 3.5000e+000 67807 -2.2491e-001  2.0031e+000 -6.6652e-002 62891 67948,67729,67703
 3.5000e+000 67902  2.4725e-002  2.3418e+000 -2.7252e-001 62891 67948,67703,67876
 3.5000e+000 67925  6.3874e-001  2.4817e+000 -3.5160e-001 62891 67755,67876,67781
 3.5000e+000 67974  1.9872e-001  1.5753e+000 -1.4193e-002 62891 67755,67729,67948
 3.5000e+000 67997  2.2480e-001  1.7379e+000 -1.5904e-001 62891 67755,67948,67876
 3.5000e+000 68218  4.4346e-002 -5.3959e-002 -9.3514e-002 62693 68042,68120,68068
 3.5000e+000 68195  7.3360e-004 -2.0574e-002  2.2763e-002 62693 68042,68146,68120
 3.5000e+000 68172 -2.1295e-001  1.6401e-001 -6.2893e-002 62693 68068,68120,68094
 3.5000e+000 68468 -7.8961e-001  3.1469e+000 -2.0152e+000 62289 68491,68295,68269
 3.5000e+000 68445  3.8490e-001  2.8774e+000 -2.4673e-001 62289 68563,68491,68269
 3.5000e+000 68422  2.3528e-001  2.3316e+000 -6.2524e-001 62289 68563,68269,68243
 3.5000e+000 68399 -1.7358e+000  6.5047e+000 -2.4563e+000 62289 68295,68347,68321
 3.5000e+000 68517 -5.8737e-002  7.2240e+000 -2.2507e+000 62289 68347,68295,68491
 3.5000e+000 68540 -6.1456e-001  3.9024e+000 -7.5581e-002 62289 68347,68491,68373
 3.5000e+000 68589  2.7643e-001  1.8200e+000 -4.0490e-001 62289 68373,68491,68563
 3.5000e+000 68612  4.0403e-001  1.6232e+000 -7.6848e-001 62289 68373,68563,68243
 3.5000e+000 68911  1.1966e-001  2.3183e+000 -8.4766e-002 62091 69222,68934,68741
 3.5000e+000 68888 -4.4850e-001  2.4290e+000 -7.6079e-002 62091 69006,68934,68689
 3.5000e+000 68865 -7.0960e-001  2.1292e+000 -3.4688e-001 62091 69006,68689,68663
 3.5000e+000 68842  4.1522e-001  2.7724e+000  4.0281e-001 62091 69078,68793,68767
 3.5000e+000 68819  2.2258e-001  2.3816e+000 -2.4903e-001 62091 69222,68741,68715
 3.5000e+000 68960  4.9061e-001  2.5694e+000 -1.9857e-001 62091 68767,68741,68934
 3.5000e+000 68983  2.0143e-001  2.9318e+000  7.6815e-002 62091 69078,68767,68934
 3.5000e+000 69032 -3.6021e-001  2.6352e+000 -2.1741e-002 62091 69150,69006,68637
 3.5000e+000 69055 -3.6234e-001  2.5604e+000 -1.0425e-001 62091 68637,69006,68663
 3.5000e+000 69104  2.1769e-001  2.3103e+000  4.2617e-002 62091 68637,68793,69078
 3.5000e+000 69127 -3.0006e-001  2.5708e+000 -5.5226e-002 62091 69150,68637,69078
 3.5000e+000 69176 -1.6801e-001  2.4452e+000  2.1517e-002 62091 68934,69006,69150
 3.5000e+000 69199  5.9990e-002  2.5571e+000 -7.6829e-002 62091 68934,69150,69078
 3.5000e+000 69248  4.2059e-002  2.1475e+000 -6.6248e-002 62091 68689,68934,69222
 3.5000e+000 69271  6.8181e-002  2.0958e+000 -1.8143e-001 62091 68689,69222,68715
 3.5000e+000 69521 -2.3013e+000  1.5401e+000  6.6311e-001 61893 69544,69348,69296
 3.5000e+000 69498 -8.2456e-001  2.3332e+000  3.5830e-001 61893 69544,69296,69400
 3.5000e+000 69475  2.8314e-001  1.4511e+000 -5.4731e-001 61893 69296,69426,69400
 3.5000e+000 69452 -1.8492e-001  7.4977e+000  1.2239e-001 61893 69296,69348,69322
 3.5000e+000 69570 -1.5709e+000  1.6206e-001  2.0494e+000 61893 69374,69348,69544
 3.5000e+000 69593  1.1996e+000  1.5422e+000  1.5674e+000 61893 69374,69544,69400
 3.5000e+000 70046 -1.9608e-001  2.1945e+000 -3.6044e-002 61467 69749,69905,69879
 3.5000e+000 70023 -2.6640e-001  1.7910e+000 -5.1752e-001 61467 69723,69905,69749
 3.5000e+000 70000 -3.1195e-001  2.0817e+000  1.0403e-002 61467 70069,69827,69775
 3.5000e+000 69977  2.7041e-001  3.3864e+000 -4.4156e-001 61467 70069,69775,69749
 3.5000e+000 69954  3.7673e-002  1.1495e+000  2.1403e-002 61467 70141,69853,69827
 3.5000e+000 69931 -5.1510e-001  2.4193e+000  7.6479e-001 61467 69775,69827,69801
 3.5000e+000 70095 -1.4332e-001  1.4022e+000  1.8540e-001 61467 70141,69827,70069
 3.5000e+000 70118 -2.2028e-001  2.0771e+000 -1.1420e-002 61467 69879,70069,69749
 3.5000e+000 70167 -1.3974e-001  1.5343e+000  5.9663e-003 61467 69879,69853,70141
 3.5000e+000 70190 -5.4364e-002  2.1326e+000  1.7312e-001 61467 69879,70141,70069
 3.5000e+000 70291  2.7577e-001  3.7018e+000  3.9450e-001 61013 70213,70265,70239
 3.5000e+000 70441  1.7888e+000  9.3562e+000 -1.5773e+000 60651 70340,70392,70366
 3.5000e+000 70418  1.4122e+000  3.0669e+000 -2.4509e-001 60651 70314,70392,70340
 3.5000e+000 70642 -4.6535e-002  2.4033e+000  5.7693e-001 60311 70665,70492,70466
 3.5000e+000 70619  2.1061e-001  3.0404e+000  6.3376e-001 60311 70665,70466,70570
 3.5000e+000 70596 -1.3744e+000  1.0599e+000  2.1065e-001 60311 70492,70544,70518
 3.5000e+000 70691  2.3886e-002  1.7672e+000 -8.5422e-002 60311 70544,70492,70665
 3.5000e+000 70714  4.3315e-001  2.7422e+000 -4.5260e-002 60311 70544,70665,70570
 3.5000e+000 70964 -4.5745e-001  1.9807e+000  2.2631e-001 59907 70987,70765,70739
 3.5000e+000 70941 -1.1925e-001  2.7524e+000  8.0465e-002 59907 71059,70987,70739
 3.5000e+000 70918  1.3748e-001  3.9009e+000 -6.0422e-002 59907 71059,70739,70869
 3.5000e+000 70895  6.3502e-002  2.6720e+000 -8.8089e-002 59907 70817,70869,70843
 3.5000e+000 71013 -1.8460e-001  2.0410e+000 -1.8418e-001 59907 70791,70765,70987
 3.5000e+000 71036 -7.7476e-002  1.9783e+000 -1.2986e-001 59907 70791,70987,70817
 3.5000e+000 71085  1.6759e-001  1.9885e+000 -9.6182e-002 59907 70817,70987,71059
 3.5000e+000 71108 -4.7417e-002  2.4813e+000 -2.7288e-002 59907 70817,71059,70869
 3.5000e+000 71441  2.9462e+000  6.9891e+000 -3.8798e-001 59417 71464,71242,71216
 3.5000e+000 71418  2.4381e+000  5.4668e+000  3.1790e-001 59417 71464,71216,71320
 3.5000e+000 71395  2.4125e+000  4.7923e+000  3.5159e-001 59417 71216,71346,71320
 3.5000e+000 71372  3.4276e+000  2.4196e+000  2.2587e+000 59417 71268,71320,71294
 3.5000e+000 71490  2.8146e+000  6.7103e+000  1.4071e+000 59417 71268,71242,71464
 3.5000e+000 71513  1.2583e+000  3.8546e+000  2.2939e+000 59417 71268,71464,71320
 3.5000e+000 71712  7.5421e-001  3.0251e+000 -6.2887e-003 58913 71562,71614,71588
 3.5000e+000 71689  1.5874e+000  2.7770e+000 -4.5871e-001 58913 71536,71614,71562
 3.5000e+000 71666  1.6866e+000  3.0739e+000 -5.9679e-001 58913 71536,71640,71614
 3.5000e+000 72171 -5.8040e-001 -3.5585e-001 -1.1797e+000 58409 72194,72027,72001
 3.5000e+000 72148 -1.3509e+000 -4.3577e-001 -4.3154e-001 58409 72194,72001,71949
 3.5000e+000 72125 -1.3276e+000 -9.0225e-001  2.6360e-001 58409 71923,72053,71949
 3.5000e+000 72102 -2.5775e-001  3.4937e-001 -9.6311e-001 58409 71949,72001,71975
 3.5000e+000 72079 -1.7095e+000 -3.5820e-001  9.6482e-001 58409 71897,72053,71923
 3.5000e+000 72220 -1.6182e+000 -7.1351e-001 -1.0248e+000 58409 72053,72027,72194
 3.5000e+000 72243 -2.0321e+000 -4.5280e-001 -3.5969e-001 58409 72053,72194,71949
 3.5000e+000 72491 -3.9227e+000 -2.9198e-001 -2.4473e+000 57855 72514,72318,72292
 3.5000e+000 72468  3.3527e+000  2.9785e+000 -3.1583e+000 57855 72514,72292,72266
 3.5000e+000 72445 -2.0874e+000  1.2931e+000  5.6676e-001 57855 72318,72396,72370
 3.5000e+000 72422 -5.4792e+000  2.4834e+000 -1.1904e+000 57855 72318,72370,72344
 3.5000e+000 72540 -4.5966e+000  6.0124e-001 -1.4513e+000 57855 72396,72318,72514
 3.5000e+000 72563 -3.9026e+000  4.3303e-001 -1.6554e+000 57855 72396,72514,72266
 3.5000e+000 72811  1.6540e+000  9.5714e-001 -6.6621e-001 57401 72612,72690,72638
 3.5000e+000 72788  1.5547e-002  2.8927e-001  4.9453e-001 57401 72586,72690,72612
 3.5000e+000 72765 -7.7336e-001 -4.7876e-001 -1.2736e+000 57401 72638,72690,72664
 3.5000e+000 72742  6.9376e-001  2.3329e+000 -1.1105e-001 57401 72586,72716,72690
 3.5000e+000 73144  3.0428e-001  1.6082e+000 -1.8992e-001 57004 72919,72997,72945
 3.5000e+000 73121  4.7240e-001  2.8831e+000 -5.3955e-001 57004 72919,73049,72997
 3.5000e+000 73098  3.7487e-001  1.9882e+000 -4.4041e-001 57004 72945,72997,72971
 3.5000e+000 73075  5.9811e-001  3.3932e+000 -6.8949e-001 57004 72997,73049,73023
 3.5000e+000 73650 -7.2850e-001 -2.2079e-001  1.9240e+000 56592 73673,73379,73353
 3.5000e+000 73627 -4.5617e+000 -1.4358e+000  2.1711e+000 56592 73673,73353,73327
 3.5000e+000 73604 -2.7788e+000 -9.6890e-001  7.0926e-001 56592 73745,73509,73483
 3.5000e+000 73581 -2.4315e+000  2.6423e-001  2.6249e-001 56592 73379,73457,73405
 3.5000e+000 73558 -9.3371e-001  8.7779e-001  2.5143e-001 56592 73379,73483,73457
 3.5000e+000 73535  1.6042e+000  3.1563e-001 -1.2155e-002 56592 73405,73457,73431
 3.5000e+000 73699 -1.3576e+000 -1.0798e-001 -1.0561e-001 56592 73483,73379,73673
 3.5000e+000 73722 -2.6687e+000 -8.6614e-001  6.6599e-001 56592 73745,73483,73673
 3.5000e+000 73771 -2.6041e+000 -1.3070e+000  8.9931e-001 56592 73327,73509,73745
 3.5000e+000 73794 -2.3436e+000 -1.1159e+000  8.1470e-001 56592 73327,73745,73673
 3.5000e+000 74123  2.8595e+000  3.0473e+000  1.1246e+000 56152 74146,74002,73924
 3.5000e+000 74100  1.1016e+000  2.6164e+000  8.7710e-001 56152 74146,73924,73898
 3.5000e+000 74077  2.7318e+000  1.6680e+000  1.5663e+000 56152 73924,74002,73976
 3.5000e+000 74054  3.2111e+000  2.8081e+000  2.0930e+000 56152 73924,73976,73950
 3.5000e+000 74172  5.1617e+000  2.5077e+000 -2.0709e-001 56152 74028,74002,74146
 3.5000e+000 74195  2.2697e+000  1.9937e+000 -3.2026e-001 56152 74028,74146,73898
 3.5000e+000 74345  4.1231e+000  2.3930e+000 -1.0713e+000 55634 74218,74270,74244
 3.5000e+000 74322  4.8959e+000 -9.5474e-001 -7.8766e-001 55634 74218,74296,74270
 3.5000e+000 74823  2.2424e-001 -1.5424e+000  4.1315e-001 55016 74918,74846,74581
 3.5000e+000 74800 -3.0629e-001 -1.2466e+000  8.9089e-002 55016 74846,74477,74633
 3.5000e+000 74777 -1.1693e+000 -2.4471e+000  8.4473e-001 55016 74918,74581,74555
 3.5000e+000 74754 -1.8618e+000 -1.7680e+000  1.2039e+000 55016 74990,74503,74477
 3.5000e+000 74731  1.3228e-001 -1.1930e+000 -8.8409e-002 55016 74451,74633,74477
 3.5000e+000 74708  1.6789e+000 -5.9769e-001 -3.8417e-001 55016 74451,74659,74633
 3.5000e+000 74685 -3.0604e+000 -3.2500e+000  2.4345e+000 55016 74503,74555,74529
 3.5000e+000 74872  4.5656e-001 -1.3046e+000 -5.9504e-002 55016 74607,74581,74846
 3.5000e+000 74895 -7.4110e-002 -1.9322e+000  1.9630e-001 55016 74607,74846,74633
 3.5000e+000 74944 -1.8939e+000 -1.9494e+000  4.6089e-001 55016 74477,74846,74918
 3.5000e+000 74967 -2.0822e+000 -1.6971e+000  8.5096e-001 55016 74990,74477,74918
 3.5000e+000 75016 -1.0945e+000 -1.4316e+000  1.3178e+000 55016 74555,74503,74990
 3.5000e+000 75039 -1.3300e+000 -1.4239e+000  9.1617e-001 55016 74555,74990,74918
 3.5000e+000 75287 -3.3586e+000 -4.1161e+000  5.3684e-002 54726 75310,75140,75114
 3.5000e+000 75264 -4.0810e+000 -2.4031e+000 -3.8642e-001 54726 75310,75114,75088
 3.5000e+000 75241 -5.5901e+000 -2.4654e+000 -2.4990e+000 54726 75088,75192,75166
 3.5000e+000 75218 -1.0341e+001 -2.4141e-001 -2.6326e+000 54726 75062,75192,75088
 3.5000e+000 75336 -2.4526e+000 -3.1374e+000 -9.5979e-001 54726 75166,75140,75310
 3.5000e+000 75359 -3.8804e+000 -1.4520e+000 -9.8165e-001 54726 75166,75310,75088
 3.5000e+000 75946 -7.5467e-002  3.7770e-001  3.6033e-001 54322 75969,75701,75649
 3.5000e+000 75923 -8.7569e-001 -1.5779e-001  5.9491e-001 54322 75969,75649,75623
 3.5000e+000 75900 -4.2115e-001  8.8508e-002 -1.4235e-002 54322 76041,75753,75701
 3.5000e+000 75877 -1.8056e-001  1.3531e+000  4.3037e-002 54322 75623,75805,75779
 3.5000e+000 75854 -4.8002e-001  1.4394e-001 -2.1647e-001 54322 75701,75753,75727
 3.5000e+000 75831 -1.6422e-001  1.5941e-002  9.5508e-002 54322 75649,75701,75675
 3.5000e+000 75995 -6.4029e-001  2.0855e-001  1.6768e-001 54322 76041,75701,75969
 3.5000e+000 76018 -6.3810e-001  4.8939e-001  2.8639e-001 54322 75779,75969,75623
 3.5000e+000 76067 -2.8418e-001  4.0724e-001 -9.5050e-002 54322 75779,75753,76041
 3.5000e+000 76090 -4.4112e-001  6.3706e-001  8.5716e-002 54322 75779,76041,75969
 3.5000e+000 76468 -9.2671e-002  5.1920e-001  6.5018e-002 53868 76491,76272,76220
 3.5000e+000 76445 -1.6063e-001  5.7522e-001 -1.4148e-002 53868 76491,76220,76324
 3.5000e+000 76422  2.4724e-002  6.0870e-001  3.8811e-003 53868 76220,76272,76246
 3.5000e+000 76399 -2.4257e-001  1.0195e+000  1.9717e-001 53868 76194,76324,76220
 3.5000e+000 76376 -1.1807e+000  6.3942e-001 -1.1193e-002 53868 76194,76350,76324
 3.5000e+000 76517 -1.4229e-001  4.2451e-001  4.5640e-002 53868 76298,76272,76491
 3.5000e+000 76540 -2.0039e-001  5.0350e-001 -3.0549e-002 53868 76298,76491,76324
 3.5000e+000 76690 -8.1278e-002  6.5738e-001 -8.6929e-002 53356 76589,76641,76615
 3.5000e+000 76667  2.0819e-001  1.4615e+000  4.1695e-002 53356 76563,76641,76589
 3.5000e+000 76938 -4.9207e-001  8.5041e-001 -7.9884e-001 53009 77105,76961,76765
 3.5000e+000 76915  1.9907e-001  1.1825e+000 -3.5188e-001 53009 76961,76713,76843
 3.5000e+000 76892 -2.7611e-001  1.0673e+000 -1.3298e-001 53009 77033,76817,76791
 3.5000e+000 76869 -1.2941e+000  2.5841e-001 -1.5578e+000 53009 77105,76765,76739
 3.5000e+000 76987 -6.1583e-002  1.9080e+000 -5.3160e-001 53009 76791,76765,76961
 3.5000e+000 77010 -3.3319e-001  1.1098e+000 -4.0223e-001 53009 77033,76791,76961
 3.5000e+000 77059  1.3212e-001  1.2447e+000 -1.5311e-001 53009 76843,76817,77033
 3.5000e+000 77082  5.1436e-002  1.2717e+000 -4.0127e-001 53009 76843,77033,76961
 3.5000e+000 77131  3.2436e-001  1.3968e+000 -4.1101e-001 53009 76713,76961,77105
 3.5000e+000 77154  1.8651e-001  1.3132e+000 -1.0449e+000 53009 76713,77105,76739
 3.5000e+000 77355  3.7467e+000 -3.1371e+000  2.1699e+000 52390 77378,77257,77231
 3.5000e+000 77332  2.6893e+000 -1.2685e+000  1.4025e+000 52390 77378,77231,77179
 3.5000e+000 77309  3.4361e+000 -3.1539e+000 -9.0071e-001 52390 77179,77231,77205
 3.5000e+000 77404  4.5519e+000 -1.8293e+000  1.4788e+000 52390 77283,77257,77378
 3.5000e+000 77427  3.6112e+000  3.6106e-001  7.5113e-001 52390 77283,77378,77179
 3.5000e+000 77677 -2.1824e+000  3.3975e+000 -2.1294e+000 51986 77700,77504,77478
 3.5000e+000 77654  1.5440e-001  4.8097e+000 -2.7199e+000 51986 77700,77478,77452
 3.5000e+000 77631 -1.9285e-001  2.2532e+000 -7.5290e-001 51986 77772,77556,77530
 3.5000e+000 77608 -4.4312e-001  1.9025e+000 -1.0584e+000 51986 77452,77582,77556
 3.5000e+000 77726 -5.5833e-001  3.1972e+000 -8.5121e-001 51986 77530,77504,77700
 3.5000e+000 77749  1.3030e-001  2.9363e+000 -1.0131e+000 51986 77772,77530,77700
 3.5000e+000 77798  2.3367e-001  2.5718e+000 -1.3280e+000 51986 77452,77556,77772
 3.5000e+000 77821  4.5688e-001  2.7523e+000 -1.5502e+000 51986 77452,77772,77700
 3.5000e+000 78282  9.6622e-001 -7.5879e-001  1.1476e-002 51738 78008,78138,78060
 3.5000e+000 78259 -4.6107e-001 -2.3594e+000  2.7946e+000 51738 78008,78164,78138
 3.5000e+000 78236  1.6115e-001 -4.8527e-002 -1.7733e-002 51738 78086,78138,78112
 3.5000e+000 78213  1.3396e-001 -3.5156e-001  7.2632e-002 51738 78060,78138,78086
 3.5000e+000 78190  1.7968e+000 -1.0196e+000 -4.5133e-001 51738 78008,78060,78034
 3.5000e+000 78432 -3.1781e-001 -4.8652e-002  7.5515e-003 51148 78305,78357,78331
 3.5000e+000 78409 -2.6285e-001  2.2160e-001 -4.3965e-002 51148 78305,78383,78357
 3.5000e+000 78891 -1.6699e-001  6.6497e-002  4.8131e-001 50808 78914,78695,78669
 3.5000e+000 78868 -4.2864e-002  3.1812e-001  3.8599e-001 50808 78914,78669,78643
 3.5000e+000 78845  1.1678e-001  4.4273e-001  2.9733e-001 50808 78643,78773,78747
 3.5000e+000 78822  3.4917e-001  4.9427e-001  4.0683e-001 50808 78617,78773,78643
 3.5000e+000 78799  2.3372e-002  4.1370e-001  4.0119e-001 50808 78695,78747,78721
 3.5000e+000 78940  1.1490e-002  2.8518e-001  3.4032e-001 50808 78747,78695,78914
 3.5000e+000 78963 -5.3133e-002  3.7707e-001  2.8315e-001 50808 78747,78914,78643
 3.5000e+000 79260 -3.3927e-001 -1.7660e-001 -1.2799e-001 50468 79283,79090,79012
 3.5000e+000 79237 -4.6451e-001 -3.6494e-003 -1.3952e-001 50468 79283,79012,78986
 3.5000e+000 79214 -4.4471e-001 -2.2165e-001 -1.2742e-001 50468 79012,79090,79038
 3.5000e+000 79191 -2.5472e-001  2.2261e-001 -3.0359e-001 50468 78986,79142,79116
 3.5000e+000 79168 -1.9419e-001 -1.9871e-001 -2.0172e-001 50468 79038,79090,79064
 3.5000e+000 79309 -2.8764e-001 -8.0297e-002 -1.6915e-001 50468 79116,79090,79283
 3.5000e+000 79332 -4.1108e-001  1.0513e-001 -1.7526e-001 50468 79116,79283,78986
 3.5000e+000 79889  2.7759e+000  2.8552e+000 -9.6608e-001 50064 79569,79725,79699
 3.5000e+000 79866  3.1325e-001  1.4596e+000 -2.5983e+000 50064 79543,79725,79569
 3.5000e+000 79843  2.3811e+000  1.2746e+000 -9.9249e-001 50064 79621,79699,79673
 3.5000e+000 79820  2.4911e+000  1.5048e+000 -1.3281e+000 50064 79595,79699,79621
 3.5000e+000 79797  1.5082e+000  1.9131e+000 -1.6889e+000 50064 79569,79699,79595
 3.5000e+000 79774  2.8860e+000  5.0445e+000 -1.7126e-002 50064 79517,79725,79543
 3.5000e+000 79751  9.5173e-001  1.3559e+000 -1.1305e+000 50064 79621,79673,79647
 3.5000e+000 80169  2.2819e+000  2.8999e+000 -1.4006e+000 49724 80019,80097,80071
 3.5000e+000 80146  1.7859e+000  4.8276e+000 -1.9106e+000 49724 79993,80097,80019
 3.5000e+000 80123  1.2944e+000  2.5346e+000 -1.5154e+000 49724 80019,80071,80045
 3.5000e+000 80626 -1.3521e+000 -4.1223e-001 -2.1910e-001 49277 80352,80482,80378
 3.5000e+000 80603 -1.0574e+000 -3.4461e-001  1.2374e-001 49277 80352,80508,80482
 3.5000e+000 80580 -1.1578e+000 -3.0267e-001 -1.5622e-001 49277 80378,80482,80456
 3.5000e+000 80557 -1.3371e+000 -8.3312e-001 -1.4774e-001 49277 80378,80430,80404
 3.5000e+000 80534 -1.7038e+000 -5.2329e-001 -1.0750e-001 49277 80378,80456,80430
 3.5000e+000 81230 -2.5304e+000 -1.5451e+000  1.2403e+000 48716 81253,80835,80809
 3.5000e+000 81207 -1.3689e+000  3.3140e-001 -2.5548e-001 48716 81397,81253,80809
 3.5000e+000 81184 -1.4701e+000  1.5923e+000 -6.8390e-001 48716 81325,80913,80887
 3.5000e+000 81161 -1.0561e+000 -5.5169e-001 -1.5437e-001 48716 81397,80809,81017
 3.5000e+000 81138 -2.0919e+000  1.0757e+000 -9.9788e-001 48716 81469,80965,80913
 3.5000e+000 81115 -1.2027e+000  9.9738e-002  1.4828e+000 48716 80835,80887,80861
 3.5000e+000 81092 -6.2244e-001 -1.9169e+000  2.3681e+000 48716 80809,81043,81017
 3.5000e+000 81069 -2.4240e+000 -1.1525e+000 -2.4904e+000 48716 80913,80965,80939
 3.5000e+000 81279  8.4558e-001  6.4302e-001  1.3721e-001 48716 80887,80835,81253
 3.5000e+000 81302 -2.0011e+000  1.3043e+000 -8.7397e-001 48716 81325,80887,81253
 3.5000e+000 81351 -1.6673e+000  1.2236e+000 -8.2573e-001 48716 81469,80913,81325
 3.5000e+000 81374 -1.8802e+000  2.0004e+000 -7.7241e-001 48716 80991,81325,81253
 3.5000e+000 81423 -1.4777e+000  1.5748e+000  1.8584e-001 48716 80991,81253,81397
 3.5000e+000 81446 -1.3402e+000  4.5979e-001  3.1895e-001 48716 80991,81397,81017
 3.5000e+000 81495 -2.8672e+000  1.4327e+000 -1.1515e+000 48716 80991,80965,81469
 3.5000e+000 81518 -2.5426e+000  1.4818e+000 -1.0022e+000 48716 80991,81469,81325
 3.5000e+000 81717  1.9364e-002  2.7167e-001 -4.2575e-002 48262 81740,81567,81541
 3.5000e+000 81694  1.8442e-001  3.5658e-001 -7.2775e-002 48262 81740,81541,81645
 3.5000e+000 81671  2.1586e-003 -8.3320e-002 -4.0873e-002 48262 81567,81619,81593
 3.5000e+000 81766  1.1354e-001  1.9989e-001  7.0603e-002 48262 81619,81567,81740
 3.5000e+000 81789  2.6802e-001  2.7325e-001  4.7389e-002 48262 81619,81740,81645
 3.5000e+000 81939  1.8397e+000  3.3940e+000 -7.2613e-001 47957 82034,81962,81864
 3.5000e+000 81916  1.3139e-001  2.9500e+000 -1.0677e+000 47957 82166,81962,81838
 3.5000e+000 81988  2.7920e+000  3.4591e+000  5.8266e-001 47957 82294,81962,81890
 3.5000e+000 82011  1.6414e+000  2.8079e+000 -2.4825e-001 47957 81890,81962,81812
 3.5000e+000 82060  1.8797e+000  3.8929e+000 -4.7140e-001 47957 81838,81962,82034
 3.5000e+000 82192 -8.4176e-001  2.6832e+000  4.7127e-001 47957 81812,81962,82166
 3.5000e+000 82320  3.7732e+000  3.0753e+000 -8.2407e-002 47957 81864,81962,82294
 3.5000e+000 82549 -2.2987e-001  2.3420e-002 -1.0136e-001 47617 82448,82500,82474
 3.5000e+000 82526  9.7033e-003  9.9291e-001 -4.4786e-002 47617 82422,82500,82448
 3.5000e+000 82902  3.0876e-001  3.0524e-001 -1.5329e-001 47255 82729,82807,82755
 3.5000e+000 82879  1.0947e+000  5.3957e-001  3.0087e-001 47255 82703,82807,82729
 3.5000e+000 82856  2.5186e-001  2.4997e-001 -1.1016e-001 47255 82755,82807,82781
 3.5000e+000 82833  2.5064e+000  1.1446e+000  4.4300e-001 47255 82677,82807,82703
 3.5000e+000 83182  1.9551e-001 -9.5108e-001  5.8061e-001 46680 83032,83084,83058
 3.5000e+000 83159  6.3727e-001 -5.4760e-001  8.1827e-001 46680 83205,83084,83032
 3.5000e+000 83136 -6.4490e-001  2.1853e-001  6.9891e-001 46680 83006,83110,83084
 3.5000e+000 83231  1.4124e+000  1.5212e-001  1.1809e+000 46680 83006,83084,83205
 3.5000e+000 83737 -2.3225e+000 -6.4706e-001  4.5227e-001 46290 83832,83760,83492
 3.5000e+000 83714 -2.3598e+000 -3.5471e-001  4.0682e-001 46290 83760,83440,83414
 3.5000e+000 83691 -1.8262e+000 -9.5903e-001  3.6194e-001 46290 83832,83492,83466
 3.5000e+000 83668 -1.8868e+000 -1.7573e+000  6.6559e-001 46290 83492,83570,83544
 3.5000e+000 83645 -3.1479e+000 -9.3337e-001  1.2408e-001 46290 83414,83596,83570
 3.5000e+000 83622 -1.6695e+000 -1.3331e+000  9.3674e-001 46290 83492,83544,83518
 3.5000e+000 83786 -2.2149e+000 -6.0523e-001  3.5197e-001 46290 83570,83492,83760
 3.5000e+000 83809 -2.3224e+000 -7.9685e-001  1.5157e-001 46290 83570,83760,83414
 3.5000e+000 83858 -1.6883e+000 -2.7787e-001  6.3029e-001 46290 83440,83760,83832
 3.5000e+000 83881 -8.1694e-001 -5.2381e-001  4.3903e-001 46290 83440,83832,83466
 3.5000e+000 84161 -3.7606e-002 -4.9561e-001  5.5025e-002 45829 84011,84063,84037
 3.5000e+000 84138 -2.7431e-001 -5.3221e-001  1.9380e-002 45829 84011,84089,84063
 3.5000e+000 84115  3.7680e-002 -3.9760e-001  3.8019e-002 45829 83985,84089,84011
 3.5000e+000 84311  1.2423e+000  1.8482e+000  2.7058e-001 45631 84184,84236,84210
 3.5000e+000 84288  6.2874e-001 -1.8442e-001 -5.1834e-002 45631 84184,84262,84236
 3.5000e+000 84657 -1.0599e-001 -2.0937e-001 -5.9339e-002 45155 84680,84490,84412
 3.5000e+000 84634 -1.6367e-001 -7.7973e-002 -9.1074e-003 45155 84680,84412,84360
 3.5000e+000 84611 -2.4016e-001 -3.1105e-001  6.9822e-002 45155 84412,84490,84438
 3.5000e+000 84588  4.0754e-002  1.4942e-001 -4.4256e-002 45155 84334,84516,84360
 3.5000e+000 84565 -6.2722e-002  1.8498e-001 -3.3650e-001 45155 84360,84412,84386
 3.5000e+000 84542 -1.9531e-001 -3.6680e-001  3.1743e-002 45155 84438,84490,84464
 3.5000e+000 84706 -1.1878e-001 -8.1917e-002 -8.5630e-002 45155 84516,84490,84680
 3.5000e+000 84729 -1.6714e-001  5.9155e-002 -5.4786e-002 45155 84516,84680,84360
 3.5000e+000 85077 -2.7593e-002 -5.5126e-001 -2.1875e-001 44508 85100,84754,84910
 3.5000e+000 85054 -6.6211e-002  8.0518e-002 -7.7781e-002 44508 84754,84936,84910
 3.5000e+000 85031 -5.0730e-001 -9.5004e-001  1.0924e-001 44508 85100,84910,84884
 3.5000e+000 85008 -5.1690e-001 -2.3494e-001 -4.2393e-001 44508 84780,84884,84832
 3.5000e+000 84985 -5.5266e-001 -3.4102e-001 -4.5673e-001 44508 84780,84832,84806
 3.5000e+000 84962 -1.2303e+000 -9.1932e-001 -1.0117e-001 44508 84832,84884,84858
 3.5000e+000 85126 -4.1950e-001  9.2688e-003 -5.5916e-001 44508 84780,84754,85100
 3.5000e+000 85149 -7.8510e-001 -3.7508e-001 -2.6146e-001 44508 84780,85100,84884
 3.5000e+000 85482  5.8086e-001  2.7169e-001  1.3406e-002 44104 85335,85387,85361
 3.5000e+000 85459  4.3428e-001 -6.0553e-002  1.0164e-001 44104 85309,85387,85335
 3.5000e+000 85436  2.8436e-001 -3.7716e-002 -6.4414e-002 44104 85257,85387,85309
 3.5000e+000 85413  1.7473e-001  2.0799e-002  6.0330e-002 44104 85257,85309,85283
 3.5000e+000 85811 -2.1288e-001 -3.3548e-001 -5.5891e-002 43600 85586,85664,85612
 3.5000e+000 85788 -1.4822e-001  3.2227e-002  3.2506e-004 43600 85586,85690,85664
 3.5000e+000 85765 -6.5225e-002  4.0769e-001 -1.8392e-001 43600 85586,85716,85690
 3.5000e+000 85742 -2.0134e-001 -2.3581e-001 -2.1539e-001 43600 85612,85664,85638
 3.5000e+000 86010  4.5600e-001  3.1148e-001 -2.8809e-002 43224 85886,85938,85912
 3.5000e+000 85987  3.7455e-001  6.6798e-002 -1.7630e-002 43224 85834,85938,85886
 3.5000e+000 85964  4.8871e-001 -7.3561e-001 -3.1528e-002 43224 85834,85886,85860
 3.5000e+000 86420  3.4338e+000  1.5523e+000 -4.1041e-001 42820 86195,86299,86221
 3.5000e+000 86397  3.5059e+000  3.3124e+000 -1.3075e+000 42820 86195,86325,86299
 3.5000e+000 86374  2.0537e+000  1.3191e+000  2.1933e-001 42820 86221,86299,86273
 3.5000e+000 86351  1.5769e+000  1.0146e+000 -3.1449e-001 42820 86221,86273,86247
 3.5000e+000 86749  3.0476e-001 -9.0455e-001 -2.4146e-001 42223 86550,86602,86576
 3.5000e+000 86726  2.7625e+000 -1.6242e+000  9.6778e-002 42223 86550,86628,86602
 3.5000e+000 86703  9.0565e-001 -2.1127e+000  1.1950e+000 42223 86524,86628,86550
 3.5000e+000 86680  2.1674e+000  1.0308e+000  9.3403e-001 42223 86524,86654,86628
 3.5000e+000 87078  6.0182e-001 -4.7977e-001  2.9025e-001 41883 87173,87101,86905
 3.5000e+000 87055  5.4180e-001  9.5945e-001  1.1339e-001 41883 87101,86879,86853
 3.5000e+000 87032  1.0828e-001  9.9396e-002  5.0408e-004 41883 86853,86983,86931
 3.5000e+000 87009  1.8581e-001  3.2320e-001 -2.1720e-002 41883 86931,86983,86957
 3.5000e+000 87127  1.0465e+000  3.0335e-001 -1.1167e-001 41883 86931,86905,87101
 3.5000e+000 87150  6.2823e-002 -1.5031e-001  2.0029e-002 41883 86931,87101,86853
 3.5000e+000 87199  1.4401e-001  6.6791e-002  4.4068e-001 41883 86879,87101,87173
 3.5000e+000 87558 -1.1544e-001  1.0712e+000 -3.5172e-001 41471 87382,87460,87408
 3.5000e+000 87535 -1.8147e+000  9.5370e-001 -2.7212e-001 41471 87382,87486,87460
 3.5000e+000 87512  2.9718e-001  8.8151e-002 -1.3201e-001 41471 87408,87460,87434
 3.5000e+000 87806  1.9533e-001  4.3754e-002 -5.0937e-001 41017 87829,87607,87581
 3.5000e+000 87783  2.1381e-001 -2.5543e-001 -7.3236e-002 41017 87829,87581,87685
 3.5000e+000 87760  5.1390e-001 -9.0711e-002 -1.7348e-001 41017 87581,87711,87685
 3.5000e+000 87737  3.3729e-001 -8.9892e-001 -3.9009e-002 41017 87633,87685,87659
 3.5000e+000 87855 -8.8468e-002 -1.5565e-001 -3.1489e-001 41017 87633,87607,87829
 3.5000e+000 87878 -1.6499e-001 -5.0259e-001  1.3205e-001 41017 87633,87829,87685
 3.5000e+000 88258  2.1038e-002  2.7953e-002 -1.3842e-002 40613 88281,88036,88010
 3.5000e+000 88235  3.2534e-003  3.0376e-002 -6.6576e-003 40613 88281,88010,88088
 3.5000e+000 88212  9.1683e-004  4.1818e-002 -1.5475e-002 40613 87984,88088,88010
 3.5000e+000 88189 -1.2443e-002  9.3508e-003 -1.0548e-002 40613 87984,88114,88088
 3.5000e+000 88166  1.3765e-002  3.3483e-002 -2.0925e-002 40613 87984,88140,88114
 3.5000e+000 88307  5.1126e-003  2.6892e-002 -1.1202e-002 40613 88062,88036,88281
 3.5000e+000 88330 -1.9346e-002  2.2880e-002 -1.9478e-003 40613 88062,88281,88088
 3.5000e+000 88649 -2.8456e-002  2.6804e-002  3.8848e-003 40095 88375,88505,88401
 3.5000e+000 88626 -1.8072e-002  1.7821e-002  8.7854e-003 40095 88375,88531,88505
 3.5000e+000 88603 -1.9267e-002  3.9474e-002  1.0115e-002 40095 88401,88505,88479
 3.5000e+000 88580 -7.8449e-002  5.2154e-001  2.7744e-001 40095 88427,88479,88453
 3.5000e+000 88557  8.0042e-004  6.7393e-002  1.1188e-003 40095 88401,88479,88427
 3.5000e+000 89078  1.2666e+000 -1.5993e+000 -1.0753e+000 39897 89101,88833,88807
 3.5000e+000 89055  2.5607e-001 -1.8002e+000 -1.0904e+000 39897 89101,88807,88911
 3.5000e+000 89032 -8.3205e-001 -1.5797e+000 -1.8404e+000 39897 88781,88911,88807
 3.5000e+000 89009 -1.6853e+000 -2.0192e+000 -2.0024e+000 39897 88781,88937,88911
 3.5000e+000 88986  4.1410e+000  5.0148e-001 -5.5657e-001 39897 88833,88885,88859
 3.5000e+000 88963 -2.7817e+000 -2.0830e+000 -2.6231e+000 39897 88755,88937,88781
 3.5000e+000 89127  2.1366e+000 -1.9791e+000 -1.8983e+000 39897 88885,88833,89101
 3.5000e+000 89150  6.6356e-001 -2.4116e+000 -2.0579e+000 39897 88885,89101,88911
 3.5000e+000 89300 -2.1125e+000 -2.0326e+000  8.6083e-001 39607 89453,89323,89199
 3.5000e+000 89277 -3.0681e+000 -1.2590e+000  7.0306e-001 39607 89525,89453,89199
 3.5000e+000 89349 -1.6632e+000 -1.9420e+000 -4.7325e-002 39607 89225,89199,89323
 3.5000e+000 89479 -1.6899e+000 -8.5091e-001  6.3968e-001 39607 89251,89323,89453
 3.5000e+000 89502 -1.6656e+000 -7.2379e-002  1.5220e+000 39607 89251,89453,89173
 3.5000e+000 89551 -1.3893e+000 -8.7317e-001  9.4246e-001 39607 89173,89453,89525
 3.5000e+000 90264 -1.2228e+000 -1.9702e+000 -3.4501e-001 39039 89996,90074,90048
 3.5000e+000 90241 -8.5943e-001 -1.0971e+000 -2.3936e-001 39039 89918,90074,89996
 3.5000e+000 90218 -1.3756e+000 -1.3128e+000  3.3345e-002 39039 89918,89996,89944
 3.5000e+000 90195 -1.5657e+000 -1.1426e+000  1.3230e-001 39039 89892,90074,89918
 3.5000e+000 90172 -2.3216e-001 -1.9907e+000 -4.5725e-001 39039 89996,90048,90022
 3.5000e+000 90149 -2.2171e+000  9.2566e-001 -2.5484e-002 39039 89892,90100,90074
 3.5000e+000 90126 -1.6723e+000 -1.4247e+000 -2.5542e-001 39039 89944,89996,89970
 3.5000e+000 90770 -2.9413e-001 -4.2695e-001 -3.9704e-002 38635 90473,90603,90577
 3.5000e+000 90747 -1.0298e-001 -3.8003e-001  2.6543e-002 38635 90447,90603,90473
 3.5000e+000 90724 -2.3431e-001 -6.0302e-001 -9.5805e-002 38635 90499,90577,90551
 3.5000e+000 90701 -2.6152e-001 -6.5193e-001 -3.1860e-002 38635 90473,90577,90499
 3.5000e+000 90678 -1.9306e-001 -8.5884e-001 -8.1461e-002 38635 90499,90551,90525
 3.5000e+000 90655 -2.8559e-001 -2.3852e-001  8.5149e-002 38635 90447,90629,90603
 3.5000e+000 90871  7.3934e-003 -2.2517e-001 -1.6223e-001 38231 90793,90845,90819
 3.5000e+000 91458  2.5702e-001 -2.1437e-001 -8.8367e-002 37534 91161,91317,91291
 3.5000e+000 91435  1.4263e-001  1.0814e-001  1.2875e-001 37534 91135,91317,91161
 3.5000e+000 91412 -2.7365e-001 -1.0787e+000 -5.1569e-001 37534 91187,91291,91239
 3.5000e+000 91389  6.3428e-002 -1.0787e+000  7.6085e-002 37534 91161,91291,91187
 3.5000e+000 91366  5.6655e-002 -7.1689e-001 -3.7079e-001 37534 91239,91291,91265
 3.5000e+000 91343  7.1336e-001 -1.1721e+000 -9.3908e-001 37534 91187,91239,91213
 3.5000e+000 91915 -6.3724e-001 -7.5028e-001  2.9482e-002 37080 91938,91745,91667
 3.5000e+000 91892 -5.6923e-001 -6.0849e-001  1.9834e-001 37080 91938,91667,91797
 3.5000e+000 91869 -8.1572e-001  2.6482e-001 -1.3102e-001 37080 91641,91797,91667
 3.5000e+000 91846 -7.6652e-001 -8.8097e-001  6.2823e-002 37080 91667,91719,91693
 3.5000e+000 91823 -6.9340e-001 -7.2679e-001  2.0887e-002 37080 91667,91745,91719
 3.5000e+000 91964 -5.3036e-001 -4.6239e-001  6.2714e-002 37080 91771,91745,91938
 3.5000e+000 91987 -5.5458e-001 -5.1046e-001  2.3511e-001 37080 91771,91938,91797
 3.5000e+000 92235 -3.2570e-001 -5.0380e-001 -3.3653e-002 36397 92036,92088,92062
 3.5000e+000 92212 -2.0622e-001 -3.2198e-001 -8.6679e-002 36397 92036,92114,92088
 3.5000e+000 92189 -5.9327e-002 -1.9666e-001  1.4319e-002 36397 92036,92140,92114
 3.5000e+000 92166 -1.2893e-001 -7.4968e-002  3.6032e-002 36397 92010,92140,92036
 3.5000e+000 92694 -2.0303e-001 -5.9881e-003  3.8004e-002 36057 92446,92498,92472
 3.5000e+000 92671 -1.3250e-001  1.7744e-001  3.2903e-002 36057 92446,92550,92498
 3.5000e+000 92648  1.8976e-001  9.3143e-002 -5.8094e-002 36057 92446,92576,92550
 3.5000e+000 92625 -2.1698e-001 -1.3169e-001  4.4635e-002 36057 92420,92576,92446
 3.5000e+000 92602 -5.4152e-002 -6.0932e-002 -2.6715e-001 36057 92498,92550,92524
 3.5000e+000 93023 -3.4752e-001 -4.6317e-001 -1.0792e-001 35717 92876,92928,92902
 3.5000e+000 93000 -3.1335e-001 -4.6694e-001 -1.0874e-001 35717 92824,92928,92876
 3.5000e+000 92977 -4.9495e-002 -4.1836e-001 -6.9063e-002 35717 92798,92928,92824
 3.5000e+000 92954 -2.8725e-001 -6.3375e-001 -4.3549e-001 35717 92824,92876,92850
 3.5000e+000 93499  6.8989e-002 -7.8976e-001  4.4916e-001 35405 93522,93309,93257
 3.5000e+000 93476  3.9461e-001 -5.5369e-001  3.1046e-001 35405 93666,93522,93257
 3.5000e+000 93453  2.1774e-001 -2.4378e+000  3.6320e-001 35405 93594,93127,93335
 3.5000e+000 93430 -2.1999e-002 -4.8240e-001  9.8368e-002 35405 93666,93257,93231
 3.5000e+000 93407 -1.0807e+000 -3.4504e+000 -8.8656e-001 35405 93127,93179,93153
 3.5000e+000 93384 -1.3192e+000 -4.3428e-002  4.1031e-001 35405 93179,93231,93205
 3.5000e+000 93361  6.1607e-001  9.9885e-001  3.2588e-001 35405 93257,93309,93283
 3.5000e+000 93548  1.0900e+000 -1.1063e-001  1.1200e+000 35405 93335,93309,93522
 3.5000e+000 93571  5.0629e-001 -1.2420e+000  6.0728e-001 35405 93594,93335,93522
 3.5000e+000 93620  1.9691e-001 -1.1581e+000  2.3462e-001 35405 93179,93127,93594
 3.5000e+000 93643 -7.3771e-002 -6.5224e-001  2.5209e-001 35405 93738,93594,93522
 3.5000e+000 93692 -2.1320e-002 -7.0493e-001  1.4668e-001 35405 93738,93522,93666
 3.5000e+000 93715 -3.3386e-001 -7.6361e-001 -1.1242e-001 35405 93179,93666,93231
 3.5000e+000 93764 -1.4224e-001 -8.0952e-001  2.6160e-001 35405 93179,93594,93738
 3.5000e+000 93787 -9.8356e-002 -8.6349e-001  1.7304e-001 35405 93179,93738,93666
 3.5000e+000 94372  6.6532e-001  3.0527e-002 -2.1028e-001 34951 94395,94127,94075
 3.5000e+000 94349  1.3139e+000 -3.4625e-002 -4.3634e-003 34951 94395,94075,94231
 3.5000e+000 94326  2.8246e-001 -5.5120e-001 -1.8353e-001 34951 94049,94231,94075
 3.5000e+000 94303 -1.1950e-001 -3.8176e-001  2.9277e-001 34951 94075,94127,94101
 3.5000e+000 94280  1.3932e+000  1.7416e-001  3.6841e-001 34951 94127,94205,94153
 3.5000e+000 94257  1.6653e+000  1.0143e-001  7.6256e-001 34951 94153,94205,94179
 3.5000e+000 94421  1.1909e+000 -1.7526e-001  1.8885e-001 34951 94205,94127,94395
 3.5000e+000 94444  2.3925e+000  1.0254e-001  3.5579e-001 34951 94205,94395,94231
 3.5000e+000 94692 -1.3022e-002  7.1792e-002  7.7580e-003 34397 94715,94519,94467
 3.5000e+000 94669 -6.7661e-003  6.6129e-002  2.6368e-003 34397 94715,94467,94597
 3.5000e+000 94646  4.1232e-003  3.9386e-002  7.9065e-003 34397 94545,94597,94571
 3.5000e+000 94623 -1.8608e-002  6.2776e-002 -1.5594e-003 34397 94467,94519,94493
 3.5000e+000 94741  1.8062e-003  7.9826e-002  1.3383e-002 34397 94545,94519,94715
 3.5000e+000 94764 -2.3683e-003  6.6642e-002  2.9723e-003 34397 94545,94715,94597
 3.5000e+000 94985 -4.0584e-002  2.1895e-001 -3.2360e-002 33985 94835,94913,94887
 3.5000e+000 94962  2.1776e-001  8.5274e-001 -6.1065e-002 33985 94809,94913,94835
 3.5000e+000 94939  4.6946e-002  2.1794e-001 -3.8545e-002 33985 94835,94887,94861
 3.5000e+000 95186 -2.5906e-001 -5.5345e-001 -2.9072e-001 33645 95281,95209,95036
 3.5000e+000 95163  9.6575e-002 -6.8964e-001  5.4844e-002 33645 95209,95010,95088
 3.5000e+000 95140  3.2730e-001 -2.4377e-001 -6.7208e-002 33645 95010,95114,95088
 3.5000e+000 95235 -5.5794e-001 -6.6497e-001 -2.8089e-001 33645 95062,95036,95209
 3.5000e+000 95258 -4.0151e-001 -8.8708e-001  2.4289e-001 33645 95413,95209,95088
 3.5000e+000 95307 -6.6123e-002 -2.9468e-001 -3.8765e-001 33645 95010,95209,95281
 3.5000e+000 95439 -2.5000e-001 -6.6511e-001  1.6236e-001 33645 95062,95209,95413
 3.5000e+000 95766 -3.2849e-001  1.2007e-001 -5.4023e-001 33141 95789,95593,95567
 3.5000e+000 95743 -3.0385e-003 -1.1970e-001 -2.0129e-001 33141 95861,95789,95567
 3.5000e+000 95720 -3.2654e-002 -3.7769e-002 -5.1565e-002 33141 95861,95567,95671
 3.5000e+000 95697 -6.3291e-002 -5.1326e-002 -5.8631e-002 33141 95541,95671,95567
 3.5000e+000 95815 -4.6527e-002  7.4542e-001 -4.5803e-001 33141 95619,95593,95789
 3.5000e+000 95838  7.4712e-002  2.0457e-001 -1.9714e-001 33141 95619,95789,95645
 3.5000e+000 95887  1.0746e-001  1.4432e-001 -2.0465e-001 33141 95645,95789,95861
 3.5000e+000 95910  8.4555e-002  2.2893e-001 -3.3907e-002 33141 95645,95861,95671
 3.5000e+000 96060 -3.7860e-001 -3.3758e-001 -3.2605e-001 32487 95959,96011,95985
 3.5000e+000 96037  4.4760e-002 -2.3005e-001 -6.9081e-002 32487 95933,96011,95959
 3.5000e+000 96570 -2.6600e-001 -2.1981e-001  9.8765e-002 32033 96665,96593,96377
 3.5000e+000 96547 -4.3862e-001  2.5340e-002 -3.1081e-001 32033 96737,96593,96325
 3.5000e+000 96524 -2.9376e-001 -3.3913e-001  9.6586e-003 32033 96665,96377,96351
 3.5000e+000 96501 -5.2340e-001  8.9441e-002 -2.1036e-001 32033 96737,96325,96299
 3.5000e+000 96478 -4.6280e-001  3.0806e-001 -1.7160e-001 32033 96247,96429,96299
 3.5000e+000 96455 -9.8470e-001 -1.0156e+000 -1.0001e-001 32033 96247,96299,96273
 3.5000e+000 96619  2.2359e-002  1.3289e-002  9.4849e-002 32033 96809,96593,96403
 3.5000e+000 96642  2.6317e-001  6.5922e-001 -6.4010e-001 32033 96403,96593,96429
 3.5000e+000 96691 -9.1615e-002 -5.0192e-001 -2.5468e-002 32033 96325,96593,96665
 3.5000e+000 96714 -2.3963e-001 -7.1761e-001 -1.4285e-001 32033 96325,96665,96351
 3.5000e+000 96763 -5.8656e-001 -4.9116e-002 -3.3624e-001 32033 96429,96593,96737
 3.5000e+000 96786 -6.1614e-001  3.7929e-002 -2.3382e-001 32033 96429,96737,96299
 3.5000e+000 96835 -4.8044e-003 -8.7915e-002  4.5476e-002 32033 96377,96593,96809
 3.5000e+000 97064  6.4368e-002  8.3691e-002  2.1935e-002 31671 97087,96989,96963
 3.5000e+000 97041  2.0488e-002  8.7221e-002 -3.8918e-002 31671 97087,96963,96937
 3.5000e+000 97113 -2.9638e-002  7.8508e-002 -2.9343e-003 31671 97159,97087,97015
 3.5000e+000 97136  8.0498e-003  4.9048e-002 -2.5552e-002 31671 97015,97087,96937
 3.5000e+000 97185  1.9444e-002  1.0382e-002 -4.5409e-003 31671 96989,97087,97159
 3.5000e+000 97563 -2.4927e-002  1.2599e-001  1.8574e-002 31117 97586,97367,97341
 3.5000e+000 97540  7.7611e-004  9.4691e-002 -1.2834e-002 31117 97658,97586,97341
 3.5000e+000 97517  3.2955e-002  6.8368e-002  4.3622e-005 31117 97658,97341,97315
 3.5000e+000 97494 -7.0541e-002  2.3101e-002  3.3046e-003 31117 97289,97445,97315
 3.5000e+000 97471 -2.9599e-002  2.9775e-002  9.3736e-003 31117 97367,97419,97393
 3.5000e+000 97612 -1.2871e-002  2.9963e-002  2.7546e-002 31117 97419,97367,97586
 3.5000e+000 97635 -5.3885e-002  6.3015e-002 -3.4543e-002 31117 97419,97586,97445
 3.5000e+000 97684 -4.7821e-002  7.3222e-002 -3.0367e-003 31117 97445,97586,97658
 3.5000e+000 97707 -1.1895e-002  4.9191e-002  9.6797e-003 31117 97445,97658,97315
 3.5000e+000 98215 -1.7674e-001 -4.5553e-002 -2.8139e-001 30563 98238,97996,97944
 3.5000e+000 98192 -3.5510e-001 -3.2254e-003 -2.8211e-001 30563 98310,98238,97944
 3.5000e+000 98169 -5.2899e-001 -3.2789e-001 -3.4837e-001 30563 98310,97944,97918
 3.5000e+000 98146 -1.3199e-001 -4.0606e-002 -3.7868e-003 30563 97892,98074,97918
 3.5000e+000 98123 -2.9131e-002  2.0203e-001 -1.7961e-001 30563 97996,98048,98022
 3.5000e+000 98100 -3.5718e-001  1.2549e-002 -4.7325e-001 30563 97944,97996,97970
 3.5000e+000 98264 -1.8774e-001  2.4836e-002 -2.6931e-001 30563 98048,97996,98238
 3.5000e+000 98287 -1.0345e-001  3.6207e-001  1.3882e-002 30563 98048,98238,98074
 3.5000e+000 98336 -2.8251e-001 -1.3952e-001 -4.7269e-002 30563 98074,98238,98310
 3.5000e+000 98359 -3.4984e-001 -2.2112e-001 -8.1373e-002 30563 98074,98310,97918
 3.5000e+000 98607 -5.7297e-001  1.0425e-001 -4.7778e-003 30073 98630,98460,98408
 3.5000e+000 98584 -9.1818e-001  8.5090e-002 -5.7749e-002 30073 98630,98408,98382
 3.5000e+000 98561 -1.5884e-001  2.7118e-001 -1.7030e-001 30073 98382,98512,98486
 3.5000e+000 98538 -4.0532e-001  1.2245e-002  1.5200e-001 30073 98408,98460,98434
 3.5000e+000 98656 -3.9735e-001 -2.2437e-003 -7.2882e-002 30073 98486,98460,98630
 3.5000e+000 98679 -6.2914e-001  6.8474e-002 -1.2245e-001 30073 98486,98630,98382
 3.5000e+000 99157  4.4022e-001 -1.2637e-001  1.7515e-001 29669 99180,98837,98811
 3.5000e+000 99134  3.4741e-001 -3.4444e-002  3.2190e-001 29669 99324,99180,98811
 3.5000e+000 99111  3.3490e-001  3.1410e-001 -1.7121e-001 29669 99252,98863,98837
 3.5000e+000 99088  2.4807e-001 -2.7219e-001  4.0019e-001 29669 99324,98811,98993
 3.5000e+000 99065 -6.2038e-001  4.5080e-001  8.0762e-002 29669 98863,98941,98915
 3.5000e+000 99042 -5.3204e-001  4.0813e-001  1.2615e-001 29669 98863,98915,98889
 3.5000e+000 99019  4.3675e-002 -3.0070e-001  7.1637e-001 29669 98785,98993,98811
 3.5000e+000 99206  2.7383e-001 -1.8739e-001  9.0402e-004 29669 99252,98837,99180
 3.5000e+000 99229 -9.9154e-002  1.3808e-001  2.7354e-001 29669 98941,99180,98967
 3.5000e+000 99278  1.1730e-001  6.8516e-001 -1.0145e-001 29669 98941,98863,99252
 3.5000e+000 99301  2.6974e-001  4.6306e-001  9.2433e-002 29669 98941,99252,99180
 3.5000e+000 99350  2.0828e-001  2.6315e-001  2.7081e-001 29669 98967,99180,99324
 3.5000e+000 99373  1.9052e-001  8.9404e-002  3.0923e-001 29669 98967,99324,98993
 3.5000e+000 99958  4.3228e-001  3.5916e-001  7.7053e-002 29051 99981,99765,99739
 3.5000e+000 99935  9.4173e-002  5.6809e-002 -7.9667e-002 29051 99981,99739,99661
 3.5000e+000 99912  4.9678e-001 -4.8942e-001 -2.2207e-001 29051 99765,99817,99791
 3.5000e+000 99889 -4.6097e-001 -2.8541e-001  2.7910e-001 29051 99635,99817,99661
 3.5000e+000 99866 -6.0360e-001 -2.8708e-004  4.2673e-001 29051 99661,99739,99687
 3.5000e+000 99843 -7.5035e-001  1.9579e-001  2.1580e-001 29051 99687,99739,99713
 3.5000e+000 100007  6.5424e-001  2.7079e-002  8.8661e-002 29051 99817,99765,99981
 3.5000e+000 100030  4.5050e-001 -8.0737e-002  5.3969e-003 29051 99817,99981,99661
 3.5000e+000 100278  7.5502e-001  3.8148e-001  1.4098e-001 28525 100445,100301,100131
 3.5000e+000 100255  1.9629e-001  4.0472e-001  6.9986e-002 28525 100373,100301,100079
 3.5000e+000 100232  1.7522e-001 -4.3456e-003  1.3195e-001 28525 100373,100079,100053
 3.5000e+000 100209  5.4770e-001  5.9718e-001 -6.4725e-002 28525 100445,100131,100105
 3.5000e+000 100327  1.4779e+000  1.5710e-001  1.1219e-001 28525 100517,100301,100157
 3.5000e+000 100350  4.8009e-001  4.0264e-001 -1.8229e-001 28525 100157,100301,100183
 3.5000e+000 100399  1.6099e-001 -1.9370e-002  2.7785e-001 28525 100183,100301,100373
 3.5000e+000 100422  2.3419e-001 -3.1043e-001  3.3462e-001 28525 100183,100373,100053
 3.5000e+000 100471  4.7786e-001  1.8171e-001 -1.1791e-001 28525 100079,100301,100445
 3.5000e+000 100494 -4.9400e-002  1.3030e-001 -3.6230e-001 28525 100079,100445,100105
 3.5000e+000 100543  1.2551e+000  1.9242e-001 -5.1586e-002 28525 100131,100301,100517
 3.5000e+000 101209 -1.4756e+000  2.2130e-001  2.1249e-002 28185 100938,101016,100990
 3.5000e+000 101186 -1.6029e+000 -4.2236e-002 -1.3094e-001 28185 100912,101016,100938
 3.5000e+000 101163 -5.3959e-001  3.0051e-001 -1.7865e-002 28185 100912,101068,101016
 3.5000e+000 101140 -1.9345e+000 -3.2937e-001 -3.5462e-001 28185 100886,101068,100912
 3.5000e+000 101117 -5.6565e-001  1.9244e-001 -2.0733e-002 28185 101016,101068,101042
 3.5000e+000 101094 -3.8606e+000 -5.5315e-001  4.7543e-002 28185 100938,100990,100964
 3.5000e+000 101408  1.2801e-001 -5.5047e-002 -2.5799e-001 27781 101503,101431,101310
 3.5000e+000 101385 -2.6136e-001  3.5054e-001 -5.5088e-001 27781 101431,101258,101232
 3.5000e+000 101362  2.6982e-001 -1.1967e-001 -3.2592e-001 27781 101503,101310,101284
 3.5000e+000 101457  8.1911e-001  3.1304e-001 -3.9560e-001 27781 101336,101310,101431
 3.5000e+000 101480  2.0615e-001  6.0678e-001 -7.1845e-001 27781 101575,101431,101232
 3.5000e+000 101529  3.5348e-001  2.9135e-002 -4.8888e-001 27781 101258,101431,101503
 3.5000e+000 101552  1.9082e-001 -3.3489e-001 -3.0373e-001 27781 101705,101503,101284
 3.5000e+000 101601  3.4003e-001  7.8711e-001 -7.8849e-001 27781 101336,101431,101575
 3.5000e+000 101731 -1.0365e-001 -1.6408e-001 -4.8114e-001 27781 101258,101503,101705
 3.5000e+000 102237 -6.0537e-001 -2.7424e-001  2.9010e-002 27419 102476,102260,101992
 3.5000e+000 102214 -4.0373e-001 -3.9091e-001 -4.7306e-002 27419 102260,101940,101914
 3.5000e+000 102191 -6.4434e-001 -4.4019e-001  8.6888e-002 27419 102404,102332,102096
 3.5000e+000 102168 -5.6814e-001 -3.9621e-001  2.1221e-002 27419 102404,102096,102044
 3.5000e+000 102145 -5.6357e-001 -3.0652e-001  5.3757e-002 27419 102476,101992,101966
 3.5000e+000 102122 -3.9526e-001 -4.0661e-001 -5.4095e-004 27419 102044,102096,102070
 3.5000e+000 102286 -7.8091e-001 -4.3331e-001  1.0894e-001 27419 102018,101992,102260
 3.5000e+000 102309 -6.1563e-001 -3.4816e-001 -4.0080e-003 27419 102332,102018,102260
 3.5000e+000 102358 -6.7010e-001 -7.4255e-001  2.0252e-001 27419 101914,102096,102332
 3.5000e+000 102381 -5.6558e-001 -5.2051e-001  2.8480e-002 27419 101914,102332,102260
 3.5000e+000 102430 -5.0053e-001 -4.3712e-001 -1.8663e-002 27419 102018,102332,102404
 3.5000e+000 102453 -4.3393e-001 -3.6357e-001 -9.1623e-002 27419 102018,102404,102044
 3.5000e+000 102502 -5.0377e-001 -3.4708e-001  5.5156e-002 27419 101940,102260,102476
 3.5000e+000 102525 -7.5183e-002 -1.5484e-001  1.2742e-002 27419 101940,102476,101966
 3.5000e+000 103031 -7.5185e-001  7.5193e-001  5.5082e-001 26715 102708,102786,102760
 3.5000e+000 103008 -5.3184e-003 -2.3132e-001  5.5678e-002 26715 102708,102890,102786
 3.5000e+000 102985  9.4534e-001 -4.4835e-001  3.5094e-002 26715 102838,102890,102864
 3.5000e+000 102962  3.1696e-001  5.4782e-001  9.8913e-002 26715 102786,102890,102838
 3.5000e+000 102939  1.3457e+000  1.0590e+000  6.7511e-001 26715 102786,102838,102812
 3.5000e+000 102916 -1.2406e+000 -3.9043e-002  2.2092e-001 26715 102708,102760,102734
 3.5000e+000 103279  1.1576e-002  3.8502e-002 -7.7736e-002 26303 103302,103158,103080
 3.5000e+000 103256  1.1209e-001 -4.9365e-002 -8.2428e-002 26303 103302,103080,103054
 3.5000e+000 103233  2.1701e-001  1.4135e-001 -3.2805e-002 26303 103080,103158,103106
 3.5000e+000 103210 -2.7453e-001  1.6357e-002 -3.6073e-002 26303 103106,103158,103132
 3.5000e+000 103328 -1.5554e-001 -4.5294e-002 -4.0556e-002 26303 103184,103158,103302
 3.5000e+000 103351  3.6443e-002 -6.2402e-002 -6.4241e-002 26303 103184,103302,103054
 3.5000e+000 103501 -6.4184e-001 -3.4372e-001  2.6942e-002 25849 103374,103426,103400
 3.5000e+000 103478 -5.9464e-001 -3.6241e-001  5.1128e-003 25849 103374,103452,103426
 3.5000e+000 104090 -5.3897e-002  1.4146e-001  9.5028e-002 25445 103793,103871,103819
 3.5000e+000 104067  1.7843e-001  4.9743e-002 -3.1662e-003 25445 103793,103949,103871
 3.5000e+000 104044  2.7345e-001  2.1219e-001  4.7383e-002 25445 103871,103949,103923
 3.5000e+000 104021 -1.5320e-001  1.8859e-001 -6.0951e-002 25445 103819,103871,103845
 3.5000e+000 103998  1.9456e-001  1.6393e-001  2.0054e-001 25445 103767,103949,103793
 3.5000e+000 103975  3.5499e-001  1.4887e-001  3.7276e-002 25445 103871,103923,103897
 3.5000e+000 104419 -2.9784e-001 -1.6562e-001 -1.0718e-001 25083 104220,104298,104272
 3.5000e+000 104396 -5.3018e-001 -4.1993e-001 -9.5789e-003 25083 104220,104324,104298
 3.5000e+000 104373 -2.6299e-001 -2.1952e-001 -6.3363e-002 25083 104220,104272,104246
 3.5000e+000 104350 -5.0814e-001 -3.6866e-001  8.1892e-003 25083 104194,104324,104220
 3.5000e+000 105102  5.4061e-002 -2.0561e-001 -9.7074e-002 24793 104785,104863,104837
 3.5000e+000 105079 -1.3243e-002 -5.2102e-001 -2.8501e-001 24793 104759,104863,104785
 3.5000e+000 105056 -6.3052e-002 -9.3008e-002 -2.8713e-001 24793 104759,104915,104863
 3.5000e+000 105033 -1.4499e-001 -1.6758e-001 -2.3897e-001 24793 104733,104915,104759
 3.5000e+000 105010  1.6955e-001 -1.9978e-004 -2.5829e-001 24793 104863,104915,104889
 3.5000e+000 104987 -2.9644e-001 -2.8763e-002 -3.5349e-001 24793 104681,104915,104733
 3.5000e+000 104964 -4.7703e-002 -3.1451e-001 -1.4782e-001 24793 104785,104837,104811
 3.5000e+000 104941 -2.2066e-001  2.5373e-001 -3.4565e-001 24793 104681,104733,104707
 3.5000e+000 105252  8.6389e-001  8.5000e-001 -5.8257e-002 24389 105477,105275,105177
 3.5000e+000 105229  6.5981e-001  8.5285e-001  1.3647e-002 24389 105347,105275,105151
 3.5000e+000 105301  9.1132e-001  7.5711e-001 -8.4500e-002 24389 105203,105177,105275
 3.5000e+000 105324  1.0158e+000  1.0613e+000  6.6189e-002 24389 105203,105275,105125
 3.5000e+000 105373  8.2785e-001  6.5047e-001  1.8888e-002 24389 105125,105275,105347
 3.5000e+000 105503  9.0175e-001  8.8951e-001 -2.7016e-002 24389 105151,105275,105477
 3.5000e+000 106088 -5.7045e-001  4.7949e-001  6.1275e-001 23735 105791,105921,105895
 3.5000e+000 106065 -1.9339e+000 -2.7906e-002  6.7040e-001 23735 105765,105921,105791
 3.5000e+000 106042 -2.8682e-001  6.4224e-001  3.5708e-001 23735 105765,105947,105921
 3.5000e+000 106019 -2.1887e+000 -1.0139e-002  8.2049e-001 23735 105817,105895,105869
 3.5000e+000 105996 -1.3967e+000  2.2219e-001  7.5348e-001 23735 105791,105895,105817
 3.5000e+000 105973 -1.2068e+000  1.1695e-001  6.8138e-001 23735 105817,105869,105843
 3.5000e+000 106417  5.9901e-001  1.7959e+000 -3.8447e-001 23295 106218,106296,106270
 3.5000e+000 106394  2.5441e-001  5.7988e-001 -3.0883e-001 23295 106218,106322,106296
 3.5000e+000 106371 -1.8165e-002  3.5706e-001 -4.1674e-001 23295 106218,106270,106244
 3.5000e+000 106348  4.5645e-001  6.6605e-001 -1.1876e-001 23295 106192,106322,106218
 3.5000e+000 106746  9.3666e-003  6.0422e-001  1.5671e-001 23005 106521,106599,106547
 3.5000e+000 106723  5.2043e-001  8.1389e-001  8.9640e-003 23005 106521,106651,106599
 3.5000e+000 106700  3.6950e-001  5.5009e-001 -4.6316e-002 23005 106547,106599,106573
 3.5000e+000 106677  6.8183e-001  7.8766e-001  3.9999e-001 23005 106599,106651,106625
 3.5000e+000 107331 -2.1477e-001  1.2076e-001 -1.6954e-001 22601 107060,107190,107138
 3.5000e+000 107308 -7.2237e-001 -5.9008e-002 -3.6856e-001 22601 107034,107190,107060
 3.5000e+000 107285 -1.0115e+000 -2.6564e-001 -3.8306e-001 22601 107060,107138,107112
 3.5000e+000 107262 -1.1125e+000 -2.4698e-001 -4.2703e-001 22601 107008,107190,107034
 3.5000e+000 107239 -8.1564e-002  7.0809e-001 -7.7905e-001 22601 107060,107112,107086
 3.5000e+000 107216 -3.1784e-001  1.5256e-001 -1.0506e-001 22601 107138,107190,107164
 3.5000e+000 107807 -4.5195e-001  3.9419e-002 -8.7958e-002 22031 107974,107902,107617
 3.5000e+000 107784 -5.4884e-001  3.0756e-001 -2.2795e-001 22031 107830,107565,107513
 3.5000e+000 107761 -3.7901e-001 -8.6326e-003 -2.7246e-001 22031 108046,107830,107513
 3.5000e+000 107738 -3.4502e-001  2.2402e-001  1.4277e-002 22031 107974,107617,107591
 3.5000e+000 107715 -4.2339e-001 -1.2715e-001 -2.6232e-001 22031 108046,107513,107461
 3.5000e+000 107692 -1.3758e+000  4.6367e-001 -3.8535e-001 22031 107513,107565,107539
 3.5000e+000 107669 -2.1151e-001  2.1742e-001 -3.5814e-001 22031 107461,107513,107487
 3.5000e+000 107856 -6.6952e-001  1.4304e-001 -1.6023e-001 22031 107902,107565,107830
 3.5000e+000 107879 -4.1298e-001 -1.5650e-001 -3.7297e-002 22031 107643,107830,107435
 3.5000e+000 107928 -8.5193e-001  3.1635e-001 -3.7105e-001 22031 107643,107617,107902
 3.5000e+000 107951 -6.0780e-001  1.3973e-001  4.6536e-003 22031 107643,107902,107830
 3.5000e+000 108000 -5.8141e-001  3.0131e-001 -1.0917e-001 22031 107565,107902,107974
 3.5000e+000 108023 -5.6075e-001  2.4308e-001 -8.4606e-002 22031 107565,107974,107591
 3.5000e+000 108072 -3.0483e-001 -1.5600e-001 -1.0158e-001 22031 107435,107830,108046
 3.5000e+000 108095 -3.8401e-001 -3.4450e-001 -9.2954e-002 22031 107435,108046,107461
 3.5000e+000 108196  4.2212e-002  3.5959e-002 -1.6172e-001 21783 108118,108170,108144
 3.5000e+000 108655  1.4624e-001  8.3813e-001  4.9395e-001 21379 108407,108485,108459
 3.5000e+000 108632  1.6767e+000 -5.3153e-002  6.9860e-001 21379 108407,108511,108485
 3.5000e+000 108609  1.7269e+000 -2.7579e-001  4.1952e-001 21379 108381,108511,108407
 3.5000e+000 108586  7.3189e-001  4.1435e-001 -5.6782e-001 21379 108381,108537,108511
 3.5000e+000 108563  4.4414e-001  1.1385e-001  2.2492e-001 21379 108407,108459,108433
 3.5000e+000 109082 -1.0246e-001  5.4413e-001  1.4966e-001 20974 109105,108863,108811
 3.5000e+000 109059  2.7913e-001  7.5111e-001 -1.2168e-001 20974 109105,108811,108759
 3.5000e+000 109036 -9.1816e-002  1.1021e+000 -4.1591e-002 20974 109177,108889,108863
 3.5000e+000 109013  5.9572e-001  1.0451e+000 -1.1493e-001 20974 108811,108863,108837
 3.5000e+000 108990 -2.7272e-001  1.3048e-002 -3.5381e-002 20974 108759,108941,108915
 3.5000e+000 108967  1.2431e-001 -1.8943e-001  2.7862e-002 20974 108759,108811,108785
 3.5000e+000 109131  6.2843e-002  8.9374e-001  8.1254e-002 20974 109177,108863,109105
 3.5000e+000 109154 -1.3807e-002  4.1281e-002 -2.4619e-002 20974 108915,109105,108759
 3.5000e+000 109203 -1.3545e-001  9.2358e-001  1.8701e-001 20974 108915,108889,109177
 3.5000e+000 109226 -1.3292e-001  4.4580e-001  2.9177e-001 20974 108915,109177,109105
 3.5000e+000 109496 -6.7651e-001  2.8856e-002 -6.4626e-002 20470 109271,109375,109297
 3.5000e+000 109473 -6.1147e-001  1.1443e-001 -1.0587e-001 20470 109271,109401,109375
 3.5000e+000 109450 -7.8042e-001 -1.1205e-001 -1.1466e-001 20470 109297,109375,109349
 3.5000e+000 109427 -1.0680e+000 -6.8652e-001  1.9984e-001 20470 109297,109349,109323
 3.5000e+000 109955  1.9427e-001  1.4602e+000  8.6357e-001 20123 110050,109733,109707
 3.5000e+000 109932 -6.6171e-001  6.9779e-001  4.9367e-001 20123 110050,109707,109681
 3.5000e+000 109909  1.7512e-001  3.4650e-001  5.1254e-001 20123 109978,109759,109733
 3.5000e+000 109886 -1.2855e-001  2.8030e-001  4.8870e-001 20123 110122,109978,109733
 3.5000e+000 109863  3.1054e-001  2.3067e-001  2.7564e-001 20123 109785,109837,109811
 3.5000e+000 110004  1.7037e-001  4.0244e-001  3.5635e-001 20123 109785,109759,109978
 3.5000e+000 110027  4.8559e-002  3.1960e-001  2.9109e-001 20123 109785,109978,109837
 3.5000e+000 110076 -2.9228e-001  5.1301e-001  3.8701e-001 20123 110122,109733,110050
 3.5000e+000 110099 -2.7723e-001  4.4683e-001  9.9668e-002 20123 109837,110050,109681
 3.5000e+000 110148  1.8658e-001  6.1164e-001  3.5340e-001 20123 109837,109978,110122
 3.5000e+000 110171  3.7785e-002  8.1305e-001  2.4858e-001 20123 109837,110122,110050
 3.5000e+000 110500  9.4137e-001  2.5584e-001 -2.0780e-001 19511 110301,110379,110353
 3.5000e+000 110477  1.5352e+000  8.6131e-001 -4.5991e-001 19511 110301,110405,110379
 3.5000e+000 110454  3.9653e-001  2.7915e-001 -1.9504e-001 19511 110275,110405,110301
 3.5000e+000 110431  8.2215e-001  3.5564e-001  3.5063e-001 19511 110301,110353,110327
 3.5000e+000 110957  7.3595e-002  1.1054e+000 -6.2046e-001 19107 110683,110735,110709
 3.5000e+000 110934  4.1889e-002 -2.3402e-001 -9.7144e-001 19107 110683,110813,110735
 3.5000e+000 110911  4.3377e-001  6.9260e-001 -8.5054e-001 19107 110735,110813,110761
 3.5000e+000 110888 -4.8788e-001 -6.7019e-001 -5.8434e-001 19107 110683,110839,110813
 3.5000e+000 110865  2.2645e-001  2.0344e-001 -8.4615e-001 19107 110761,110813,110787
 3.5000e+000 111335 -2.1117e-001 -3.5824e-001 -1.0455e-001 18653 111087,111165,111139
 3.5000e+000 111312  3.3168e-003 -1.2211e-001 -1.9754e-001 18653 111087,111217,111165
 3.5000e+000 111289 -1.9249e-001 -2.4181e-001  4.7573e-002 18653 111061,111217,111087
 3.5000e+000 111266 -1.6821e-001 -2.8530e-001 -8.2037e-002 18653 111087,111139,111113
 3.5000e+000 111243 -9.1055e-003 -1.7875e-001 -1.5987e-001 18653 111165,111217,111191
 3.5000e+000 111735 -1.0884e+000 -4.0174e-001 -4.0177e-003 18213 111461,111513,111487
 3.5000e+000 111712 -1.1201e+000 -7.5925e-001  1.8179e-002 18213 111461,111617,111513
 3.5000e+000 111689 -1.0583e+000 -6.4934e-001 -1.2637e-001 18213 111513,111617,111591
 3.5000e+000 111666 -4.2461e-001 -3.0813e-001  9.8752e-002 18213 111513,111591,111539
 3.5000e+000 111643 -1.2165e-001 -3.0032e-001  7.2185e-003 18213 111539,111591,111565
 3.5000e+000 111885  5.6887e-001 -4.3624e-001  2.3379e-001 17659 111784,111836,111810
 3.5000e+000 111862  1.2315e+000  2.4860e-001  5.2725e-001 17659 111758,111836,111784
 3.5000e+000 112287 -7.1458e-003  4.1604e-001 -2.7952e-001 17411 112065,112169,112143
 3.5000e+000 112264 -1.2891e+000  5.8862e-002  1.1933e-001 17411 112039,112169,112065
 3.5000e+000 112241 -1.3789e+000  6.7659e-002 -1.0218e-001 17411 112013,112169,112039
 3.5000e+000 112218  3.0911e+000  7.3897e-001 -6.6762e-001 17411 112091,112143,112117
 3.5000e+000 112195 -4.7689e-002 -1.2979e-001  1.5012e-001 17411 112065,112143,112091
 3.5000e+000 112508 -6.6794e-001  3.7096e-001  7.0564e-002 17007 112384,112436,112410
 3.5000e+000 112485 -5.2190e-001  5.0346e-001  1.2784e-001 17007 112332,112436,112384
 3.5000e+000 112462 -6.5614e-001  2.4434e-001  7.9633e-002 17007 112332,112384,112358
 3.5000e+000 112658 -1.8428e+000 -4.4035e-001  3.2528e-001 16553 112557,112609,112583
 3.5000e+000 112635 -1.9948e+000 -2.4201e-001  3.8907e-001 16553 112531,112609,112557
 3.5000e+000 112761 -4.3821e-001  1.4216e+000 -2.5414e-001 16355 112683,112735,112709
 3.5000e+000 112913 -1.0358e+000  4.8994e-001  5.7613e-002 15949 112786,112838,112812
 3.5000e+000 112890 -5.3441e-001  1.3444e+000 -1.8382e-001 15949 112786,112864,112838
 3.5000e+000 113065  1.1391e-001 -1.7653e-001 -5.8740e-002 15609 112938,112990,112964
 3.5000e+000 113042  4.6162e-001 -2.2995e-002  2.6790e-003 15609 112938,113016,112990
 3.5000e+000 113420  7.1495e-001  5.9071e-001  2.3478e-001 15284 113247,113325,113299
 3.5000e+000 113397  6.6748e-001  4.7447e-001  1.2995e-001 15284 113195,113325,113247
 3.5000e+000 113374  4.4355e-001  4.1349e-001  7.5884e-002 15284 113195,113247,113221
 3.5000e+000 113351  6.5672e-001  9.6060e-001  2.5588e-001 15284 113247,113299,113273
 3.5000e+000 113521  3.7764e-001 -1.8439e-001  1.6609e-001 202 113443,113495,113469
 4.0000e+000 65564  1.8975e-002 -1.4510e-002 -4.9552e-002 65155 65414,65466,65440
 4.0000e+000 65541 -7.8545e-002  6.8525e-002  5.0984e-002 65155 65414,65492,65466
 4.0000e+000 65518 -1.2151e-002  1.1504e-001  7.2763e-004 65155 65388,65492,65414
 4.0000e+000 65883 -2.9768e-001  1.0320e+000 -3.5082e-002 64957 65635,65739,65713
 4.0000e+000 65860 -1.1846e-001  1.9653e+000 -1.1121e-002 64957 65635,65765,65739
 4.0000e+000 65837  1.6051e-001  2.0854e+000 -2.6859e-002 64957 65609,65765,65635
 4.0000e+000 65814 -2.1058e-001  1.4449e+000 -5.0211e-001 64957 65635,65713,65687
 4.0000e+000 65791 -8.5445e-002  1.7621e+000 -3.2678e-001 64957 65635,65687,65661
 4.0000e+000 65984 -3.8407e-001  3.9031e-001  2.7814e-001 64781 65906,65958,65932
 4.0000e+000 66232  4.5448e-001  5.8066e-001 -5.2260e-001 64469 66007,66059,66033
 4.0000e+000 66209 -4.0644e-001 -9.7083e-002 -8.2224e-001 64469 66007,66085,66059
 4.0000e+000 66186  4.9820e-002  1.1191e+000 -1.8026e-001 64469 66007,66137,66085
 4.0000e+000 66163 -8.3645e-001 -4.6889e-002 -1.1990e+000 64469 66085,66137,66111
 4.0000e+000 66504  2.1577e-003  1.9573e+000 -1.1419e-001 64271 66279,66383,66305
 4.0000e+000 66481 -2.1743e-001  1.9822e+000  5.5225e-002 64271 66279,66409,66383
 4.0000e+000 66458 -3.6912e-001  2.5290e+000 -1.5214e-001 64271 66305,66357,66331
 4.0000e+000 66435  1.0024e-001  2.4584e+000 -1.5622e-001 64271 66305,66383,66357
 4.0000e+000 66705 -9.6287e-003  1.9225e+000 -2.8143e-001 64073 66728,66581,66555
 4.0000e+000 66682  4.3226e-002  2.0185e+000 -2.4935e-001 64073 66728,66555,66529
 4.0000e+000 66659 -7.9619e-001  2.6190e+000  7.2531e-001 64073 66581,66633,66607
 4.0000e+000 66754 -1.0363e-001  2.0221e+000 -3.1946e-001 64073 66633,66581,66728
 4.0000e+000 66777 -4.8115e-002  2.1337e+000 -2.9546e-001 64073 66633,66728,66529
 4.0000e+000 66951  3.0473e-001 -4.1854e-002  4.0059e-001 63783 66824,66876,66850
 4.0000e+000 66928 -1.0853e+000  8.1301e-001 -1.2976e-001 63783 66824,66902,66876
 4.0000e+000 67201  7.2608e-001  2.2611e+000 -1.2954e-001 63585 66976,67080,67054
 4.0000e+000 67178  3.5448e-001  2.1142e+000 -2.4509e-001 63585 66976,67106,67080
 4.0000e+000 67155  3.3567e-001  1.0502e+000  1.6356e-003 63585 66976,67054,67028
 4.0000e+000 67132  5.2304e-001  1.3589e+000  3.7035e-001 63585 66976,67028,67002
 4.0000e+000 67654 -2.1203e-001  1.4428e+000  4.8558e-002 63295 67357,67487,67383
 4.0000e+000 67631 -2.7082e-001  1.9893e+000 -4.0595e-001 63295 67331,67487,67357
 4.0000e+000 67608  1.0363e-001  2.5750e+000  9.0345e-002 63295 67331,67513,67487
 4.0000e+000 67585 -2.8938e-002  2.6950e+000 -9.6075e-002 63295 67435,67487,67461
 4.0000e+000 67562  1.0567e-001  2.6122e+000  4.8880e-002 63295 67383,67487,67435
 4.0000e+000 67539 -5.8816e-003  2.0581e+000 -1.0021e-001 63295 67383,67435,67409
 4.0000e+000 67853 -1.4741e-002  1.7530e+000 -4.8623e-002 62891 67876,67703,67677
 4.0000e+000 67830  7.9262e-002  2.2014e+000 -2.0935e-002 62891 67876,67677,67781
 4.0000e+000 67807 -2.3607e-001  1.4264e+000 -1.2830e-001 62891 67948,67729,67703
 4.0000e+000 67902 -2.6510e-002  1.6575e+000 -2.6086e-001 62891 67948,67703,67876
 4.0000e+000 67925  4.4384e-001  1.8237e+000 -3.0601e-001 62891 67755,67876,67781
 4.0000e+000 67974  1.0193e-001  1.1424e+000 -7.8489e-002 62891 67755,67729,67948
 4.0000e+000 67997  1.4748e-001  1.2499e+000 -1.6566e-001 62891 67755,67948,67876
 4.0000e+000 68218  8.0454e-003  2.2537e-002 -1.1186e-002 62693 68042,68120,68068
 4.0000e+000 68195 -3.6415e-003  2.7625e-002  1.2039e-002 62693 68042,68146,68120
 4.0000e+000 68172 -7.3126e-002  9.1428e-002 -1.5603e-003 62693 68068,68120,68094
 4.0000e+000 68468  3.5682e-002  2.0571e-002 -3.4219e-002 62289 68491,68295,68269
 4.0000e+000 68445 -7.3699e-003 -9.2890e-003 -5.4982e-003 62289 68563,68491,68269
 4.0000e+000 68422 -1.6373e-002  8.7866e-003  9.8117e-003 62289 68563,68269,68243
 4.0000e+000 68399 -1.5833e-001 -1.4249e-001 -2.6324e-001 62289 68295,68347,68321
 4.0000e+000 68517  6.8288e-003  1.4657e-001 -7.9299e-002 62289 68347,68295,68491
 4.0000e+000 68540 -1.3447e-001  4.4850e-002 -3.2421e-002 62289 68347,68491,68373
 4.0000e+000 68589  1.0857e-002  2.8582e-002 -1.1470e-002 62289 68373,68491,68563
 4.0000e+000 68612 -4.5874e-003  3.3906e-002  5.2412e-003 62289 68373,68563,68243
 4.0000e+000 68911  7.0900e-002  1.6426e+000 -6.7240e-002 62091 69222,68934,68741
 4.0000e+000 68888 -3.6487e-001  1.7661e+000 -7.4330e-002 62091 69006,68934,68689
 4.0000e+000 68865 -5.7392e-001  1.5332e+000 -2.9673e-001 62091 69006,68689,68663
 4.0000e+000 68842  3.0986e-001  2.0846e+000  3.1631e-001 62091 69078,68793,68767
 4.0000e+000 68819  1.0390e-001  1.6691e+000 -1.7220e-001 62091 69222,68741,68715
 4.0000e+000 68960  3.5369e-001  1.8877e+000 -1.7122e-001 62091 68767,68741,68934
 4.0000e+000 68983  1.4220e-001  2.2065e+000  6.5044e-002 62091 69078,68767,68934
 4.0000e+000 69032 -2.8104e-001  1.9716e+000 -2.5501e-002 62091 69150,69006,68637
 4.0000e+000 69055 -2.9100e-001  1.8869e+000 -9.7413e-002 62091 68637,69006,68663
 4.0000e+000 69104  1.7861e-001  1.7774e+000  1.3479e-002 62091 68637,68793,69078
 4.0000e+000 69127 -2.4500e-001  1.9389e+000 -4.5286e-002 62091 69150,68637,69078
 4.0000e+000 69176 -1.4466e-001  1.7808e+000 -9.7453e-006 62091 68934,69006,69150
 4.0000e+000 69199  2.8917e-002  1.9015e+000 -7.5086e-002 62091 68934,69150,69078
 4.0000e+000 69248  2.2992e-002  1.5243e+000 -7.1217e-002 62091 68689,68934,69222
 4.0000e+000 69271  3.8875e-002  1.4917e+000 -1.4356e-001 62091 68689,69222,68715
 4.0000e+000 69521 -3.1265e-001  1.2593e-001  3.3737e-002 61893 69544,69348,69296
 4.0000e+000 69498 -1.0069e-001  1.9761e-001  3.6046e-002 61893 69544,69296,69400
 4.0000e+000 69475  3.8309e-002  1.6014e-001 -2.1347e-002 61893 69296,69426,69400
 4.0000e+000 69452  1.3287e-001  2.4317e-001 -2.3933e-001 61893 69296,69348,69322
 4.0000e+000 69570 -2.0495e-001 -1.1530e-002  2.1170e-001 61893 69374,69348,69544
 4.0000e+000 69593  1.7773e-001  1.4735e-001  1.9731e-001 61893 69374,69544,69400
 4.0000e+000 70046 -1.4877e-001  1.6634e+000 -3.4700e-002 61467 69749,69905,69879
 4.0000e+000 70023 -1.8803e-001  1.3664e+000 -3.9485e-001 61467 69723,69905,69749
 4.0000e+000 70000 -2.3741e-001  1.5365e+000 -8.4546e-004 61467 70069,69827,69775
 4.0000e+000 69977  2.1090e-001  2.5562e+000 -3.5334e-001 61467 70069,69775,69749
 4.0000e+000 69954  2.6396e-002  7.8922e-001  2.3555e-003 61467 70141,69853,69827
 4.0000e+000 69931 -4.0702e-001  1.7111e+000  5.3215e-001 61467 69775,69827,69801
 4.0000e+000 70095 -1.1188e-001  9.9249e-001  1.3357e-001 61467 70141,69827,70069
 4.0000e+000 70118 -1.6709e-001  1.5437e+000 -1.1133e-002 61467 69879,70069,69749
 4.0000e+000 70167 -1.2593e-001  1.1010e+000 -8.0366e-003 61467 69879,69853,70141
 4.0000e+000 70190 -4.8356e-002  1.5828e+000  1.2783e-001 61467 69879,70141,70069
 4.0000e+000 70291  2.1586e-001  2.7776e+000  2.9135e-001 61013 70213,70265,70239
 4.0000e+000 70441 -2.2249e-001 -1.7757e-002  9.6378e-002 60651 70340,70392,70366
 4.0000e+000 70418 -3.1340e-001  1.8217e-001 -3.5056e-002 60651 70314,70392,70340
 4.0000e+000 70642 -1.1036e-001  1.5389e+000  3.7889e-001 60311 70665,70492,70466
 4.0000e+000 70619  1.0289e-001  2.0552e+000  4.0333e-001 60311 70665,70466,70570
 4.0000e+000 70596 -5.2574e-001  6.2126e-001  1.8534e-002 60311 70492,70544,70518
 4.0000e+000 70691 -2.9505e-002  1.0280e+000 -1.6143e-001 60311 70544,70492,70665
 4.0000e+000 70714  3.0666e-001  1.8203e+000 -1.5168e-001 60311 70544,70665,70570
 4.0000e+000 70964 -3.7187e-001  1.2955e+000  6.9992e-002 59907 70987,70765,70739
 4.0000e+000 70941 -1.0921e-001  1.8960e+000 -3.4313e-002 59907 71059,70987,70739
 4.0000e+000 70918  7.4953e-002  2.7797e+000 -1.3750e-001 59907 71059,70739,70869
 4.0000e+000 70895  1.8604e-003  1.8914e+000 -1.1721e-001 59907 70817,70869,70843
 4.0000e+000 71013 -2.0977e-001  1.3173e+000 -2.7682e-001 59907 70791,70765,70987
 4.0000e+000 71036 -9.2048e-002  1.3294e+000 -2.1999e-001 59907 70791,70987,70817
 4.0000e+000 71085  9.4376e-002  1.3063e+000 -1.7296e-001 59907 70817,70987,71059
 4.0000e+000 71108 -7.6670e-002  1.6915e+000 -1.1791e-001 59907 70817,71059,70869
 4.0000e+000 71441  7.3250e-001  1.2132e+000 -1.4071e+000 59417 71464,71242,71216
 4.0000e+000 71418  1.1775e+000  1.5205e+000  1.9444e-001 59417 71464,71216,71320
 4.0000e+000 71395  4.1548e-001  1.6499e+000  4.8658e-001 59417 71216,71346,71320
 4.0000e+000 71372 -2.2498e+000  5.1012e-001 -7.2740e-002 59417 71268,71320,71294
 4.0000e+000 71490 -3.2386e-001  7.8336e-001 -1.5781e+000 59417 71268,71242,71464
 4.0000e+000 71513 -1.1218e+000  6.4783e-001  1.3117e-001 59417 71268,71464,71320
 4.0000e+000 71712  2.2487e-002  1.6418e+000 -2.7905e-001 58913 71562,71614,71588
 4.0000e+000 71689  1.1440e+000  1.5520e+000 -6.7020e-001 58913 71536,71614,71562
 4.0000e+000 71666  8.7056e-001  1.3187e+000 -5.6693e-001 58913 71536,71640,71614
 4.0000e+000 72171  9.6118e-001  2.0625e+000 -5.3333e-001 58409 72194,72027,72001
 4.0000e+000 72148  6.6330e-001  1.1767e+000 -5.3184e-001 58409 72194,72001,71949
 4.0000e+000 72125  1.6706e-001  1.4501e+000 -4.6557e-001 58409 71923,72053,71949
 4.0000e+000 72102 -6.6857e-002  8.0186e-001 -3.9313e-001 58409 71949,72001,71975
 4.0000e+000 72079  4.9210e-001  1.5147e+000 -5.1341e-001 58409 71897,72053,71923
 4.0000e+000 72220  7.2844e-001  2.1639e+000 -8.1426e-002 58409 72053,72027,72194
 4.0000e+000 72243  6.4516e-001  1.7623e+000 -1.6734e-001 58409 72053,72194,71949
 4.0000e+000 72491 -2.5891e+000 -9.5847e-001 -1.6979e+000 57855 72514,72318,72292
 4.0000e+000 72468  1.5278e+000  6.9945e-001 -1.8215e+000 57855 72514,72292,72266
 4.0000e+000 72445 -1.4215e+000  2.8754e-001  1.0974e-001 57855 72318,72396,72370
 4.0000e+000 72422 -3.7772e+000  1.2861e+000 -1.1179e+000 57855 72318,72370,72344
 4.0000e+000 72540 -2.9759e+000 -3.3531e-001 -1.0875e+000 57855 72396,72318,72514
 4.0000e+000 72563 -2.5833e+000 -2.8769e-001 -1.1109e+000 57855 72396,72514,72266
 4.0000e+000 72811  1.0227e+000  4.6742e-001 -7.0385e-001 57401 72612,72690,72638
 4.0000e+000 72788  1.7509e-001  1.2706e-001  7.4078e-002 57401 72586,72690,72612
 4.0000e+000 72765 -7.8958e-001 -7.2177e-001 -1.2173e+000 57401 72638,72690,72664
 4.0000e+000 72742  3.0188e-001  1.4204e+000 -2.6151e-001 57401 72586,72716,72690
 4.0000e+000 73144  1.7101e-001  1.0798e+000 -2.1309e-001 57004 72919,72997,72945
 4.0000e+000 73121  2.6688e-001  2.0361e+000 -4.7087e-001 57004 72919,73049,72997
 4.0000e+000 73098  1.8518e-001  1.3787e+000 -4.1688e-001 57004 72945,72997,72971
 4.0000e+000 73075  3.8158e-001  2.4522e+000 -5.7015e-001 57004 72997,73049,73023
 4.0000e+000 73650 -1.6719e+000  2.1356e+000 -1.4516e+000 56592 73673,73379,73353
 4.0000e+000 73627  2.2338e+000  2.8747e+000 -2.3312e+000 56592 73673,73353,73327
 4.0000e+000 73604 -1.0367e-001  1.9587e+000 -7.2868e-001 56592 73745,73509,73483
 4.0000e+000 73581 -3.0739e+000 -8.6816e-001 -3.6001e-001 56592 73379,73457,73405
 4.0000e+000 73558  3.3475e-001  3.1897e-001  5.3140e-002 56592 73379,73483,73457
 4.0000e+000 73535  2.5641e+000  4.7214e-001 -5.1588e-002 56592 73405,73457,73431
 4.0000e+000 73699 -1.3621e+000  1.4938e+000  2.8889e-001 56592 73483,73379,73673
 4.0000e+000 73722 -2.2003e-001  2.2736e+000 -8.3273e-001 56592 73745,73483,73673
 4.0000e+000 73771 -1.8574e-001  1.5341e+000 -7.0942e-001 56592 73327,73509,73745
 4.0000e+000 73794 -3.0696e-001  1.8119e+000 -8.6736e-001 56592 73327,73745,73673
 4.0000e+000 74123  1.7986e+000  1.2664e+000 -1.2046e-001 56152 74146,74002,73924
 4.0000e+000 74100  1.5060e+000  1.0609e+000 -5.8155e-004 56152 74146,73924,73898
 4.0000e+000 74077  1.8222e+000  1.3834e+000 -1.5912e-001 56152 73924,74002,73976
 4.0000e+000 74054  1.4098e+000  4.3872e-001  2.9173e-001 56152 73924,73976,73950
 4.0000e+000 74172  2.3220e+000  1.4861e+000 -3.9487e-001 56152 74028,74002,74146
 4.0000e+000 74195  1.7747e+000  1.1086e+000 -2.2449e-001 56152 74028,74146,73898
 4.0000e+000 74345 -1.5079e+000  7.3591e-002  6.1962e-001 55634 74218,74270,74244
 4.0000e+000 74322 -1.2633e-001  3.2801e-001  2.2581e-001 55634 74218,74296,74270
 4.0000e+000 74823  4.6024e-001 -1.4050e+000  4.2743e-001 55016 74918,74846,74581
 4.0000e+000 74800 -8.6561e-002  3.5076e-001  2.4075e-001 55016 74846,74477,74633
 4.0000e+000 74777 -5.4940e-001 -2.2317e+000  7.8586e-001 55016 74918,74581,74555
 4.0000e+000 74754 -1.1292e+000 -1.5465e+000  1.0759e+000 55016 74990,74503,74477
 4.0000e+000 74731 -2.0000e+000  1.2088e-001  1.0225e+000 55016 74451,74633,74477
 4.0000e+000 74708 -2.0475e+000  1.2389e+000  6.0791e-001 55016 74451,74659,74633
 4.0000e+000 74685 -2.0808e+000 -2.4258e+000  1.5878e+000 55016 74503,74555,74529
 4.0000e+000 74872  5.1088e-001 -1.3368e+000  3.4875e-001 55016 74607,74581,74846
 4.0000e+000 74895  1.8081e-002 -1.1016e+000  2.9523e-001 55016 74607,74846,74633
 4.0000e+000 74944 -9.6051e-001 -1.1673e+000  8.0102e-001 55016 74477,74846,74918
 4.0000e+000 74967 -1.1857e+000 -1.4700e+000  9.5384e-001 55016 74990,74477,74918
 4.0000e+000 75016 -9.3117e-001 -1.4730e+000  9.1232e-001 55016 74555,74503,74990
 4.0000e+000 75039 -9.3369e-001 -1.2853e+000  7.8375e-001 55016 74555,74990,74918
 4.0000e+000 75287 -2.3431e+000 -3.2678e+000 -1.1840e-001 54726 75310,75140,75114
 4.0000e+000 75264 -2.9028e+000 -1.9164e+000 -4.6043e-001 54726 75310,75114,75088
 4.0000e+000 75241 -3.1967e+000 -1.5111e+000 -1.7899e+000 54726 75088,75192,75166
 4.0000e+000 75218 -5.5507e+000  1.4592e-001 -1.7144e+000 54726 75062,75192,75088
 4.0000e+000 75336 -1.6484e+000 -2.4999e+000 -9.2380e-001 54726 75166,75140,75310
 4.0000e+000 75359 -2.7532e+000 -1.1610e+000 -9.3450e-001 54726 75166,75310,75088
 4.0000e+000 75946 -1.7484e-001  1.4267e-001  2.2373e-001 54322 75969,75701,75649
 4.0000e+000 75923 -7.2635e-001 -2.3076e-001  3.8812e-001 54322 75969,75649,75623
 4.0000e+000 75900 -4.0035e-001 -1.1014e-001 -6.0964e-002 54322 76041,75753,75701
 4.0000e+000 75877 -2.0824e-001  9.2336e-001  7.1371e-003 54322 75623,75805,75779
 4.0000e+000 75854 -5.0771e-001 -8.7758e-002 -2.3018e-001 54322 75701,75753,75727
 4.0000e+000 75831 -2.3324e-001 -1.1594e-001  1.3589e-002 54322 75649,75701,75675
 4.0000e+000 75995 -5.6824e-001 -1.0034e-002  8.6164e-002 54322 76041,75701,75969
 4.0000e+000 76018 -5.4724e-001  2.4617e-001  1.9287e-001 54322 75779,75969,75623
 4.0000e+000 76067 -3.1599e-001  1.5641e-001 -1.2064e-001 54322 75779,75753,76041
 4.0000e+000 76090 -4.2416e-001  3.5110e-001  2.8600e-002 54322 75779,76041,75969
 4.0000e+000 76468 -9.6934e-002  2.9265e-001 -6.0335e-003 53868 76491,76272,76220
 4.0000e+000 76445 -1.1086e-001  3.2678e-001 -4.5028e-002 53868 76491,76220,76324
 4.0000e+000 76422  1.6919e-002  2.8126e-001 -7.6586e-002 53868 76220,76272,76246
 4.0000e+000 76399 -1.6512e-001  7.0841e-001  1.3608e-001 53868 76194,76324,76220
 4.0000e+000 76376 -8.2438e-001  4.4118e-001 -9.1238e-003 53868 76194,76350,76324
 4.0000e+000 76517 -1.1308e-001  2.3903e-001  8.3505e-005 53868 76298,76272,76491
 4.0000e+000 76540 -1.1989e-001  2.8527e-001 -3.8375e-002 53868 76298,76491,76324
 4.0000e+000 76690 -6.9762e-002  3.8017e-001 -5.9553e-002 53356 76589,76641,76615
 4.0000e+000 76667  1.0138e-001  9.9757e-001  1.7299e-002 53356 76563,76641,76589
 4.0000e+000 76938 -5.8569e-001  4.8498e-001 -7.2235e-001 53009 77105,76961,76765
 4.0000e+000 76915  3.7688e-002  7.5573e-001 -3.9718e-001 53009 76961,76713,76843
 4.0000e+000 76892 -3.5651e-001  6.2037e-001 -1.7210e-001 53009 77033,76817,76791
 4.0000e+000 76869 -1.2688e+000  6.0388e-002 -1.4073e+000 53009 77105,76765,76739
 4.0000e+000 76987 -1.9555e-001  1.2568e+000 -5.0819e-001 53009 76791,76765,76961
 4.0000e+000 77010 -3.9915e-001  6.7766e-001 -4.1171e-001 53009 77033,76791,76961
 4.0000e+000 77059  9.3332e-003  7.8370e-001 -2.0855e-001 53009 76843,76817,77033
 4.0000e+000 77082 -5.9460e-002  8.1524e-001 -4.2964e-001 53009 76843,77033,76961
 4.0000e+000 77131  1.8211e-001  9.3995e-001 -4.5999e-001 53009 76713,76961,77105
 4.0000e+000 77154  7.3293e-002  9.0265e-001 -1.0358e+000 53009 76713,77105,76739
 4.0000e+000 77355  1.9530e+000 -2.1406e+000  1.1285e+000 52390 77378,77257,77231
 4.0000e+000 77332  1.3029e+000 -1.1589e+000  6.7209e-001 52390 77378,77231,77179
 4.0000e+000 77309  1.5166e+000 -1.8752e+000 -9.5348e-002 52390 77179,77231,77205
 4.0000e+000 77404  2.5157e+000 -1.4732e+000  7.9194e-001 52390 77283,77257,77378
 4.0000e+000 77427  1.9006e+000 -3.5634e-001  3.4448e-001 52390 77283,77378,77179
 4.0000e+000 77677 -2.2341e+000  2.5486e+000 -1.9772e+000 51986 77700,77504,77478
 4.0000e+000 77654 -3.2202e-002  3.5687e+000 -2.3249e+000 51986 77700,77478,77452
 4.0000e+000 77631 -2.0387e-001  1.7206e+000 -6.7039e-001 51986 77772,77556,77530
 4.0000e+000 77608 -3.6118e-001  1.6639e+000 -8.5072e-001 51986 77452,77582,77556
 4.0000e+000 77726 -6.9656e-001  2.5196e+000 -8.0029e-001 51986 77530,77504,77700
 4.0000e+000 77749 -9.4454e-003  2.0991e+000 -9.4209e-001 51986 77772,77530,77700
 4.0000e+000 77798  1.7812e-001  1.9671e+000 -1.0239e+000 51986 77452,77556,77772
 4.0000e+000 77821  3.7858e-001  2.0693e+000 -1.2564e+000 51986 77452,77772,77700
 4.0000e+000 78282  1.0245e+000  9.0710e-001 -8.5093e-002 51738 78008,78138,78060
 4.0000e+000 78259  2.8290e+000  2.5660e+000 -2.5909e+000 51738 78008,78164,78138
 4.0000e+000 78236  3.9140e-001  1.1318e-002 -1.1003e-001 51738 78086,78138,78112
 4.0000e+000 78213  2.7605e-001  2.8806e-001 -3.5079e-001 51738 78060,78138,78086
 4.0000e+000 78190  1.5263e+000  1.7530e-001 -4.0409e-001 51738 78008,78060,78034
 4.0000e+000 78432 -2.3681e-001 -1.1547e-001  4.5277e-003 51148 78305,78357,78331
 4.0000e+000 78409 -1.9919e-001  1.2404e-001 -3.8167e-002 51148 78305,78383,78357
 4.0000e+000 78891 -3.1667e-001 -1.4971e-001  2.4719e-001 50808 78914,78695,78669
 4.0000e+000 78868 -2.2555e-001  2.1894e-002  1.4604e-001 50808 78914,78669,78643
 4.0000e+000 78845 -2.4638e-002  1.3745e-001  1.1199e-001 50808 78643,78773,78747
 4.0000e+000 78822  4.4818e-002  1.1922e-001  1.4571e-001 50808 78617,78773,78643
 4.0000e+000 78799 -1.0924e-001  2.1018e-001  2.6786e-001 50808 78695,78747,78721
 4.0000e+000 78940 -1.1805e-001  1.2782e-002  1.5935e-001 50808 78747,78695,78914
 4.0000e+000 78963 -2.0647e-001  6.2017e-002  9.2727e-002 50808 78747,78914,78643
 4.0000e+000 79260 -2.6809e-001 -2.4429e-001 -1.7671e-001 50468 79283,79090,79012
 4.0000e+000 79237 -3.2486e-001 -1.1684e-001 -1.7551e-001 50468 79283,79012,78986
 4.0000e+000 79214 -4.3142e-001 -3.1327e-001 -1.6682e-001 50468 79012,79090,79038
 4.0000e+000 79191 -1.8639e-001  5.8759e-002 -2.7192e-001 50468 78986,79142,79116
 4.0000e+000 79168 -2.3888e-001 -3.1127e-001 -2.4161e-001 50468 79038,79090,79064
 4.0000e+000 79309 -2.6595e-001 -1.6699e-001 -2.0933e-001 50468 79116,79090,79283
 4.0000e+000 79332 -3.1342e-001 -2.2733e-002 -2.0137e-001 50468 79116,79283,78986
 4.0000e+000 79889  1.7888e+000  2.1608e+000 -8.5275e-001 50064 79569,79725,79699
 4.0000e+000 79866  2.5141e-001  1.3500e+000 -1.8844e+000 50064 79543,79725,79569
 4.0000e+000 79843  1.6979e+000  1.0187e+000 -8.0318e-001 50064 79621,79699,79673
 4.0000e+000 79820  1.8181e+000  1.2818e+000 -1.0256e+000 50064 79595,79699,79621
 4.0000e+000 79797  1.0507e+000  1.5916e+000 -1.3074e+000 50064 79569,79699,79595
 4.0000e+000 79774  1.5445e+000  3.4235e+000 -3.3172e-001 50064 79517,79725,79543
 4.0000e+000 79751  7.4889e-001  1.0688e+000 -8.9576e-001 50064 79621,79673,79647
 4.0000e+000 80169  1.7035e+000  2.2889e+000 -1.0680e+000 49724 80019,80097,80071
 4.0000e+000 80146  1.3657e+000  3.6829e+000 -1.4240e+000 49724 79993,80097,80019
 4.0000e+000 80123  1.0305e+000  2.0643e+000 -1.2102e+000 49724 80019,80071,80045
 4.0000e+000 80626 -1.2418e+000 -4.5907e-001 -2.5598e-001 49277 80352,80482,80378
 4.0000e+000 80603 -8.7769e-001 -3.6119e-001  8.2368e-002 49277 80352,80508,80482
 4.0000e+000 80580 -1.0070e+000 -3.3204e-001 -1.8094e-001 49277 80378,80482,80456
 4.0000e+000 80557 -1.2095e+000 -8.4117e-001 -1.9660e-001 49277 80378,80430,80404
 4.0000e+000 80534 -1.6074e+000 -5.7776e-001 -1.4141e-001 49277 80378,80456,80430
 4.0000e+000 81230 -2.5451e+000 -1.2423e+000  9.3421e-001 48716 81253,80835,80809
 4.0000e+000 81207 -1.6129e+000  9.9758e-002 -5.4917e-001 48716 81397,81253,80809
 4.0000e+000 81184 -1.2751e+000  1.2534e+000 -6.0780e-001 48716 81325,80913,80887
 4.0000e+000 81161 -9.2079e-001 -8.5616e-001 -5.1445e-001 48716 81397,80809,81017
 4.0000e+000 81138 -1.8610e+000  7.6332e-001 -9.7144e-001 48716 81469,80965,80913
 4.0000e+000 81115 -9.6260e-001  1.4271e-001  1.1368e+000 48716 80835,80887,80861
 4.0000e+000 81092  7.0223e-001 -1.6022e+000  1.7559e+000 48716 80809,81043,81017
 4.0000e+000 81069 -2.0950e+000 -1.0275e+000 -2.1769e+000 48716 80913,80965,80939
 4.0000e+000 81279  5.9568e-001  5.9806e-001  1.2011e-001 48716 80887,80835,81253
 4.0000e+000 81302 -1.9039e+000  9.3096e-001 -7.8029e-001 48716 81325,80887,81253
 4.0000e+000 81351 -1.4931e+000  8.8740e-001 -8.2243e-001 48716 81469,80913,81325
 4.0000e+000 81374 -1.7064e+000  1.5407e+000 -7.7920e-001 48716 80991,81325,81253
 4.0000e+000 81423 -1.2394e+000  1.3059e+000 -9.3227e-002 48716 80991,81253,81397
 4.0000e+000 81446 -6.9813e-001  1.4539e-001 -5.5105e-002 48716 80991,81397,81017
 4.0000e+000 81495 -2.5307e+000  1.0670e+000 -1.1019e+000 48716 80991,80965,81469
 4.0000e+000 81518 -2.2492e+000  1.1060e+000 -9.7241e-001 48716 80991,81469,81325
 4.0000e+000 81717 -7.7495e-002  8.4300e-002 -6.9203e-002 48262 81740,81567,81541
 4.0000e+000 81694  5.9628e-002  1.5881e-001 -9.8963e-002 48262 81740,81541,81645
 4.0000e+000 81671 -8.3116e-002 -1.9468e-001 -5.9097e-002 48262 81567,81619,81593
 4.0000e+000 81766  3.0058e-004  2.0726e-002  2.5632e-002 48262 81619,81567,81740
 4.0000e+000 81789  1.2746e-001  8.3291e-002  1.4410e-003 48262 81619,81740,81645
 4.0000e+000 81939  1.5791e+000  2.8966e+000 -5.7661e-001 47957 82034,81962,81864
 4.0000e+000 81916  2.9904e-001  2.2591e+000 -8.6403e-001 47957 82166,81962,81838
 4.0000e+000 81988  2.2000e+000  2.6835e+000  4.4162e-001 47957 82294,81962,81890
 4.0000e+000 82011  1.4799e+000  2.3230e+000 -9.0722e-002 47957 81890,81962,81812
 4.0000e+000 82060  1.5975e+000  3.2458e+000 -3.8244e-001 47957 81838,81962,82034
 4.0000e+000 82192 -3.5927e-001  2.1053e+000  4.5774e-001 47957 81812,81962,82166
 4.0000e+000 82320  2.9461e+000  2.4829e+000  2.2201e-002 47957 81864,81962,82294
 4.0000e+000 82549 -2.3739e-001 -1.1705e-001 -1.2821e-001 47617 82448,82500,82474
 4.0000e+000 82526  1.6377e-002  5.7742e-001 -4.2535e-002 47617 82422,82500,82448
 4.0000e+000 82902  6.4136e-001  3.1613e-001 -8.8898e-002 47255 82729,82807,82755
 4.0000e+000 82879  1.1518e+000  1.0866e+000  1.3349e-001 47255 82703,82807,82729
 4.0000e+000 82856  4.6070e-001  2.6993e-001  1.0331e-001 47255 82755,82807,82781
 4.0000e+000 82833  1.7042e+000  1.3232e+000  1.8910e-001 47255 82677,82807,82703
 4.0000e+000 83182  8.7392e-002 -8.7743e-001  4.2048e-001 46680 83032,83084,83058
 4.0000e+000 83159  5.0656e-001 -5.2382e-001  6.5069e-001 46680 83205,83084,83032
 4.0000e+000 83136 -5.7105e-001  3.7838e-002  5.4100e-001 46680 83006,83110,83084
 4.0000e+000 83231  1.0609e+000 -1.0086e-002  9.1965e-001 46680 83006,83084,83205
 4.0000e+000 83737 -2.1055e+000 -5.9260e-001  3.6453e-001 46290 83832,83760,83492
 4.0000e+000 83714 -2.1393e+000 -2.9850e-001  3.1312e-001 46290 83760,83440,83414
 4.0000e+000 83691 -1.6289e+000 -8.9197e-001  2.7772e-001 46290 83832,83492,83466
 4.0000e+000 83668 -1.7410e+000 -1.5347e+000  5.1883e-001 46290 83492,83570,83544
 4.0000e+000 83645 -2.7503e+000 -8.6016e-001  5.2190e-002 46290 83414,83596,83570
 4.0000e+000 83622 -1.5531e+000 -1.1163e+000  7.9143e-001 46290 83492,83544,83518
 4.0000e+000 83786 -1.9984e+000 -5.5163e-001  2.6456e-001 46290 83570,83492,83760
 4.0000e+000 83809 -2.1093e+000 -7.4292e-001  6.6190e-002 46290 83570,83760,83414
 4.0000e+000 83858 -1.4970e+000 -2.3288e-001  5.3699e-001 46290 83440,83760,83832
 4.0000e+000 83881 -6.6553e-001 -4.7640e-001  3.5570e-001 46290 83440,83832,83466
 4.0000e+000 84161 -1.3794e-002 -5.0893e-001  8.2290e-003 45829 84011,84063,84037
 4.0000e+000 84138 -2.9078e-001 -5.4676e-001 -3.8091e-002 45829 84011,84089,84063
 4.0000e+000 84115 -2.1886e-002 -4.2921e-001  8.0159e-003 45829 83985,84089,84011
 4.0000e+000 84311  1.4025e+000  1.8036e+000  2.7200e-001 45631 84184,84236,84210
 4.0000e+000 84288  8.6937e-001  2.0251e-001  1.0322e-001 45631 84184,84262,84236
 4.0000e+000 84657 -1.8535e-001 -2.9384e-001 -6.9255e-002 45155 84680,84490,84412
 4.0000e+000 84634 -2.4202e-001 -1.7937e-001 -2.5688e-002 45155 84680,84412,84360
 4.0000e+000 84611 -3.2539e-001 -3.9560e-001  5.3261e-002 45155 84412,84490,84438
 4.0000e+000 84588 -2.2384e-002  3.3374e-002 -6.2593e-002 45155 84334,84516,84360
 4.0000e+000 84565 -1.7266e-001  9.8550e-003 -3.5314e-001 45155 84360,84412,84386
 4.0000e+000 84542 -2.8157e-001 -4.3718e-001  2.3748e-002 45155 84438,84490,84464
 4.0000e+000 84706 -1.9212e-001 -1.8369e-001 -9.2733e-002 45155 84516,84490,84680
 4.0000e+000 84729 -2.3885e-001 -5.9413e-002 -6.6129e-002 45155 84516,84680,84360
 4.0000e+000 85077 -8.8477e-002 -5.2382e-001 -2.4472e-001 44508 85100,84754,84910
 4.0000e+000 85054 -1.5979e-001  3.7404e-002 -9.2969e-002 44508 84754,84936,84910
 4.0000e+000 85031 -5.4391e-001 -9.1871e-001  9.1725e-002 44508 85100,84910,84884
 4.0000e+000 85008 -4.7686e-001 -1.3009e-001 -4.6029e-001 44508 84780,84884,84832
 4.0000e+000 84985 -5.1833e-001 -2.3931e-001 -4.7698e-001 44508 84780,84832,84806
 4.0000e+000 84962 -1.3090e+000 -9.3866e-001 -7.8061e-002 44508 84832,84884,84858
 4.0000e+000 85126 -4.6067e-001  4.1457e-002 -5.7279e-001 44508 84780,84754,85100
 4.0000e+000 85149 -8.0703e-001 -3.4292e-001 -2.6695e-001 44508 84780,85100,84884
 4.0000e+000 85482  2.4502e-001  1.5505e-002 -8.6976e-002 44104 85335,85387,85361
 4.0000e+000 85459  1.5359e-001 -2.7174e-001 -1.9278e-002 44104 85309,85387,85335
 4.0000e+000 85436  4.1683e-002 -2.1838e-001 -1.5631e-001 44104 85257,85387,85309
 4.0000e+000 85413 -3.6755e-002 -4.5939e-003 -1.2513e-002 44104 85257,85309,85283
 4.0000e+000 85811 -2.8231e-001 -3.6647e-001 -1.2778e-001 43600 85586,85664,85612
 4.0000e+000 85788 -2.3999e-001 -6.7349e-002 -7.1899e-002 43600 85586,85690,85664
 4.0000e+000 85765 -1.2169e-001  2.2167e-001 -2.1128e-001 43600 85586,85716,85690
 4.0000e+000 85742 -3.1764e-001 -3.0239e-001 -2.5854e-001 43600 85612,85664,85638
 4.0000e+000 86010  2.7763e-001  1.2843e-001 -1.5163e-001 43224 85886,85938,85912
 4.0000e+000 85987  2.5896e-001  3.7847e-002 -1.3287e-001 43224 85834,85938,85886
 4.0000e+000 85964  2.5893e-001 -7.6877e-001 -1.0255e-001 43224 85834,85886,85860
 4.0000e+000 86420  2.7283e+000  1.1538e+000 -1.3261e-001 42820 86195,86299,86221
 4.0000e+000 86397  2.6920e+000  2.4718e+000 -9.3793e-001 42820 86195,86325,86299
 4.0000e+000 86374  1.7051e+000  1.2220e+000  3.3829e-001 42820 86221,86299,86273
 4.0000e+000 86351  1.2645e+000  9.3001e-001 -1.4884e-001 42820 86221,86273,86247
 4.0000e+000 86749  4.2460e-001 -6.1271e-001 -2.1484e-001 42223 86550,86602,86576
 4.0000e+000 86726  2.2774e+000 -1.2937e+000  1.0181e-001 42223 86550,86628,86602
 4.0000e+000 86703  6.6911e-001 -1.7366e+000  9.7998e-001 42223 86524,86628,86550
 4.0000e+000 86680  1.7148e+000  6.9173e-001  7.1600e-001 42223 86524,86654,86628
 4.0000e+000 87078  5.5634e-001 -3.8461e-001  2.4230e-001 41883 87173,87101,86905
 4.0000e+000 87055  4.5013e-001  9.0065e-001  8.1086e-002 41883 87101,86879,86853
 4.0000e+000 87032  5.7693e-002  1.1193e-001 -6.9162e-002 41883 86853,86983,86931
 4.0000e+000 87009  1.1966e-001  3.7809e-001 -1.5169e-001 41883 86931,86983,86957
 4.0000e+000 87127  9.6968e-001  3.2059e-001 -1.6455e-001 41883 86931,86905,87101
 4.0000e+000 87150  1.4562e-002 -1.0444e-001 -5.0604e-002 41883 86931,87101,86853
 4.0000e+000 87199  1.3404e-001  9.5221e-002  3.7286e-001 41883 86879,87101,87173
 4.0000e+000 87558 -4.7263e-002  9.5951e-001 -2.7956e-001 41471 87382,87460,87408
 4.0000e+000 87535 -1.4576e+000  8.9408e-001 -1.9540e-001 41471 87382,87486,87460
 4.0000e+000 87512  2.2430e-001  7.8887e-002 -1.2906e-001 41471 87408,87460,87434
 4.0000e+000 87806  1.1894e-001  5.5982e-002 -5.0389e-001 41017 87829,87607,87581
 4.0000e+000 87783  1.2049e-001 -2.5953e-001 -9.8507e-002 41017 87829,87581,87685
 4.0000e+000 87760  4.5926e-001 -6.7009e-002 -2.1267e-001 41017 87581,87711,87685
 4.0000e+000 87737  2.6118e-001 -8.7464e-001 -3.9316e-002 41017 87633,87685,87659
 4.0000e+000 87855 -1.3905e-001 -1.3943e-001 -2.9394e-001 41017 87633,87607,87829
 4.0000e+000 87878 -2.2657e-001 -5.0063e-001  1.2209e-001 41017 87633,87829,87685
 4.0000e+000 88258  2.4853e-002  3.4746e-002 -1.0299e-002 40613 88281,88036,88010
 4.0000e+000 88235 -2.5345e-003  4.2056e-002  6.8670e-004 40613 88281,88010,88088
 4.0000e+000 88212 -5.5944e-003  5.1874e-002 -7.0790e-003 40613 87984,88088,88010
 4.0000e+000 88189 -1.8014e-002  2.2155e-002 -4.1203e-003 40613 87984,88114,88088
 4.0000e+000 88166  2.1230e-002  2.9975e-003 -9.2281e-004 40613 87984,88140,88114
 4.0000e+000 88307  3.3307e-003  3.2189e-002 -7.6139e-003 40613 88062,88036,88281
 4.0000e+000 88330 -3.2977e-002  3.1505e-002  5.8611e-003 40613 88062,88281,88088
 4.0000e+000 88649 -6.9407e-003  5.5812e-002  2.9054e-003 40095 88375,88505,88401
 4.0000e+000 88626  1.1880e-002  3.1864e-002  1.5716e-002 40095 88375,88531,88505
 4.0000e+000 88603 -3.3371e-002  5.3975e-002  3.8985e-003 40095 88401,88505,88479
 4.0000e+000 88580 -6.8275e-002  5.4325e-001  2.7236e-001 40095 88427,88479,88453
 4.0000e+000 88557 -1.1946e-002  8.4155e-002 -5.7445e-003 40095 88401,88479,88427
 4.0000e+000 89078  7.6899e-001 -1.5222e+000 -8.7195e-001 39897 89101,88833,88807
 4.0000e+000 89055  2.8412e-002 -1.7592e+000 -9.3574e-001 39897 89101,88807,88911
 4.0000e+000 89032 -8.8361e-001 -1.4584e+000 -1.5811e+000 39897 88781,88911,88807
 4.0000e+000 89009 -1.5370e+000 -1.9101e+000 -1.8638e+000 39897 88781,88937,88911
 4.0000e+000 88986  2.9933e+000  2.9202e-001 -5.7162e-001 39897 88833,88885,88859
 4.0000e+000 88963 -2.3299e+000 -1.8139e+000 -2.3256e+000 39897 88755,88937,88781
 4.0000e+000 89127  1.4237e+000 -1.8968e+000 -1.5134e+000 39897 88885,88833,89101
 4.0000e+000 89150  3.0579e-001 -2.3415e+000 -1.6908e+000 39897 88885,89101,88911
 4.0000e+000 89300 -1.8157e+000 -1.7274e+000  6.8933e-001 39607 89453,89323,89199
 4.0000e+000 89277 -2.6452e+000 -1.0594e+000  5.5201e-001 39607 89525,89453,89199
 4.0000e+000 89349 -1.4061e+000 -1.6329e+000 -3.2737e-002 39607 89225,89199,89323
 4.0000e+000 89479 -1.4126e+000 -7.0945e-001  4.8486e-001 39607 89251,89323,89453
 4.0000e+000 89502 -1.4339e+000 -6.3057e-002  1.2344e+000 39607 89251,89453,89173
 4.0000e+000 89551 -1.1995e+000 -7.2050e-001  7.5053e-001 39607 89173,89453,89525
 4.0000e+000 90264 -1.2148e+000 -1.8186e+000 -3.7063e-001 39039 89996,90074,90048
 4.0000e+000 90241 -8.0785e-001 -9.3251e-001 -2.3655e-001 39039 89918,90074,89996
 4.0000e+000 90218 -1.2617e+000 -1.1679e+000 -7.4514e-004 39039 89918,89996,89944
 4.0000e+000 90195 -1.5784e+000 -1.0472e+000  6.4184e-002 39039 89892,90074,89918
 4.0000e+000 90172 -2.9216e-001 -1.7915e+000 -4.4808e-001 39039 89996,90048,90022
 4.0000e+000 90149 -2.1369e+000  8.4171e-001 -8.8857e-002 39039 89892,90100,90074
 4.0000e+000 90126 -1.4739e+000 -1.2485e+000 -1.9564e-001 39039 89944,89996,89970
 4.0000e+000 90770 -3.9646e-001 -4.9914e-001 -6.2528e-002 38635 90473,90603,90577
 4.0000e+000 90747 -2.1729e-001 -4.5509e-001 -5.9285e-004 38635 90447,90603,90473
 4.0000e+000 90724 -3.5710e-001 -6.6756e-001 -9.0868e-002 38635 90499,90577,90551
 4.0000e+000 90701 -3.6105e-001 -6.8841e-001 -5.8559e-002 38635 90473,90577,90499
 4.0000e+000 90678 -2.9114e-001 -8.6798e-001 -8.9818e-002 38635 90499,90551,90525
 4.0000e+000 90655 -3.7276e-001 -3.4420e-001  4.9830e-002 38635 90447,90629,90603
 4.0000e+000 90871 -8.9143e-002 -3.1214e-001 -1.5959e-001 38231 90793,90845,90819
 4.0000e+000 91458  1.9094e-001 -2.5096e-001 -1.0989e-001 37534 91161,91317,91291
 4.0000e+000 91435  6.7564e-002  1.8842e-002  7.5265e-002 37534 91135,91317,91161
 4.0000e+000 91412 -2.8794e-001 -1.0231e+000 -4.9578e-001 37534 91187,91291,91239
 4.0000e+000 91389  6.2184e-003 -1.0280e+000  4.0884e-002 37534 91161,91291,91187
 4.0000e+000 91366  3.0885e-003 -6.6820e-001 -3.5689e-001 37534 91239,91291,91265
 4.0000e+000 91343  6.5052e-001 -1.0478e+000 -8.9870e-001 37534 91187,91239,91213
 4.0000e+000 91915 -6.9986e-001 -7.2927e-001  1.8700e-002 37080 91938,91745,91667
 4.0000e+000 91892 -6.7054e-001 -6.1282e-001  1.7220e-001 37080 91938,91667,91797
 4.0000e+000 91869 -9.4093e-001  1.9677e-001 -1.6290e-001 37080 91641,91797,91667
 4.0000e+000 91846 -8.4094e-001 -8.4259e-001  7.4673e-002 37080 91667,91719,91693
 4.0000e+000 91823 -7.9203e-001 -7.4737e-001  2.7868e-002 37080 91667,91745,91719
 4.0000e+000 91964 -5.9412e-001 -4.7137e-001  2.1833e-002 37080 91771,91745,91938
 4.0000e+000 91987 -6.4340e-001 -5.2734e-001  1.8175e-001 37080 91771,91938,91797
 4.0000e+000 92235 -4.3045e-001 -5.5552e-001 -3.5028e-002 36397 92036,92088,92062
 4.0000e+000 92212 -3.0704e-001 -3.9933e-001 -8.8518e-002 36397 92036,92114,92088
 4.0000e+000 92189 -1.5534e-001 -2.7887e-001  2.6795e-003 36397 92036,92140,92114
 4.0000e+000 92166 -2.4198e-001 -1.8585e-001  1.4509e-002 36397 92010,92140,92036
 4.0000e+000 92694 -1.9057e-001 -6.5734e-003  3.6123e-002 36057 92446,92498,92472
 4.0000e+000 92671 -1.0695e-001  1.8357e-001  5.0166e-002 36057 92446,92550,92498
 4.0000e+000 92648  1.3186e-001  3.0391e-002 -8.2099e-003 36057 92446,92576,92550
 4.0000e+000 92625 -1.1323e-001 -1.1054e-001  6.1920e-002 36057 92420,92576,92446
 4.0000e+000 92602 -9.1965e-002 -6.5914e-002 -2.3723e-001 36057 92498,92550,92524
 4.0000e+000 93023 -4.6569e-001 -4.9103e-001 -1.1348e-001 35717 92876,92928,92902
 4.0000e+000 93000 -4.2453e-001 -5.1090e-001 -1.2073e-001 35717 92824,92928,92876
 4.0000e+000 92977 -1.6629e-001 -4.6826e-001 -7.6967e-002 35717 92798,92928,92824
 4.0000e+000 92954 -3.7099e-001 -6.3146e-001 -4.7468e-001 35717 92824,92876,92850
 4.0000e+000 93499  2.2222e-002 -7.2854e-001  3.3927e-001 35405 93522,93309,93257
 4.0000e+000 93476  2.7420e-001 -4.7270e-001  2.3074e-001 35405 93666,93522,93257
 4.0000e+000 93453  1.1347e-001 -2.2721e+000  2.7044e-001 35405 93594,93127,93335
 4.0000e+000 93430 -8.8093e-002 -4.0943e-001  4.5032e-002 35405 93666,93257,93231
 4.0000e+000 93407 -9.4388e-001 -2.8606e+000 -8.3022e-001 35405 93127,93179,93153
 4.0000e+000 93384 -1.2425e+000  4.9705e-002  3.7077e-001 35405 93179,93231,93205
 4.0000e+000 93361  4.8580e-001  7.6814e-001  2.4316e-001 35405 93257,93309,93283
 4.0000e+000 93548  8.6514e-001 -1.6212e-001  9.0822e-001 35405 93335,93309,93522
 4.0000e+000 93571  3.5597e-001 -1.1629e+000  4.9027e-001 35405 93594,93335,93522
 4.0000e+000 93620  8.3295e-002 -1.0722e+000  1.5313e-001 35405 93179,93127,93594
 4.0000e+000 93643 -1.6059e-001 -6.1193e-001  1.6020e-001 35405 93738,93594,93522
 4.0000e+000 93692 -8.6688e-002 -6.3398e-001  8.7328e-002 35405 93738,93522,93666
 4.0000e+000 93715 -3.3188e-001 -6.4838e-001 -1.1379e-001 35405 93179,93666,93231
 4.0000e+000 93764 -2.0672e-001 -7.0938e-001  1.9158e-001 35405 93179,93594,93738
 4.0000e+000 93787 -1.6979e-001 -7.4682e-001  1.2712e-001 35405 93179,93738,93666
 4.0000e+000 94372  5.0225e-001  2.3738e-002 -1.2101e-001 34951 94395,94127,94075
 4.0000e+000 94349  1.0132e+000 -1.4251e-002  3.0296e-002 34951 94395,94075,94231
 4.0000e+000 94326  2.5582e-002 -4.3061e-001 -2.3371e-002 34951 94049,94231,94075
 4.0000e+000 94303 -3.3031e-001 -4.4205e-001  4.0712e-001 34951 94075,94127,94101
 4.0000e+000 94280  1.1426e+000  1.2224e-001  3.3986e-001 34951 94127,94205,94153
 4.0000e+000 94257  1.4042e+000  1.9733e-001  6.4759e-001 34951 94153,94205,94179
 4.0000e+000 94421  9.1938e-001 -1.6117e-001  1.9935e-001 34951 94205,94127,94395
 4.0000e+000 94444  1.8745e+000  7.3792e-002  3.1595e-001 34951 94205,94395,94231
 4.0000e+000 94692 -2.6734e-002  5.2178e-002  2.9015e-003 34397 94715,94519,94467
 4.0000e+000 94669 -2.5780e-002  3.6285e-002 -2.3038e-004 34397 94715,94467,94597
 4.0000e+000 94646  1.1119e-002  4.6649e-002  2.5601e-002 34397 94545,94597,94571
 4.0000e+000 94623 -2.3844e-002  6.5194e-002 -1.1188e-002 34397 94467,94519,94493
 4.0000e+000 94741 -1.5119e-002  8.7227e-002  9.5514e-003 34397 94545,94519,94715
 4.0000e+000 94764 -3.1872e-002  4.5918e-002  3.3465e-003 34397 94545,94715,94597
 4.0000e+000 94985 -4.4868e-002  2.0552e-001 -2.4817e-002 33985 94835,94913,94887
 4.0000e+000 94962  2.5238e-001  9.3954e-001 -6.5434e-002 33985 94809,94913,94835
 4.0000e+000 94939  4.0609e-002  1.9748e-001 -2.8463e-002 33985 94835,94887,94861
 4.0000e+000 95186 -3.0975e-001 -5.1919e-001 -3.1012e-001 33645 95281,95209,95036
 4.0000e+000 95163  5.8553e-003 -7.0253e-001  5.1132e-002 33645 95209,95010,95088
 4.0000e+000 95140  2.5368e-001 -2.8626e-001 -7.1538e-002 33645 95010,95114,95088
 4.0000e+000 95235 -6.2465e-001 -6.0618e-001 -2.4912e-001 33645 95062,95036,95209
 4.0000e+000 95258 -4.5833e-001 -8.8498e-001  2.4501e-001 33645 95413,95209,95088
 4.0000e+000 95307 -1.6119e-001 -3.4405e-001 -3.7789e-001 33645 95010,95209,95281
 4.0000e+000 95439 -3.6352e-001 -7.1387e-001  1.8579e-001 33645 95062,95209,95413
 4.0000e+000 95766 -4.2766e-001  1.4835e-001 -5.6899e-001 33141 95789,95593,95567
 4.0000e+000 95743 -9.4786e-002 -1.1303e-001 -2.0655e-001 33141 95861,95789,95567
 4.0000e+000 95720 -1.2810e-001 -3.0675e-002 -5.3832e-002 33141 95861,95567,95671
 4.0000e+000 95697 -1.4584e-001 -6.9682e-002 -6.7999e-002 33141 95541,95671,95567
 4.0000e+000 95815 -1.3782e-001  8.2211e-001 -4.9193e-001 33141 95619,95593,95789
 4.0000e+000 95838 -1.2433e-002  2.3660e-001 -2.0965e-001 33141 95619,95789,95645
 4.0000e+000 95887  2.2640e-002  1.5733e-001 -2.2096e-001 33141 95645,95789,95861
 4.0000e+000 95910 -1.4348e-002  2.3784e-001 -4.7450e-002 33141 95645,95861,95671
 4.0000e+000 96060 -5.0534e-001 -3.4387e-001 -3.3544e-001 32487 95959,96011,95985
 4.0000e+000 96037 -8.2387e-002 -2.6882e-001 -7.4348e-002 32487 95933,96011,95959
 4.0000e+000 96570 -3.0451e-001 -1.8089e-001  1.0247e-001 32033 96665,96593,96377
 4.0000e+000 96547 -4.7983e-001  8.2554e-002 -2.8475e-001 32033 96737,96593,96325
 4.0000e+000 96524 -3.3152e-001 -2.8628e-001  2.4328e-002 32033 96665,96377,96351
 4.0000e+000 96501 -5.1541e-001  2.0350e-001 -2.1359e-001 32033 96737,96325,96299
 4.0000e+000 96478 -4.5572e-001  2.7761e-001 -1.9924e-001 32033 96247,96429,96299
 4.0000e+000 96455 -8.7259e-001 -8.5522e-001 -1.6950e-001 32033 96247,96299,96273
 4.0000e+000 96619 -3.5746e-002  9.2950e-003  6.6729e-002 32033 96809,96593,96403
 4.0000e+000 96642  1.9891e-001  6.3440e-001 -6.1100e-001 32033 96403,96593,96429
 4.0000e+000 96691 -1.4628e-001 -4.3049e-001 -9.6966e-003 32033 96325,96593,96665
 4.0000e+000 96714 -2.8082e-001 -6.2153e-001 -1.1321e-001 32033 96325,96665,96351
 4.0000e+000 96763 -5.6245e-001 -2.3772e-003 -3.3800e-001 32033 96429,96593,96737
 4.0000e+000 96786 -5.7380e-001  9.9365e-002 -2.5570e-001 32033 96429,96737,96299
 4.0000e+000 96835 -4.2728e-002 -4.4365e-002  4.0220e-002 32033 96377,96593,96809
 4.0000e+000 97064  1.7461e-002  6.5811e-002  2.0393e-002 31671 97087,96989,96963
 4.0000e+000 97041  3.3110e-002  9.0476e-002 -3.0340e-002 31671 97087,96963,96937
 4.0000e+000 97113 -3.4974e-002  3.8037e-002  2.8210e-002 31671 97159,97087,97015
 4.0000e+000 97136 -1.7306e-002 -3.6194e-002 -1.9580e-002 31671 97015,97087,96937
 4.0000e+000 97185  1.2391e-002  6.5675e-002  1.2214e-002 31671 96989,97087,97159
 4.0000e+000 97563 -2.7687e-002  9.8866e-002  9.8820e-003 31117 97586,97367,97341
 4.0000e+000 97540 -5.6161e-003  7.1459e-002 -1.7522e-002 31117 97658,97586,97341
 4.0000e+000 97517  1.9987e-002  5.6818e-002 -7.1712e-003 31117 97658,97341,97315
 4.0000e+000 97494 -7.6534e-002  2.6249e-002 -7.5255e-003 31117 97289,97445,97315
 4.0000e+000 97471 -2.7014e-002  1.7419e-002  1.1905e-002 31117 97367,97419,97393
 4.0000e+000 97612 -2.1803e-002  1.2911e-002  1.9267e-002 31117 97419,97367,97586
 4.0000e+000 97635 -5.6058e-002  4.6265e-002 -3.9981e-002 31117 97419,97586,97445
 4.0000e+000 97684 -4.7495e-002  6.2886e-002 -1.3114e-002 31117 97445,97586,97658
 4.0000e+000 97707 -1.8505e-002  5.0749e-002 -2.5528e-003 31117 97445,97658,97315
 4.0000e+000 98215 -2.3528e-001 -2.4395e-002 -2.8458e-001 30563 98238,97996,97944
 4.0000e+000 98192 -3.7886e-001  3.7463e-002 -2.7599e-001 30563 98310,98238,97944
 4.0000e+000 98169 -5.2401e-001 -2.9548e-001 -3.0838e-001 30563 98310,97944,97918
 4.0000e+000 98146 -2.0637e-001 -2.2554e-002  2.8702e-002 30563 97892,98074,97918
 4.0000e+000 98123 -1.1435e-001  3.1733e-001 -2.3683e-001 30563 97996,98048,98022
 4.0000e+000 98100 -3.6257e-001  6.9242e-002 -4.9906e-001 30563 97944,97996,97970
 4.0000e+000 98264 -2.3853e-001  5.6070e-002 -2.7599e-001 30563 98048,97996,98238
 4.0000e+000 98287 -1.7885e-001  3.8119e-001  3.2304e-003 30563 98048,98238,98074
 4.0000e+000 98336 -3.6485e-001 -1.2053e-001 -4.2058e-002 30563 98074,98238,98310
 4.0000e+000 98359 -3.9744e-001 -2.1200e-001 -4.8493e-002 30563 98074,98310,97918
 4.0000e+000 98607 -7.0628e-001  1.2998e-001 -6.7250e-003 30073 98630,98460,98408
 4.0000e+000 98584 -1.0624e+000  1.0917e-001 -6.1639e-002 30073 98630,98408,98382
 4.0000e+000 98561 -2.7525e-001  3.0211e-001 -1.9038e-001 30073 98382,98512,98486
 4.0000e+000 98538 -5.2202e-001  3.7333e-002  1.5668e-001 30073 98408,98460,98434
 4.0000e+000 98656 -5.2499e-001  1.9213e-002 -7.7002e-002 30073 98486,98460,98630
 4.0000e+000 98679 -7.6404e-001  9.1135e-002 -1.2827e-001 30073 98486,98630,98382
 4.0000e+000 99157  2.4011e-001 -1.5048e-001  1.9450e-001 29669 99180,98837,98811
 4.0000e+000 99134  2.3390e-001 -2.2201e-002  2.5535e-001 29669 99324,99180,98811
 4.0000e+000 99111  3.3511e-001  4.0744e-001 -2.3383e-001 29669 99252,98863,98837
 4.0000e+000 99088  1.3741e-001 -2.8334e-001  3.3972e-001 29669 99324,98811,98993
 4.0000e+000 99065 -8.2285e-001  5.7853e-001  1.0273e-001 29669 98863,98941,98915
 4.0000e+000 99042 -4.8982e-001  5.3986e-001  1.8773e-001 29669 98863,98915,98889
 4.0000e+000 99019 -7.1487e-002 -3.1379e-001  6.5584e-001 29669 98785,98993,98811
 4.0000e+000 99206  2.1542e-001 -1.4730e-001 -3.9335e-002 29669 99252,98837,99180
 4.0000e+000 99229 -1.5718e-001  2.1288e-001  1.8478e-001 29669 98941,99180,98967
 4.0000e+000 99278  3.1392e-002  8.2897e-001 -1.6223e-001 29669 98941,98863,99252
 4.0000e+000 99301  1.4488e-001  5.7789e-001  4.5558e-002 29669 98941,99252,99180
 4.0000e+000 99350  9.5501e-002  3.0397e-001  2.0514e-001 29669 98967,99180,99324
 4.0000e+000 99373  8.3480e-002  1.0940e-001  2.4659e-001 29669 98967,99324,98993
 4.0000e+000 99958  3.3450e-001  4.7362e-001  1.1016e-001 29051 99981,99765,99739
 4.0000e+000 99935 -5.4253e-003  6.3814e-002 -4.2065e-002 29051 99981,99739,99661
 4.0000e+000 99912  4.4474e-001 -3.6214e-001 -2.6885e-001 29051 99765,99817,99791
 4.0000e+000 99889 -6.8650e-001 -3.3963e-001  4.0606e-001 29051 99635,99817,99661
 4.0000e+000 99866 -8.0473e-001 -6.2680e-003  5.3721e-001 29051 99661,99739,99687
 4.0000e+000 99843 -9.6663e-001  2.4075e-001  2.7773e-001 29051 99687,99739,99713
 4.0000e+000 100007  5.4074e-001  5.5868e-002  1.4072e-001 29051 99817,99765,99981
 4.0000e+000 100030  3.6389e-001 -1.1797e-001  6.5724e-002 29051 99817,99981,99661
 4.0000e+000 100278  7.4119e-001  4.5634e-001  1.1590e-001 28525 100445,100301,100131
 4.0000e+000 100255  1.8236e-001  4.3123e-001  3.1180e-002 28525 100373,100301,100079
 4.0000e+000 100232  1.5912e-001  4.2330e-002  8.7738e-002 28525 100373,100079,100053
 4.0000e+000 100209  5.4093e-001  6.6955e-001 -8.6477e-002 28525 100445,100131,100105
 4.0000e+000 100327  1.5256e+000  2.1806e-001  6.2059e-002 28525 100517,100301,100157
 4.0000e+000 100350  4.4266e-001  3.4697e-001 -2.7021e-001 28525 100157,100301,100183
 4.0000e+000 100399  1.5426e-001  2.7254e-002  2.2940e-001 28525 100183,100301,100373
 4.0000e+000 100422  2.2025e-001 -2.4927e-001  2.8145e-001 28525 100183,100373,100053
 4.0000e+000 100471  4.7342e-001  2.5234e-001 -1.2905e-001 28525 100079,100301,100445
 4.0000e+000 100494 -3.1700e-002  2.0778e-001 -3.7059e-001 28525 100079,100445,100105
 4.0000e+000 100543  1.2240e+000  1.9906e-001 -6.7850e-002 28525 100131,100301,100517
 4.0000e+000 101209 -1.5958e+000  2.5534e-001  4.0774e-002 28185 100938,101016,100990
 4.0000e+000 101186 -1.6825e+000 -4.4562e-002 -1.4034e-001 28185 100912,101016,100938
 4.0000e+000 101163 -5.8526e-001  3.1160e-001 -2.7559e-002 28185 100912,101068,101016
 4.0000e+000 101140 -2.0357e+000 -4.1090e-001 -3.9819e-001 28185 100886,101068,100912
 4.0000e+000 101117 -6.4570e-001  1.3838e-001 -1.7652e-002 28185 101016,101068,101042
 4.0000e+000 101094 -4.0318e+000 -5.4004e-001  7.1574e-002 28185 100938,100990,100964
 4.0000e+000 101408  7.7512e-002 -2.8729e-002 -2.5669e-001 27781 101503,101431,101310
 4.0000e+000 101385 -2.9905e-001  4.3257e-001 -5.4076e-001 27781 101431,101258,101232
 4.0000e+000 101362  2.2644e-001 -9.5437e-002 -3.2723e-001 27781 101503,101310,101284
 4.0000e+000 101457  7.5128e-001  3.5503e-001 -4.1555e-001 27781 101336,101310,101431
 4.0000e+000 101480  1.8670e-001  7.1342e-001 -7.5421e-001 27781 101575,101431,101232
 4.0000e+000 101529  3.1044e-001  7.9934e-002 -4.8599e-001 27781 101258,101431,101503
 4.0000e+000 101552  1.3218e-001 -3.5570e-001 -3.0120e-001 27781 101705,101503,101284
 4.0000e+000 101601  2.7066e-001  8.0141e-001 -8.0527e-001 27781 101336,101431,101575
 4.0000e+000 101731 -1.2276e-001 -1.0860e-001 -4.6286e-001 27781 101258,101503,101705
 4.0000e+000 102237 -7.3606e-001 -2.8398e-001  4.2744e-002 27419 102476,102260,101992
 4.0000e+000 102214 -5.1708e-001 -4.0587e-001 -4.5189e-002 27419 102260,101940,101914
 4.0000e+000 102191 -7.7964e-001 -4.5272e-001  1.0245e-001 27419 102404,102332,102096
 4.0000e+000 102168 -6.8947e-001 -4.0467e-001  2.3267e-002 27419 102404,102096,102044
 4.0000e+000 102145 -6.9068e-001 -3.1882e-001  6.9486e-002 27419 102476,101992,101966
 4.0000e+000 102122 -4.7304e-001 -4.5047e-001  4.5918e-003 27419 102044,102096,102070
 4.0000e+000 102286 -9.4582e-001 -4.6749e-001  1.3851e-001 27419 102018,101992,102260
 4.0000e+000 102309 -7.4461e-001 -3.6445e-001  5.9209e-003 27419 102332,102018,102260
 4.0000e+000 102358 -8.0673e-001 -7.7270e-001  2.2504e-001 27419 101914,102096,102332
 4.0000e+000 102381 -6.9428e-001 -5.3453e-001  3.8449e-002 27419 101914,102332,102260
 4.0000e+000 102430 -6.0723e-001 -4.4464e-001 -1.5594e-002 27419 102018,102332,102404
 4.0000e+000 102453 -5.3039e-001 -3.6448e-001 -1.0351e-001 27419 102018,102404,102044
 4.0000e+000 102502 -6.2923e-001 -3.5596e-001  7.0646e-002 27419 101940,102260,102476
 4.0000e+000 102525 -1.8159e-001 -1.5806e-001  3.0255e-002 27419 101940,102476,101966
 4.0000e+000 103031 -9.7268e-001  8.8258e-001  6.6573e-001 26715 102708,102786,102760
 4.0000e+000 103008 -1.0745e-001 -2.7792e-001  8.9955e-002 26715 102708,102890,102786
 4.0000e+000 102985  8.9754e-001 -4.8111e-001  3.8763e-002 26715 102838,102890,102864
 4.0000e+000 102962  2.5492e-001  7.1280e-001  8.3510e-002 26715 102786,102890,102838
 4.0000e+000 102939  1.2354e+000  1.1971e+000  6.0995e-001 26715 102786,102838,102812
 4.0000e+000 102916 -1.5496e+000 -5.0645e-002  2.7597e-001 26715 102708,102760,102734
 4.0000e+000 103279 -2.5478e-003  3.5765e-002 -7.6926e-002 26303 103302,103158,103080
 4.0000e+000 103256  1.0357e-001 -5.3569e-002 -8.1060e-002 26303 103302,103080,103054
 4.0000e+000 103233  2.1471e-001  1.4274e-001 -3.3860e-002 26303 103080,103158,103106
 4.0000e+000 103210 -3.2385e-001 -3.3956e-004 -4.1763e-002 26303 103106,103158,103132
 4.0000e+000 103328 -1.8103e-001 -4.9685e-002 -3.8916e-002 26303 103184,103158,103302
 4.0000e+000 103351  2.2031e-002 -6.4333e-002 -6.2088e-002 26303 103184,103302,103054
 4.0000e+000 103501 -8.6107e-001 -2.6156e-001  4.5052e-002 25849 103374,103426,103400
 4.0000e+000 103478 -7.7460e-001 -4.1189e-001  3.3595e-003 25849 103374,103452,103426
 4.0000e+000 104090 -1.0090e-001  1.5132e-001  1.0080e-001 25445 103793,103871,103819
 4.0000e+000 104067  1.4936e-001  5.5048e-002 -4.9960e-003 25445 103793,103949,103871
 4.0000e+000 104044  2.3585e-001  2.3632e-001  2.0182e-002 25445 103871,103949,103923
 4.0000e+000 104021 -1.4596e-001  2.1583e-001 -4.7564e-002 25445 103819,103871,103845
 4.0000e+000 103998  1.1962e-001  1.4918e-001  1.9559e-001 25445 103767,103949,103793
 4.0000e+000 103975  3.4305e-001  1.6414e-001  1.0198e-002 25445 103871,103923,103897
 4.0000e+000 104419 -3.7286e-001 -1.6166e-001 -1.1642e-001 25083 104220,104298,104272
 4.0000e+000 104396 -6.5900e-001 -4.5368e-001 -6.9916e-004 25083 104220,104324,104298
 4.0000e+000 104373 -3.1486e-001 -2.3433e-001 -4.7905e-002 25083 104220,104272,104246
 4.0000e+000 104350 -6.4925e-001 -3.9186e-001  1.8934e-002 25083 104194,104324,104220
 4.0000e+000 105102  6.4343e-003 -2.1318e-001 -1.0489e-001 24793 104785,104863,104837
 4.0000e+000 105079 -6.5865e-002 -5.3220e-001 -2.8262e-001 24793 104759,104863,104785
 4.0000e+000 105056 -1.2980e-001 -1.1855e-001 -2.9073e-001 24793 104759,104915,104863
 4.0000e+000 105033 -2.2371e-001 -1.7536e-001 -2.2922e-001 24793 104733,104915,104759
 4.0000e+000 105010  5.9244e-002 -5.0296e-002 -2.3223e-001 24793 104863,104915,104889
 4.0000e+000 104987 -3.6437e-001 -5.5705e-002 -3.3436e-001 24793 104681,104915,104733
 4.0000e+000 104964 -8.8063e-002 -3.1800e-001 -1.5150e-001 24793 104785,104837,104811
 4.0000e+000 104941 -2.6926e-001  2.2480e-001 -3.4358e-001 24793 104681,104733,104707
 4.0000e+000 105252  7.7002e-001  9.5583e-001 -4.9424e-002 24389 105477,105275,105177
 4.0000e+000 105229  7.1760e-001  1.0489e+000 -5.6444e-002 24389 105347,105275,105151
 4.0000e+000 105301  8.4566e-001  8.8078e-001 -8.8752e-002 24389 105203,105177,105275
 4.0000e+000 105324  8.8001e-001  1.0431e+000 -7.1938e-003 24389 105203,105275,105125
 4.0000e+000 105373  7.3226e-001  6.6736e-001  1.5182e-002 24389 105125,105275,105347
 4.0000e+000 105503  8.9688e-001  1.1766e+000  1.0174e-002 24389 105151,105275,105477
 4.0000e+000 106088 -6.4385e-001  4.8116e-001  6.5052e-001 23735 105791,105921,105895
 4.0000e+000 106065 -2.0862e+000 -6.6907e-002  6.9176e-001 23735 105765,105921,105791
 4.0000e+000 106042 -4.2411e-001  6.3417e-001  3.6568e-001 23735 105765,105947,105921
 4.0000e+000 106019 -2.3632e+000 -2.6648e-002  8.8298e-001 23735 105817,105895,105869
 4.0000e+000 105996 -1.4926e+000  2.1697e-001  7.9504e-001 23735 105791,105895,105817
 4.0000e+000 105973 -1.2727e+000  1.6007e-001  7.1454e-001 23735 105817,105869,105843
 4.0000e+000 106417  6.0101e-001  1.8967e+000 -4.1594e-001 23295 106218,106296,106270
 4.0000e+000 106394  1.9622e-001  5.8755e-001 -3.1440e-001 23295 106218,106322,106296
 4.0000e+000 106371 -4.4604e-002  3.7554e-001 -4.1716e-001 23295 106218,106270,106244
 4.0000e+000 106348  4.1820e-001  6.8223e-001 -1.1194e-001 23295 106192,106322,106218
 4.0000e+000 106746 -2.0999e-002  6.2957e-001  1.5507e-001 23005 106521,106599,106547
 4.0000e+000 106723  4.9143e-001  8.1576e-001  1.1452e-002 23005 106521,106651,106599
 4.0000e+000 106700  2.9161e-001  5.9886e-001 -2.9081e-003 23005 106547,106599,106573
 4.0000e+000 106677  6.5003e-001  7.8169e-001  4.0338e-001 23005 106599,106651,106625
 4.0000e+000 107331 -2.6689e-001  1.5853e-001 -2.1809e-001 22601 107060,107190,107138
 4.0000e+000 107308 -9.0923e-001 -5.1996e-002 -4.6740e-001 22601 107034,107190,107060
 4.0000e+000 107285 -1.3050e+000 -3.3420e-001 -4.5689e-001 22601 107060,107138,107112
 4.0000e+000 107262 -1.4142e+000 -2.7055e-001 -4.9845e-001 22601 107008,107190,107034
 4.0000e+000 107239 -1.1224e-001  8.8266e-001 -9.5372e-001 22601 107060,107112,107086
 4.0000e+000 107216 -4.4406e-001  2.2950e-001 -1.0431e-001 22601 107138,107190,107164
 4.0000e+000 107807 -5.5164e-001  4.6645e-002 -9.6506e-002 22031 107974,107902,107617
 4.0000e+000 107784 -6.6691e-001  3.1098e-001 -2.4363e-001 22031 107830,107565,107513
 4.0000e+000 107761 -4.6246e-001 -6.1958e-004 -2.8122e-001 22031 108046,107830,107513
 4.0000e+000 107738 -4.3455e-001  2.4737e-001  1.7513e-002 22031 107974,107617,107591
 4.0000e+000 107715 -5.0503e-001 -1.3110e-001 -2.5526e-001 22031 108046,107513,107461
 4.0000e+000 107692 -1.5914e+000  5.0210e-001 -4.2890e-001 22031 107513,107565,107539
 4.0000e+000 107669 -2.8961e-001  1.8870e-001 -3.6229e-001 22031 107461,107513,107487
 4.0000e+000 107856 -7.8922e-001  1.6336e-001 -1.6811e-001 22031 107902,107565,107830
 4.0000e+000 107879 -5.2561e-001 -1.6583e-001 -2.6407e-002 22031 107643,107830,107435
 4.0000e+000 107928 -1.0300e+000  3.8233e-001 -4.3564e-001 22031 107643,107617,107902
 4.0000e+000 107951 -7.4336e-001  1.4973e-001  1.6682e-002 22031 107643,107902,107830
 4.0000e+000 108000 -6.9780e-001  3.3129e-001 -1.1840e-001 22031 107565,107902,107974
 4.0000e+000 108023 -6.7394e-001  2.6693e-001 -9.0523e-002 22031 107565,107974,107591
 4.0000e+000 108072 -4.0587e-001 -1.6654e-001 -9.7710e-002 22031 107435,107830,108046
 4.0000e+000 108095 -4.9062e-001 -3.7381e-001 -7.1886e-002 22031 107435,108046,107461
 4.0000e+000 108196  3.3766e-002  3.9554e-002 -1.5702e-001 21783 108118,108170,108144
 4.0000e+000 108655  1.4417e-001  8.2401e-001  4.8608e-001 21379 108407,108485,108459
 4.0000e+000 108632  1.6519e+000 -5.2481e-002  6.8713e-001 21379 108407,108511,108485
 4.0000e+000 108609  1.6905e+000 -2.8454e-001  4.0191e-001 21379 108381,108511,108407
 4.0000e+000 108586  7.6695e-001  4.4778e-001 -6.0360e-001 21379 108381,108537,108511
 4.0000e+000 108563  4.3715e-001  1.1230e-001  2.2155e-001 21379 108407,108459,108433
 4.0000e+000 109082 -7.4473e-002  6.1705e-001  1.5904e-001 20974 109105,108863,108811
 4.0000e+000 109059  2.9447e-001  8.1919e-001 -1.1559e-001 20974 109105,108811,108759
 4.0000e+000 109036 -8.7799e-002  1.3049e+000 -1.0959e-001 20974 109177,108889,108863
 4.0000e+000 109013  6.5200e-001  1.1294e+000 -1.1537e-001 20974 108811,108863,108837
 4.0000e+000 108990 -3.2058e-001  8.4110e-003 -3.8926e-002 20974 108759,108941,108915
 4.0000e+000 108967  1.1396e-001 -1.7973e-001  2.7604e-002 20974 108759,108811,108785
 4.0000e+000 109131  1.2148e-001  1.0187e+000  5.7193e-002 20974 109177,108863,109105
 4.0000e+000 109154 -4.5685e-004  4.2168e-002 -2.4936e-002 20974 108915,109105,108759
 4.0000e+000 109203 -1.7907e-001  1.0772e+000  1.6292e-001 20974 108915,108889,109177
 4.0000e+000 109226 -1.5282e-001  4.6941e-001  3.1415e-001 20974 108915,109177,109105
 4.0000e+000 109496 -7.9028e-001  4.1833e-002 -6.5970e-002 20470 109271,109375,109297
 4.0000e+000 109473 -7.3053e-001  1.4376e-001 -1.1626e-001 20470 109271,109401,109375
 4.0000e+000 109450 -9.1880e-001 -1.4072e-001 -1.2974e-001 20470 109297,109375,109349
 4.0000e+000 109427 -1.2445e+000 -8.0294e-001  2.3346e-001 20470 109297,109349,109323
 4.0000e+000 109955  1.6315e-001  1.5747e+000  9.3167e-001 20123 110050,109733,109707
 4.0000e+000 109932 -7.4329e-001  7.3361e-001  5.1882e-001 20123 110050,109707,109681
 4.0000e+000 109909  1.3914e-001  3.8948e-001  5.7525e-001 20123 109978,109759,109733
 4.0000e+000 109886 -1.9507e-001  2.7647e-001  5.3014e-001 20123 110122,109978,109733
 4.0000e+000 109863  2.6749e-001  2.3518e-001  2.7890e-001 20123 109785,109837,109811
 4.0000e+000 110004  1.1523e-001  4.0899e-001  3.9906e-001 20123 109785,109759,109978
 4.0000e+000 110027 -1.9146e-002  3.0501e-001  3.0285e-001 20123 109785,109978,109837
 4.0000e+000 110076 -3.6978e-001  5.3252e-001  4.2113e-001 20123 110122,109733,110050
 4.0000e+000 110099 -3.4275e-001  4.4816e-001  1.0217e-001 20123 109837,110050,109681
 4.0000e+000 110148  1.4192e-001  6.4255e-001  3.8157e-001 20123 109837,109978,110122
 4.0000e+000 110171 -1.8493e-002  8.6197e-001  2.6834e-001 20123 109837,110122,110050
 4.0000e+000 110500  9.9930e-001  2.7950e-001 -2.4320e-001 19511 110301,110379,110353
 4.0000e+000 110477  1.5647e+000  8.8095e-001 -4.8414e-001 19511 110301,110405,110379
 4.0000e+000 110454  3.6963e-001  2.8389e-001 -2.3801e-001 19511 110275,110405,110301
 4.0000e+000 110431  8.6801e-001  4.0192e-001  3.9005e-001 19511 110301,110353,110327
 4.0000e+000 110957  6.7451e-004  1.0656e+000 -6.5827e-001 19107 110683,110735,110709
 4.0000e+000 110934 -5.1074e-002 -2.9887e-001 -9.9825e-001 19107 110683,110813,110735
 4.0000e+000 110911  3.2923e-001  6.0032e-001 -8.8090e-001 19107 110735,110813,110761
 4.0000e+000 110888 -7.7505e-001 -7.2230e-001 -7.6373e-001 19107 110683,110839,110813
 4.0000e+000 110865  1.1276e-001  9.0430e-002 -8.7494e-001 19107 110761,110813,110787
 4.0000e+000 111335 -3.2020e-001 -3.4762e-001 -1.3519e-001 18653 111087,111165,111139
 4.0000e+000 111312 -1.1230e-001 -1.6446e-001 -2.1241e-001 18653 111087,111217,111165
 4.0000e+000 111289 -2.7395e-001 -2.6391e-001 -5.8748e-003 18653 111061,111217,111087
 4.0000e+000 111266 -2.7310e-001 -2.1927e-001 -1.3897e-001 18653 111087,111139,111113
 4.0000e+000 111243 -1.0679e-001 -1.9120e-001 -1.5693e-001 18653 111165,111217,111191
 4.0000e+000 111735 -1.1695e+000 -4.2256e-001 -2.9712e-002 18213 111461,111513,111487
 4.0000e+000 111712 -1.2576e+000 -8.2405e-001  1.6234e-002 18213 111461,111617,111513
 4.0000e+000 111689 -1.1975e+000 -7.2344e-001 -1.5156e-001 18213 111513,111617,111591
 4.0000e+000 111666 -5.3958e-001 -3.5033e-001  8.4253e-002 18213 111513,111591,111539
 4.0000e+000 111643 -2.7720e-001 -3.7261e-001  8.1138e-003 18213 111539,111591,111565
 4.0000e+000 111885  5.2607e-001 -3.4946e-001  2.4196e-001 17659 111784,111836,111810
 4.0000e+000 111862  1.2488e+000  3.6333e-001  5.4807e-001 17659 111758,111836,111784
 4.0000e+000 112287 -3.7439e-002  5.6774e-001 -3.2077e-001 17411 112065,112169,112143
 4.0000e+000 112264 -1.6440e+000  7.9254e-002  1.8435e-001 17411 112039,112169,112065
 4.0000e+000 112241 -1.7844e+000  1.0322e-001 -1.7179e-001 17411 112013,112169,112039
 4.0000e+000 112218  3.0536e+000  8.9102e-001 -6.3222e-001 17411 112091,112143,112117
 4.0000e+000 112195 -8.7493e-002 -1.0748e-001  2.1102e-001 17411 112065,112143,112091
 4.0000e+000 112508 -7.8472e-001  4.0346e-001  8.1524e-002 17007 112384,112436,112410
 4.0000e+000 112485 -6.1737e-001  5.5981e-001  1.4904e-001 17007 112332,112436,112384
 4.0000e+000 112462 -7.7376e-001  2.5572e-001  9.3438e-002 17007 112332,112384,112358
 4.0000e+000 112658 -2.0052e+000 -4.5386e-001  3.3400e-001 16553 112557,112609,112583
 4.0000e+000 112635 -2.0862e+000 -2.7260e-001  3.9548e-001 16553 112531,112609,112557
 4.0000e+000 112761 -3.8798e-001  1.5431e+000 -2.5738e-001 16355 112683,112735,112709
 4.0000e+000 112913 -1.2066e+000  5.4082e-001  6.6638e-002 15949 112786,112838,112812
 4.0000e+000 112890 -6.2893e-001  1.5282e+000 -2.1007e-001 15949 112786,112864,112838
 4.0000e+000 113065  1.4556e-001 -8.6224e-002 -6.0845e-002 15609 112938,112990,112964
 4.0000e+000 113042  4.8419e-001  2.2546e-002 -2.1348e-002 15609 112938,113016,112990
 4.0000e+000 113420  6.9218e-001  6.1453e-001  2.4374e-001 15284 113247,113325,113299
 4.0000e+000 113397  6.4811e-001  5.0645e-001  1.4295e-001 15284 113195,113325,113247
 4.0000e+000 113374  4.7197e-001  4.6641e-001  8.5520e-002 15284 113195,113247,113221
 4.0000e+000 113351  6.6884e-001  1.0573e+000  2.8305e-001 15284 113247,113299,113273
 4.0000e+000 113521  3.6258e-001 -2.5843e-001  2.2992e-001 202 113443,113495,113469
 4.5000e+000 65564 -8.9458e-003  7.6038e-002  1.4532e-003 65155 65414,65466,65440
 4.5000e+000 65541 -3.1103e-003  1.3687e-001  1.1358e-002 65155 65414,65492,65466
 4.5000e+000 65518 -4.9544e-003  1.7300e-001 -8.2437e-002 65155 65388,65492,65414
 4.5000e+000 65883 -2.5534e-001  8.3583e-001 -3.4715e-002 64957 65635,65739,65713
 4.5000e+000 65860 -8.7116e-002  1.6575e+000 -2.0649e-002 64957 65635,65765,65739
 4.5000e+000 65837  1.3988e-001  1.7547e+000 -3.2353e-002 64957 65609,65765,65635
 4.5000e+000 65814 -1.7388e-001  1.2037e+000 -4.2997e-001 64957 65635,65713,65687
 4.5000e+000 65791 -6.8478e-002  1.4819e+000 -2.7568e-001 64957 65635,65687,65661
 4.5000e+000 65984 -2.9608e-001  2.9706e-001  2.1604e-001 64781 65906,65958,65932
 4.5000e+000 66232  3.8132e-001  4.7826e-001 -4.2676e-001 64469 66007,66059,66033
 4.5000e+000 66209 -3.0826e-001 -7.6107e-002 -6.6970e-001 64469 66007,66085,66059
 4.5000e+000 66186  7.3650e-002  9.2857e-001 -1.8848e-001 64469 66007,66137,66085
 4.5000e+000 66163 -6.3505e-001  2.0290e-002 -1.0276e+000 64469 66085,66137,66111
 4.5000e+000 66504  9.9265e-003  1.6487e+000 -1.0112e-001 64271 66279,66383,66305
 4.5000e+000 66481 -1.9120e-001  1.6739e+000  5.7554e-002 64271 66279,66409,66383
 4.5000e+000 66458 -3.0136e-001  2.1132e+000 -1.3171e-001 64271 66305,66357,66331
 4.5000e+000 66435  7.2039e-002  2.0771e+000 -1.2750e-001 64271 66305,66383,66357
 4.5000e+000 66705 -4.0372e-002  1.6637e+000 -2.5105e-001 64073 66728,66581,66555
 4.5000e+000 66682  1.6314e-002  1.7032e+000 -2.3258e-001 64073 66728,66555,66529
 4.5000e+000 66659 -7.0261e-001  2.1799e+000  6.2065e-001 64073 66581,66633,66607
 4.5000e+000 66754 -1.0041e-001  1.7094e+000 -2.6808e-001 64073 66633,66581,66728
 4.5000e+000 66777 -5.6948e-002  1.7457e+000 -2.4894e-001 64073 66633,66728,66529
 4.5000e+000 66951  2.5344e-001 -3.3100e-002  3.2715e-001 63783 66824,66876,66850
 4.5000e+000 66928 -8.9981e-001  6.8316e-001 -1.1258e-001 63783 66824,66902,66876
 4.5000e+000 67201  6.3288e-001  1.8944e+000 -1.1682e-001 63585 66976,67080,67054
 4.5000e+000 67178  2.9665e-001  1.7604e+000 -2.0993e-001 63585 66976,67106,67080
 4.5000e+000 67155  3.2068e-001  8.9737e-001 -1.3688e-002 63585 66976,67054,67028
 4.5000e+000 67132  4.8142e-001  1.1573e+000  3.1600e-001 63585 66976,67028,67002
 4.5000e+000 67654 -1.8088e-001  1.1865e+000  4.5862e-002 63295 67357,67487,67383
 4.5000e+000 67631 -2.2574e-001  1.6638e+000 -3.4029e-001 63295 67331,67487,67357
 4.5000e+000 67608  8.6900e-002  2.1600e+000  8.1853e-002 63295 67331,67513,67487
 4.5000e+000 67585 -2.5294e-002  2.2578e+000 -8.3973e-002 63295 67435,67487,67461
 4.5000e+000 67562  8.9476e-002  2.1814e+000  4.6092e-002 63295 67383,67487,67435
 4.5000e+000 67539 -7.3167e-004  1.6954e+000 -8.3422e-002 63295 67383,67435,67409
 4.5000e+000 67853 -2.6054e-002  1.4308e+000 -3.6627e-002 62891 67876,67703,67677
 4.5000e+000 67830  5.8779e-002  1.8441e+000 -9.6311e-003 62891 67876,67677,67781
 4.5000e+000 67807 -2.2598e-001  1.1520e+000 -1.2599e-001 62891 67948,67729,67703
 4.5000e+000 67902 -3.7280e-002  1.3427e+000 -2.3209e-001 62891 67948,67703,67876
 4.5000e+000 67925  3.6589e-001  1.5043e+000 -2.6341e-001 62891 67755,67876,67781
 4.5000e+000 67974  7.2824e-002  9.2105e-001 -7.9176e-002 62891 67755,67729,67948
 4.5000e+000 67997  1.2155e-001  1.0082e+000 -1.4631e-001 62891 67755,67948,67876
 4.5000e+000 68218  1.8777e-002 -3.3718e-002 -3.0410e-002 62693 68042,68120,68068
 4.5000e+000 68195 -5.3695e-003 -2.2207e-002  1.8903e-002 62693 68042,68146,68120
 4.5000e+000 68172 -9.3210e-002  5.1609e-002 -1.5611e-002 62693 68068,68120,68094
 4.5000e+000 68468  2.7078e-002  9.5691e-003 -1.5016e-002 62289 68491,68295,68269
 4.5000e+000 68445 -1.4118e-002 -7.4396e-003 -1.4791e-002 62289 68563,68491,68269
 4.5000e+000 68422 -1.8898e-002  2.2659e-002  8.6792e-003 62289 68563,68269,68243
 4.5000e+000 68399 -1.0333e-001 -1.0030e-001 -1.1800e-001 62289 68295,68347,68321
 4.5000e+000 68517  5.2524e-003  3.7596e-002 -3.6336e-002 62289 68347,68295,68491
 4.5000e+000 68540 -7.6445e-002  2.0419e-002 -3.7599e-002 62289 68347,68491,68373
 4.5000e+000 68589  5.0068e-003  5.2314e-002 -1.6398e-002 62289 68373,68491,68563
 4.5000e+000 68612 -1.2488e-002  6.2084e-002  8.0675e-003 62289 68373,68563,68243
 4.5000e+000 68911  5.6572e-002  1.3167e+000 -5.1227e-002 62091 69222,68934,68741
 4.5000e+000 68888 -3.1159e-001  1.4373e+000 -6.0374e-002 62091 69006,68934,68689
 4.5000e+000 68865 -4.9132e-001  1.2391e+000 -2.5312e-001 62091 69006,68689,68663
 4.5000e+000 68842  2.5650e-001  1.7230e+000  2.7200e-001 62091 69078,68793,68767
 4.5000e+000 68819  7.3764e-002  1.3328e+000 -1.2532e-001 62091 69222,68741,68715
 4.5000e+000 68960  2.8992e-001  1.5418e+000 -1.4437e-001 62091 68767,68741,68934
 4.5000e+000 68983  1.1949e-001  1.8251e+000  6.3189e-002 62091 69078,68767,68934
 4.5000e+000 69032 -2.3625e-001  1.6291e+000 -1.6233e-002 62091 69150,69006,68637
 4.5000e+000 69055 -2.4836e-001  1.5468e+000 -7.9201e-002 62091 68637,69006,68663
 4.5000e+000 69104  1.5908e-001  1.4949e+000  8.5081e-003 62091 68637,68793,69078
 4.5000e+000 69127 -2.0918e-001  1.6071e+000 -3.0967e-002 62091 69150,68637,69078
 4.5000e+000 69176 -1.2393e-001  1.4500e+000  2.7212e-003 62091 68934,69006,69150
 4.5000e+000 69199  2.3630e-002  1.5655e+000 -6.1174e-002 62091 68934,69150,69078
 4.5000e+000 69248  2.3110e-002  1.2316e+000 -5.6974e-002 62091 68689,68934,69222
 4.5000e+000 69271  3.4148e-002  1.2086e+000 -1.0782e-001 62091 68689,69222,68715
 4.5000e+000 69521 -2.5096e-001  9.2725e-002  5.6275e-003 61893 69544,69348,69296
 4.5000e+000 69498 -7.8195e-002  1.3658e-001  2.3387e-002 61893 69544,69296,69400
 4.5000e+000 69475  2.7361e-002  1.1807e-001 -1.2575e-002 61893 69296,69426,69400
 4.5000e+000 69452  3.0730e-002  5.7473e-002 -1.8246e-001 61893 69296,69348,69322
 4.5000e+000 69570 -1.6102e-001 -6.1604e-004  1.4550e-001 61893 69374,69348,69544
 4.5000e+000 69593  1.4760e-001  1.1627e-001  1.5233e-001 61893 69374,69544,69400
 4.5000e+000 70046 -1.2235e-001  1.3749e+000 -3.0843e-002 61467 69749,69905,69879
 4.5000e+000 70023 -1.5046e-001  1.1324e+000 -3.2687e-001 61467 69723,69905,69749
 4.5000e+000 70000 -1.9560e-001  1.2546e+000 -4.4036e-004 61467 70069,69827,69775
 4.5000e+000 69977  1.7927e-001  2.1159e+000 -2.9776e-001 61467 70069,69775,69749
 4.5000e+000 69954  2.5179e-002  6.1688e-001 -5.9754e-004 61467 70141,69853,69827
 4.5000e+000 69931 -3.4347e-001  1.3635e+000  4.2515e-001 61467 69775,69827,69801
 4.5000e+000 70095 -9.2660e-002  7.9090e-001  1.1168e-001 61467 70141,69827,70069
 4.5000e+000 70118 -1.3886e-001  1.2634e+000 -9.0273e-003 61467 69879,70069,69749
 4.5000e+000 70167 -1.0590e-001  8.8396e-001 -9.3503e-003 61467 69879,69853,70141
 4.5000e+000 70190 -3.8845e-002  1.2965e+000  1.0706e-001 61467 69879,70141,70069
 4.5000e+000 70291  1.8069e-001  2.2864e+000  2.3829e-001 61013 70213,70265,70239
 4.5000e+000 70441 -1.3335e-001  7.1677e-002 -2.0237e-002 60651 70340,70392,70366
 4.5000e+000 70418 -8.6526e-002  1.3059e-001  4.9261e-003 60651 70314,70392,70340
 4.5000e+000 70642 -1.0174e-001  1.2458e+000  3.3276e-001 60311 70665,70492,70466
 4.5000e+000 70619  8.1884e-002  1.6815e+000  3.3684e-001 60311 70665,70466,70570
 4.5000e+000 70596 -4.0315e-001  4.4483e-001  4.1961e-002 60311 70492,70544,70518
 4.5000e+000 70691 -1.5583e-002  8.1843e-001 -1.2551e-001 60311 70544,70492,70665
 4.5000e+000 70714  2.7139e-001  1.4884e+000 -1.3471e-001 60311 70544,70665,70570
 4.5000e+000 70964 -3.0837e-001  9.9638e-001  5.4960e-002 59907 70987,70765,70739
 4.5000e+000 70941 -7.4638e-002  1.5299e+000 -4.4950e-002 59907 71059,70987,70739
 4.5000e+000 70918  8.4000e-002  2.3065e+000 -1.3437e-001 59907 71059,70739,70869
 4.5000e+000 70895  1.6145e-002  1.5446e+000 -1.0377e-001 59907 70817,70869,70843
 4.5000e+000 71013 -1.3584e-001  1.0291e+000 -2.4446e-001 59907 70791,70765,70987
 4.5000e+000 71036 -5.6402e-002  1.0288e+000 -2.0582e-001 59907 70791,70987,70817
 4.5000e+000 71085  1.0010e-001  1.0111e+000 -1.6750e-001 59907 70817,70987,71059
 4.5000e+000 71108 -5.1581e-002  1.3511e+000 -1.1862e-001 59907 70817,71059,70869
 4.5000e+000 71441  5.7678e-001  8.3209e-001 -1.1263e+000 59417 71464,71242,71216
 4.5000e+000 71418  9.4866e-001  1.1211e+000  1.3966e-001 59417 71464,71216,71320
 4.5000e+000 71395  4.5289e-001  1.2670e+000  3.2764e-001 59417 71216,71346,71320
 4.5000e+000 71372 -1.5534e+000  2.8203e-001 -1.1533e-001 59417 71268,71320,71294
 4.5000e+000 71490 -2.6777e-001  4.9476e-001 -1.3134e+000 59417 71268,71242,71464
 4.5000e+000 71513 -8.6453e-001  4.6531e-001  3.4105e-002 59417 71268,71464,71320
 4.5000e+000 71712 -6.4848e-003  1.3186e+000 -2.1015e-001 58913 71562,71614,71588
 4.5000e+000 71689  9.8031e-001  1.2038e+000 -5.8630e-001 58913 71536,71614,71562
 4.5000e+000 71666  6.9929e-001  9.8202e-001 -4.8866e-001 58913 71536,71640,71614
 4.5000e+000 72171  7.2179e-001  1.5769e+000 -3.9176e-001 58409 72194,72027,72001
 4.5000e+000 72148  5.1759e-001  8.5410e-001 -4.2974e-001 58409 72194,72001,71949
 4.5000e+000 72125  1.5381e-001  1.1578e+000 -3.8791e-001 58409 71923,72053,71949
 4.5000e+000 72102  4.8137e-002  5.8253e-001 -2.9642e-001 58409 71949,72001,71975
 4.5000e+000 72079  3.6747e-001  1.2063e+000 -4.1304e-001 58409 71897,72053,71923
 4.5000e+000 72220  5.8399e-001  1.6784e+000 -2.8502e-002 58409 72053,72027,72194
 4.5000e+000 72243  5.3757e-001  1.3358e+000 -1.3400e-001 58409 72053,72194,71949
 4.5000e+000 72491 -2.1409e+000 -8.5166e-001 -1.3858e+000 57855 72514,72318,72292
 4.5000e+000 72468  1.2260e+000  5.2679e-001 -1.5197e+000 57855 72514,72292,72266
 4.5000e+000 72445 -1.2220e+000  1.6950e-001  5.0295e-002 57855 72318,72396,72370
 4.5000e+000 72422 -3.2560e+000  1.0380e+000 -1.0098e+000 57855 72318,72370,72344
 4.5000e+000 72540 -2.4565e+000 -3.5596e-001 -8.9212e-001 57855 72396,72318,72514
 4.5000e+000 72563 -2.1353e+000 -3.3365e-001 -9.2197e-001 57855 72396,72514,72266
 4.5000e+000 72811  1.0514e+000  2.6703e-001 -6.6091e-001 57401 72612,72690,72638
 4.5000e+000 72788  1.6333e-001 -9.2380e-002  6.0378e-002 57401 72586,72690,72612
 4.5000e+000 72765 -6.6335e-001 -8.7969e-001 -1.1577e+000 57401 72638,72690,72664
 4.5000e+000 72742  2.5567e-001  1.0813e+000 -2.4057e-001 57401 72586,72716,72690
 4.5000e+000 73144  1.2941e-001  8.1908e-001 -1.8947e-001 57004 72919,72997,72945
 4.5000e+000 73121  2.0047e-001  1.6396e+000 -4.0898e-001 57004 72919,73049,72997
 4.5000e+000 73098  1.1343e-001  1.0849e+000 -3.7538e-001 57004 72945,72997,72971
 4.5000e+000 73075  3.0383e-001  1.9935e+000 -4.8235e-001 57004 72997,73049,73023
 4.5000e+000 73650 -1.3529e+000  1.6835e+000 -1.1585e+000 56592 73673,73379,73353
 4.5000e+000 73627  1.7055e+000  2.2645e+000 -1.8455e+000 56592 73673,73353,73327
 4.5000e+000 73604  6.9328e-002  1.5124e+000 -5.1764e-001 56592 73745,73509,73483
 4.5000e+000 73581 -2.4641e+000 -6.0333e-001 -3.5537e-001 56592 73379,73457,73405
 4.5000e+000 73558  3.4730e-001  3.1685e-001  1.0815e-001 56592 73379,73483,73457
 4.5000e+000 73535  2.2153e+000  4.9332e-001 -1.0846e-001 56592 73405,73457,73431
 4.5000e+000 73699 -1.1006e+000  1.1595e+000  2.5778e-001 56592 73483,73379,73673
 4.5000e+000 73722 -9.1020e-002  1.8178e+000 -6.1548e-001 56592 73745,73483,73673
 4.5000e+000 73771 -7.4531e-002  1.1641e+000 -5.5757e-001 56592 73327,73509,73745
 4.5000e+000 73794 -2.8806e-001  1.4015e+000 -7.0012e-001 56592 73327,73745,73673
 4.5000e+000 74123  1.3620e+000  9.5889e-001 -1.7436e-001 56152 74146,74002,73924
 4.5000e+000 74100  1.1595e+000  7.6939e-001 -3.4561e-002 56152 74146,73924,73898
 4.5000e+000 74077  1.5168e+000  1.1725e+000 -2.5591e-001 56152 73924,74002,73976
 4.5000e+000 74054  1.1485e+000  3.3079e-001  2.0229e-001 56152 73924,73976,73950
 4.5000e+000 74172  1.7769e+000  1.2175e+000 -3.8483e-001 56152 74028,74002,74146
 4.5000e+000 74195  1.3730e+000  8.5274e-001 -2.0020e-001 56152 74028,74146,73898
 4.5000e+000 74345 -9.1087e-001  2.0748e-001  3.6658e-001 55634 74218,74270,74244
 4.5000e+000 74322 -1.9045e-003  8.6613e-002  1.4903e-001 55634 74218,74296,74270
 4.5000e+000 74823  4.3559e-001 -1.2884e+000  4.8204e-001 55016 74918,74846,74581
 4.5000e+000 74800 -9.9727e-002  1.0228e-001  2.6478e-001 55016 74846,74477,74633
 4.5000e+000 74777 -4.3441e-001 -2.1839e+000  8.3973e-001 55016 74918,74581,74555
 4.5000e+000 74754 -8.6779e-001 -1.3039e+000  9.4337e-001 55016 74990,74503,74477
 4.5000e+000 74731 -1.4683e+000 -1.3166e-001  7.1789e-001 55016 74451,74633,74477
 4.5000e+000 74708 -1.5490e+000  9.5702e-001  3.1613e-001 55016 74451,74659,74633
 4.5000e+000 74685 -1.8553e+000 -2.3746e+000  1.6863e+000 55016 74503,74555,74529
 4.5000e+000 74872  4.2098e-001 -1.3999e+000  3.6611e-001 55016 74607,74581,74846
 4.5000e+000 74895 -5.4904e-002 -1.1072e+000  2.9120e-001 55016 74607,74846,74633
 4.5000e+000 74944 -8.3055e-001 -1.1890e+000  7.4007e-001 55016 74477,74846,74918
 4.5000e+000 74967 -9.3675e-001 -1.2865e+000  8.3572e-001 55016 74990,74477,74918
 4.5000e+000 75016 -6.2742e-001 -1.1973e+000  9.9681e-001 55016 74555,74503,74990
 4.5000e+000 75039 -7.0648e-001 -1.2115e+000  8.7335e-001 55016 74555,74990,74918
 4.5000e+000 75287 -2.0996e+000 -3.3869e+000 -7.6707e-002 54726 75310,75140,75114
 4.5000e+000 75264 -2.6350e+000 -2.1240e+000 -4.0241e-001 54726 75310,75114,75088
 4.5000e+000 75241 -2.6595e+000 -1.6186e+000 -1.4771e+000 54726 75088,75192,75166
 4.5000e+000 75218 -4.3517e+000  8.4939e-002 -1.2921e+000 54726 75062,75192,75088
 4.5000e+000 75336 -1.4257e+000 -2.6639e+000 -8.2228e-001 54726 75166,75140,75310
 4.5000e+000 75359 -2.4843e+000 -1.4238e+000 -8.4004e-001 54726 75166,75310,75088
 4.5000e+000 75946 -1.7788e-001  4.7901e-002  1.7323e-001 54322 75969,75701,75649
 4.5000e+000 75923 -6.2633e-001 -2.6068e-001  3.0998e-001 54322 75969,75649,75623
 4.5000e+000 75900 -3.6005e-001 -1.6976e-001 -6.3491e-002 54322 76041,75753,75701
 4.5000e+000 75877 -1.9922e-001  7.0935e-001  4.0778e-003 54322 75623,75805,75779
 4.5000e+000 75854 -4.6374e-001 -1.5817e-001 -2.0150e-001 54322 75701,75753,75727
 4.5000e+000 75831 -2.2108e-001 -1.5776e-001 -7.3037e-003 54322 75649,75701,75675
 4.5000e+000 75995 -4.9822e-001 -8.4389e-002  6.0444e-002 54322 76041,75701,75969
 4.5000e+000 76018 -4.7424e-001  1.4035e-001  1.5761e-001 54322 75779,75969,75623
 4.5000e+000 76067 -2.9822e-001  5.7918e-002 -1.1178e-001 54322 75779,75753,76041
 4.5000e+000 76090 -3.8279e-001  2.2502e-001  1.5004e-002 54322 75779,76041,75969
 4.5000e+000 76468 -8.5439e-002  1.9259e-001 -2.5388e-002 53868 76491,76272,76220
 4.5000e+000 76445 -8.3646e-002  2.1549e-001 -4.7816e-002 53868 76491,76220,76324
 4.5000e+000 76422  2.3151e-002  1.4509e-001 -9.6882e-002 53868 76220,76272,76246
 4.5000e+000 76399 -1.1772e-001  5.5727e-001  1.1403e-001 53868 76194,76324,76220
 4.5000e+000 76376 -6.5245e-001  3.3960e-001  5.3996e-003 53868 76194,76350,76324
 4.5000e+000 76517 -9.0554e-002  1.5822e-001 -1.3982e-002 53868 76298,76272,76491
 4.5000e+000 76540 -8.3528e-002  1.8850e-001 -3.6569e-002 53868 76298,76491,76324
 4.5000e+000 76690 -6.0953e-002  2.5989e-001 -4.4813e-002 53356 76589,76641,76615
 4.5000e+000 76667  6.3610e-002  7.7496e-001  1.1495e-002 53356 76563,76641,76589
 4.5000e+000 76938 -5.3583e-001  2.8334e-001 -6.9893e-001 53009 77105,76961,76765
 4.5000e+000 76915  3.1944e-002  5.3684e-001 -3.8041e-001 53009 76961,76713,76843
 4.5000e+000 76892 -3.3153e-001  4.3100e-001 -1.7528e-001 53009 77033,76817,76791
 4.5000e+000 76869 -1.1691e+000 -1.3428e-001 -1.3222e+000 53009 77105,76765,76739
 4.5000e+000 76987 -1.8446e-001  1.0178e+000 -5.0013e-001 53009 76791,76765,76961
 4.5000e+000 77010 -3.8078e-001  4.6760e-001 -4.0731e-001 53009 77033,76791,76961
 4.5000e+000 77059  2.0531e-002  5.8400e-001 -1.9250e-001 53009 76843,76817,77033
 4.5000e+000 77082 -4.9006e-002  6.0732e-001 -4.0635e-001 53009 76843,77033,76961
 4.5000e+000 77131  1.5401e-001  7.0842e-001 -4.3485e-001 53009 76713,76961,77105
 4.5000e+000 77154  5.0617e-002  6.6386e-001 -9.5773e-001 53009 76713,77105,76739
 4.5000e+000 77355  1.6521e+000 -2.0599e+000  9.2868e-001 52390 77378,77257,77231
 4.5000e+000 77332  1.1512e+000 -1.4601e+000  5.9108e-001 52390 77378,77231,77179
 4.5000e+000 77309  1.3893e+000 -1.7994e+000  1.3649e-002 52390 77179,77231,77205
 4.5000e+000 77404  2.1519e+000 -1.6770e+000  7.5419e-001 52390 77283,77257,77378
 4.5000e+000 77427  1.6424e+000 -1.0334e+000  4.0858e-001 52390 77283,77378,77179
 4.5000e+000 77677 -2.0719e+000  2.3076e+000 -1.9322e+000 51986 77700,77504,77478
 4.5000e+000 77654  7.9612e-002  3.2783e+000 -2.2544e+000 51986 77700,77478,77452
 4.5000e+000 77631 -1.3132e-001  1.5013e+000 -6.1597e-001 51986 77772,77556,77530
 4.5000e+000 77608 -2.4896e-001  1.4327e+000 -7.8713e-001 51986 77452,77582,77556
 4.5000e+000 77726 -5.7158e-001  2.3326e+000 -7.9485e-001 51986 77530,77504,77700
 4.5000e+000 77749  5.7338e-002  1.8590e+000 -9.1374e-001 51986 77772,77530,77700
 4.5000e+000 77798  2.7657e-001  1.7568e+000 -9.6109e-001 51986 77452,77556,77772
 4.5000e+000 77821  4.9075e-001  1.8542e+000 -1.2159e+000 51986 77452,77772,77700
 4.5000e+000 78282  9.4323e-001  7.1824e-001 -7.9394e-002 51738 78008,78138,78060
 4.5000e+000 78259  2.2179e+000  1.9399e+000 -1.9877e+000 51738 78008,78164,78138
 4.5000e+000 78236  3.6444e-001  6.5436e-002 -7.0884e-002 51738 78086,78138,78112
 4.5000e+000 78213  2.3185e-001  2.4790e-001 -2.9351e-001 51738 78060,78138,78086
 4.5000e+000 78190  1.2706e+000  4.8376e-001 -2.7125e-001 51738 78008,78060,78034
 4.5000e+000 78432 -1.9154e-001 -1.3689e-001  4.6037e-003 51148 78305,78357,78331
 4.5000e+000 78409 -1.6508e-001  7.9348e-002 -3.1939e-002 51148 78305,78383,78357
 4.5000e+000 78891 -3.2311e-001 -2.2464e-001  1.6492e-001 50808 78914,78695,78669
 4.5000e+000 78868 -2.4578e-001 -8.0862e-002  7.4671e-002 50808 78914,78669,78643
 4.5000e+000 78845 -5.5750e-002  2.1681e-002  4.9299e-002 50808 78643,78773,78747
 4.5000e+000 78822 -4.0586e-002 -2.0636e-002  5.7791e-002 50808 78617,78773,78643
 4.5000e+000 78799 -1.3564e-001  1.1652e-001  2.0374e-001 50808 78695,78747,78721
 4.5000e+000 78940 -1.4499e-001 -8.6465e-002  9.2594e-002 50808 78747,78695,78914
 4.5000e+000 78963 -2.2583e-001 -4.7261e-002  3.2563e-002 50808 78747,78914,78643
 4.5000e+000 79260 -2.1629e-001 -2.5990e-001 -1.8269e-001 50468 79283,79090,79012
 4.5000e+000 79237 -2.3405e-001 -1.5487e-001 -1.7378e-001 50468 79283,79012,78986
 4.5000e+000 79214 -3.9150e-001 -3.3426e-001 -1.7609e-001 50468 79012,79090,79038
 4.5000e+000 79191 -1.4009e-001 -4.0745e-003 -2.3754e-001 50468 78986,79142,79116
 4.5000e+000 79168 -2.3581e-001 -3.4023e-001 -2.4517e-001 50468 79038,79090,79064
 4.5000e+000 79309 -2.4377e-001 -1.9105e-001 -2.1142e-001 50468 79116,79090,79283
 4.5000e+000 79332 -2.4738e-001 -6.5968e-002 -1.9470e-001 50468 79116,79283,78986
 4.5000e+000 79889  1.5420e+000  1.9802e+000 -8.1802e-001 50064 79569,79725,79699
 4.5000e+000 79866  3.1822e-001  1.3344e+000 -1.6389e+000 50064 79543,79725,79569
 4.5000e+000 79843  1.5243e+000  9.6844e-001 -7.6348e-001 50064 79621,79699,79673
 4.5000e+000 79820  1.6613e+000  1.2721e+000 -9.7089e-001 50064 79595,79699,79621
 4.5000e+000 79797  1.0388e+000  1.5488e+000 -1.1984e+000 50064 79569,79699,79595
 4.5000e+000 79774  1.2347e+000  2.9817e+000 -3.7169e-001 50064 79517,79725,79543
 4.5000e+000 79751  7.0510e-001  1.0101e+000 -8.4380e-001 50064 79621,79673,79647
 4.5000e+000 80169  1.5780e+000  2.1531e+000 -9.9192e-001 49724 80019,80097,80071
 4.5000e+000 80146  1.2897e+000  3.3664e+000 -1.2983e+000 49724 79993,80097,80019
 4.5000e+000 80123  9.8258e-001  1.9659e+000 -1.1476e+000 49724 80019,80071,80045
 4.5000e+000 80626 -1.1237e+000 -4.5327e-001 -2.5321e-001 49277 80352,80482,80378
 4.5000e+000 80603 -7.5354e-001 -3.5052e-001  7.1487e-002 49277 80352,80508,80482
 4.5000e+000 80580 -8.9118e-001 -3.2982e-001 -1.7932e-001 49277 80378,80482,80456
 4.5000e+000 80557 -1.1055e+000 -8.1848e-001 -1.8391e-001 49277 80378,80430,80404
 4.5000e+000 80534 -1.4749e+000 -5.6713e-001 -1.3375e-001 49277 80378,80456,80430
 4.5000e+000 81230 -2.0797e+000 -1.1176e+000  7.8248e-001 48716 81253,80835,80809
 4.5000e+000 81207 -1.3180e+000 -4.1765e-003 -4.0186e-001 48716 81397,81253,80809
 4.5000e+000 81184 -1.1343e+000  1.0700e+000 -5.4867e-001 48716 81325,80913,80887
 4.5000e+000 81161 -8.6609e-001 -8.4119e-001 -3.3906e-001 48716 81397,80809,81017
 4.5000e+000 81138 -1.7059e+000  6.7995e-001 -8.7637e-001 48716 81469,80965,80913
 4.5000e+000 81115 -8.0153e-001 -5.3458e-002  9.4902e-001 48716 80835,80887,80861
 4.5000e+000 81092  4.1438e-001 -1.5944e+000  1.7210e+000 48716 80809,81043,81017
 4.5000e+000 81069 -1.8630e+000 -9.1130e-001 -1.9562e+000 48716 80913,80965,80939
 4.5000e+000 81279  5.4422e-001  4.3407e-001  8.7106e-002 48716 80887,80835,81253
 4.5000e+000 81302 -1.6653e+000  7.9393e-001 -7.0520e-001 48716 81325,80887,81253
 4.5000e+000 81351 -1.3104e+000  7.7126e-001 -7.1750e-001 48716 81469,80913,81325
 4.5000e+000 81374 -1.5256e+000  1.3887e+000 -6.5329e-001 48716 80991,81325,81253
 4.5000e+000 81423 -1.2041e+000  1.1123e+000  6.9131e-003 48716 80991,81253,81397
 4.5000e+000 81446 -9.0115e-001  7.6021e-002  8.6249e-002 48716 80991,81397,81017
 4.5000e+000 81495 -2.4102e+000  9.4257e-001 -9.8894e-001 48716 80991,80965,81469
 4.5000e+000 81518 -2.1051e+000  9.4776e-001 -8.4794e-001 48716 80991,81469,81325
 4.5000e+000 81717 -9.6724e-002  1.3135e-002 -6.9826e-002 48262 81740,81567,81541
 4.5000e+000 81694  1.9067e-002  7.8924e-002 -9.8330e-002 48262 81740,81541,81645
 4.5000e+000 81671 -1.0289e-001 -2.2568e-001 -6.0922e-002 48262 81567,81619,81593
 4.5000e+000 81766 -3.1375e-002 -4.3399e-002  1.0819e-002 48262 81619,81567,81740
 4.5000e+000 81789  7.5145e-002  1.0604e-002 -1.3151e-002 48262 81619,81740,81645
 4.5000e+000 81939  1.5391e+000  2.7311e+000 -5.3274e-001 47957 82034,81962,81864
 4.5000e+000 81916  4.3725e-001  2.0556e+000 -7.4468e-001 47957 82166,81962,81838
 4.5000e+000 81988  1.9071e+000  2.4546e+000  3.4265e-001 47957 82294,81962,81890
 4.5000e+000 82011  1.4307e+000  2.1761e+000  1.2493e-003 47957 81890,81962,81812
 4.5000e+000 82060  1.5298e+000  3.0407e+000 -3.1847e-001 47957 81838,81962,82034
 4.5000e+000 82192 -4.9834e-002  1.9622e+000  4.4758e-001 47957 81812,81962,82166
 4.5000e+000 82320  2.6027e+000  2.3200e+000  1.1661e-003 47957 81864,81962,82294
 4.5000e+000 82549 -2.2399e-001 -1.6080e-001 -1.3230e-001 47617 82448,82500,82474
 4.5000e+000 82526  2.5383e-002  4.0678e-001 -3.9215e-002 47617 82422,82500,82448
 4.5000e+000 82902  3.6555e-001  3.4350e-001 -1.4796e-001 47255 82729,82807,82755
 4.5000e+000 82879  8.6149e-001  1.0546e+000  7.2509e-002 47255 82703,82807,82729
 4.5000e+000 82856  3.5846e-001  3.0241e-001 -1.5744e-001 47255 82755,82807,82781
 4.5000e+000 82833  1.4124e+000  1.2906e+000  1.2797e-001 47255 82677,82807,82703
 4.5000e+000 83182  1.0583e-001 -8.4339e-001  3.7948e-001 46680 83032,83084,83058
 4.5000e+000 83159  5.1616e-001 -4.9149e-001  6.0389e-001 46680 83205,83084,83032
 4.5000e+000 83136 -5.0106e-001  1.9882e-002  4.8133e-001 46680 83006,83110,83084
 4.5000e+000 83231  9.9455e-001 -4.0852e-002  8.4124e-001 46680 83006,83084,83205
 4.5000e+000 83737 -1.9076e+000 -5.6310e-001  3.2813e-001 46290 83832,83760,83492
 4.5000e+000 83714 -1.9165e+000 -2.7074e-001  2.7397e-001 46290 83760,83440,83414
 4.5000e+000 83691 -1.4680e+000 -8.3882e-001  2.4798e-001 46290 83832,83492,83466
 4.5000e+000 83668 -1.5820e+000 -1.4347e+000  4.8200e-001 46290 83492,83570,83544
 4.5000e+000 83645 -2.4838e+000 -7.8803e-001  4.5163e-002 46290 83414,83596,83570
 4.5000e+000 83622 -1.4325e+000 -1.0327e+000  7.4981e-001 46290 83492,83544,83518
 4.5000e+000 83786 -1.8173e+000 -5.1781e-001  2.4772e-001 46290 83570,83492,83760
 4.5000e+000 83809 -1.9057e+000 -6.9037e-001  6.3038e-002 46290 83570,83760,83414
 4.5000e+000 83858 -1.3471e+000 -2.2532e-001  4.8894e-001 46290 83440,83760,83832
 4.5000e+000 83881 -5.8640e-001 -4.5833e-001  3.2449e-001 46290 83440,83832,83466
 4.5000e+000 84161 -2.1768e-003 -5.2438e-001  1.0723e-002 45829 84011,84063,84037
 4.5000e+000 84138 -2.6649e-001 -5.3282e-001 -5.8993e-002 45829 84011,84089,84063
 4.5000e+000 84115 -3.1821e-002 -4.2898e-001  5.9043e-003 45829 83985,84089,84011
 4.5000e+000 84311  9.2149e-001  1.0198e+000  1.3890e-001 45631 84184,84236,84210
 4.5000e+000 84288  6.2729e-001  6.1468e-002 -4.3277e-003 45631 84184,84262,84236
 4.5000e+000 84657 -1.9855e-001 -3.0325e-001 -6.9458e-002 45155 84680,84490,84412
 4.5000e+000 84634 -2.5057e-001 -2.0061e-001 -3.0426e-002 45155 84680,84412,84360
 4.5000e+000 84611 -3.3494e-001 -4.0129e-001  4.6842e-002 45155 84412,84490,84438
 4.5000e+000 84588 -3.6622e-002 -3.2571e-003 -6.5336e-002 45155 84334,84516,84360
 4.5000e+000 84565 -1.9898e-001 -5.3950e-002 -3.4475e-001 45155 84360,84412,84386
 4.5000e+000 84542 -2.9284e-001 -4.3785e-001  2.0505e-002 45155 84438,84490,84464
 4.5000e+000 84706 -2.0382e-001 -2.0465e-001 -9.0616e-002 45155 84516,84490,84680
 4.5000e+000 84729 -2.4659e-001 -9.2946e-002 -6.6810e-002 45155 84516,84680,84360
 4.5000e+000 85077 -8.8633e-002 -4.8633e-001 -2.3903e-001 44508 85100,84754,84910
 4.5000e+000 85054 -1.7346e-001  1.4158e-002 -8.8486e-002 44508 84754,84936,84910
 4.5000e+000 85031 -5.0825e-001 -8.6256e-001  9.0043e-002 44508 85100,84910,84884
 4.5000e+000 85008 -4.1814e-001 -8.5637e-002 -4.3846e-001 44508 84780,84884,84832
 4.5000e+000 84985 -4.5675e-001 -1.8255e-001 -4.4659e-001 44508 84780,84832,84806
 4.5000e+000 84962 -1.1866e+000 -8.6612e-001 -6.6625e-002 44508 84832,84884,84858
 4.5000e+000 85126 -4.3169e-001  5.9637e-002 -5.4505e-001 44508 84780,84754,85100
 4.5000e+000 85149 -7.5024e-001 -3.0936e-001 -2.4557e-001 44508 84780,85100,84884
 4.5000e+000 85482  1.2340e-001 -8.3572e-002 -1.0680e-001 44104 85335,85387,85361
 4.5000e+000 85459  6.2304e-002 -3.4930e-001 -4.9883e-002 44104 85309,85387,85335
 4.5000e+000 85436 -1.7139e-002 -2.6850e-001 -1.6262e-001 44104 85257,85387,85309
 4.5000e+000 85413 -9.4751e-002 -7.1193e-002 -2.4847e-002 44104 85257,85309,85283
 4.5000e+000 85811 -2.8344e-001 -3.5812e-001 -1.4783e-001 43600 85586,85664,85612
 4.5000e+000 85788 -2.4623e-001 -8.9827e-002 -9.6978e-002 43600 85586,85690,85664
 4.5000e+000 85765 -1.2651e-001  1.4747e-001 -2.1039e-001 43600 85586,85716,85690
 4.5000e+000 85742 -3.2140e-001 -3.0124e-001 -2.6826e-001 43600 85612,85664,85638
 4.5000e+000 86010  2.2635e-001  6.5647e-002 -1.9294e-001 43224 85886,85938,85912
 4.5000e+000 85987  2.3277e-001  2.6014e-002 -1.6618e-001 43224 85834,85938,85886
 4.5000e+000 85964  2.0115e-001 -7.4201e-001 -1.2512e-001 43224 85834,85886,85860
 4.5000e+000 86420  2.5841e+000  1.0920e+000 -7.3767e-002 42820 86195,86299,86221
 4.5000e+000 86397  2.4800e+000  2.2274e+000 -8.7542e-001 42820 86195,86325,86299
 4.5000e+000 86374  1.6500e+000  1.2581e+000  3.5789e-001 42820 86221,86299,86273
 4.5000e+000 86351  1.2290e+000  9.4093e-001 -8.5824e-002 42820 86221,86273,86247
 4.5000e+000 86749  4.7169e-001 -5.2232e-001 -1.8530e-001 42223 86550,86602,86576
 4.5000e+000 86726  2.1376e+000 -1.1766e+000  1.1808e-001 42223 86550,86628,86602
 4.5000e+000 86703  5.8656e-001 -1.6178e+000  9.1279e-001 42223 86524,86628,86550
 4.5000e+000 86680  1.5639e+000  5.7023e-001  6.4412e-001 42223 86524,86654,86628
 4.5000e+000 87078  6.2698e-001 -3.1449e-001  2.4931e-001 41883 87173,87101,86905
 4.5000e+000 87055  4.7641e-001  8.5160e-001  8.6759e-002 41883 87101,86879,86853
 4.5000e+000 87032  8.2712e-002  1.2778e-001 -7.2108e-002 41883 86853,86983,86931
 4.5000e+000 87009  1.2438e-001  3.7459e-001 -1.7790e-001 41883 86931,86983,86957
 4.5000e+000 87127  1.0190e+000  3.3035e-001 -1.7177e-001 41883 86931,86905,87101
 4.5000e+000 87150  7.0498e-002 -8.2311e-002 -6.7108e-002 41883 86931,87101,86853
 4.5000e+000 87199  1.9235e-001  1.0190e-001  3.5750e-001 41883 86879,87101,87173
 4.5000e+000 87558 -1.0225e-001  7.6339e-001 -2.5630e-001 41471 87382,87460,87408
 4.5000e+000 87535 -1.3239e+000  7.0925e-001 -1.8196e-001 41471 87382,87486,87460
 4.5000e+000 87512  2.3694e-001  5.7389e-002 -7.8314e-002 41471 87408,87460,87434
 4.5000e+000 87806  1.1980e-001  7.3921e-002 -4.7213e-001 41017 87829,87607,87581
 4.5000e+000 87783  1.1030e-001 -2.4091e-001 -1.0122e-001 41017 87829,87581,87685
 4.5000e+000 87760  4.4288e-001 -5.1208e-002 -2.1340e-001 41017 87581,87711,87685
 4.5000e+000 87737  2.5718e-001 -8.2431e-001 -3.1702e-002 41017 87633,87685,87659
 4.5000e+000 87855 -1.1234e-001 -1.1196e-001 -2.5964e-001 41017 87633,87607,87829
 4.5000e+000 87878 -2.0386e-001 -4.6950e-001  1.2143e-001 41017 87633,87829,87685
 4.5000e+000 88258  1.8532e-002  2.9980e-002 -1.2093e-002 40613 88281,88036,88010
 4.5000e+000 88235 -5.7009e-004  3.6946e-002 -4.4705e-003 40613 88281,88010,88088
 4.5000e+000 88212  1.3111e-003  6.3357e-002 -2.3439e-002 40613 87984,88088,88010
 4.5000e+000 88189 -7.6372e-003  4.4969e-002 -3.2017e-002 40613 87984,88114,88088
 4.5000e+000 88166 -1.3429e-002  2.8213e-002 -2.6179e-002 40613 87984,88140,88114
 4.5000e+000 88307  3.2173e-003  2.6348e-002 -1.1591e-002 40613 88062,88036,88281
 4.5000e+000 88330 -2.1513e-002  2.9015e-002 -2.5677e-003 40613 88062,88281,88088
 4.5000e+000 88649 -2.7236e-002  5.3335e-002  5.0488e-003 40095 88375,88505,88401
 4.5000e+000 88626 -1.2505e-002  3.4307e-002  1.5198e-002 40095 88375,88531,88505
 4.5000e+000 88603 -2.6155e-002  5.9143e-002  8.1403e-003 40095 88401,88505,88479
 4.5000e+000 88580  3.3434e-002  2.4893e-001  1.1123e-001 40095 88427,88479,88453
 4.5000e+000 88557 -2.1289e-002  7.3034e-002  5.2358e-003 40095 88401,88479,88427
 4.5000e+000 89078  7.4184e-001 -1.3926e+000 -7.4889e-001 39897 89101,88833,88807
 4.5000e+000 89055  6.8158e-002 -1.6646e+000 -8.4003e-001 39897 89101,88807,88911
 4.5000e+000 89032 -7.4151e-001 -1.3086e+000 -1.4259e+000 39897 88781,88911,88807
 4.5000e+000 89009 -1.3666e+000 -1.7777e+000 -1.7474e+000 39897 88781,88937,88911
 4.5000e+000 88986  2.7758e+000  2.8819e-001 -5.4040e-001 39897 88833,88885,88859
 4.5000e+000 88963 -1.9732e+000 -1.5929e+000 -2.1107e+000 39897 88755,88937,88781
 4.5000e+000 89127  1.3483e+000 -1.7937e+000 -1.3565e+000 39897 88885,88833,89101
 4.5000e+000 89150  3.0726e-001 -2.2783e+000 -1.5559e+000 39897 88885,89101,88911
 4.5000e+000 89300 -1.6652e+000 -1.6086e+000  6.2305e-001 39607 89453,89323,89199
 4.5000e+000 89277 -2.4480e+000 -1.0053e+000  4.8992e-001 39607 89525,89453,89199
 4.5000e+000 89349 -1.2580e+000 -1.5071e+000 -2.7476e-002 39607 89225,89199,89323
 4.5000e+000 89479 -1.2874e+000 -6.7782e-001  4.3275e-001 39607 89251,89323,89453
 4.5000e+000 89502 -1.3033e+000 -8.5895e-002  1.1178e+000 39607 89251,89453,89173
 4.5000e+000 89551 -1.0748e+000 -6.7220e-001  6.6565e-001 39607 89173,89453,89525
 4.5000e+000 90264 -1.1556e+000 -1.7807e+000 -3.8137e-001 39039 89996,90074,90048
 4.5000e+000 90241 -7.2899e-001 -8.7608e-001 -2.3666e-001 39039 89918,90074,89996
 4.5000e+000 90218 -1.1484e+000 -1.0936e+000 -1.8776e-002 39039 89918,89996,89944
 4.5000e+000 90195 -1.4542e+000 -9.9517e-001  2.8400e-002 39039 89892,90074,89918
 4.5000e+000 90172 -2.5263e-001 -1.7244e+000 -4.3971e-001 39039 89996,90048,90022
 4.5000e+000 90149 -2.0326e+000  7.7154e-001 -1.0083e-001 39039 89892,90100,90074
 4.5000e+000 90126 -1.3339e+000 -1.1659e+000 -1.5424e-001 39039 89944,89996,89970
 4.5000e+000 90770 -4.0643e-001 -4.9357e-001 -7.0103e-002 38635 90473,90603,90577
 4.5000e+000 90747 -2.4609e-001 -4.5706e-001 -8.4241e-003 38635 90447,90603,90473
 4.5000e+000 90724 -3.7884e-001 -6.5758e-001 -8.3437e-002 38635 90499,90577,90551
 4.5000e+000 90701 -3.7666e-001 -6.6741e-001 -6.5549e-002 38635 90473,90577,90499
 4.5000e+000 90678 -2.9931e-001 -8.2547e-001 -8.9907e-002 38635 90499,90551,90525
 4.5000e+000 90655 -3.8215e-001 -3.5905e-001  3.5650e-002 38635 90447,90629,90603
 4.5000e+000 90871 -1.1300e-001 -3.1934e-001 -1.5351e-001 38231 90793,90845,90819
 4.5000e+000 91458  1.8672e-001 -2.3509e-001 -1.0506e-001 37534 91161,91317,91291
 4.5000e+000 91435  4.7355e-002 -9.9952e-004  5.9707e-002 37534 91135,91317,91161
 4.5000e+000 91412 -2.5086e-001 -9.9262e-001 -4.8277e-001 37534 91187,91291,91239
 4.5000e+000 91389  1.6262e-002 -1.0059e+000  4.0970e-002 37534 91161,91291,91187
 4.5000e+000 91366  2.0252e-002 -6.2523e-001 -3.4193e-001 37534 91239,91291,91265
 4.5000e+000 91343  6.8086e-001 -9.9314e-001 -8.8293e-001 37534 91187,91239,91213
 4.5000e+000 91915 -6.7432e-001 -6.9717e-001  2.0979e-002 37080 91938,91745,91667
 4.5000e+000 91892 -6.4942e-001 -5.9681e-001  1.5348e-001 37080 91938,91667,91797
 4.5000e+000 91869 -8.9371e-001  1.6948e-001 -1.5540e-001 37080 91641,91797,91667
 4.5000e+000 91846 -8.1336e-001 -7.9291e-001  7.8128e-002 37080 91667,91719,91693
 4.5000e+000 91823 -7.7643e-001 -7.2465e-001  3.4189e-002 37080 91667,91745,91719
 4.5000e+000 91964 -5.8292e-001 -4.7459e-001  2.3336e-002 37080 91771,91745,91938
 4.5000e+000 91987 -6.2581e-001 -5.2306e-001  1.6142e-001 37080 91771,91938,91797
 4.5000e+000 92235 -4.4981e-001 -5.3960e-001 -3.3713e-002 36397 92036,92088,92062
 4.5000e+000 92212 -3.2803e-001 -3.9859e-001 -8.5962e-002 36397 92036,92114,92088
 4.5000e+000 92189 -1.7712e-001 -2.8317e-001 -1.6873e-003 36397 92036,92140,92114
 4.5000e+000 92166 -2.6617e-001 -2.0322e-001  6.4016e-003 36397 92010,92140,92036
 4.5000e+000 92694 -1.6771e-001 -5.6698e-003  3.0620e-002 36057 92446,92498,92472
 4.5000e+000 92671 -7.8328e-002  1.7825e-001  5.9851e-002 36057 92446,92550,92498
 4.5000e+000 92648  1.0225e-001 -2.4518e-002  2.4392e-002 36057 92446,92576,92550
 4.5000e+000 92625 -4.5174e-002 -9.5983e-002  4.6385e-002 36057 92420,92576,92446
 4.5000e+000 92602 -9.8855e-002 -6.5784e-002 -2.0727e-001 36057 92498,92550,92524
 4.5000e+000 93023 -4.9077e-001 -4.6180e-001 -1.1329e-001 35717 92876,92928,92902
 4.5000e+000 93000 -4.4272e-001 -4.8937e-001 -1.2354e-001 35717 92824,92928,92876
 4.5000e+000 92977 -2.0025e-001 -4.5576e-001 -7.5999e-002 35717 92798,92928,92824
 4.5000e+000 92954 -3.7863e-001 -5.8807e-001 -4.8217e-001 35717 92824,92876,92850
 4.5000e+000 93499  8.5589e-002 -6.7156e-001  3.0920e-001 35405 93522,93309,93257
 4.5000e+000 93476  2.9692e-001 -4.2382e-001  2.1764e-001 35405 93666,93522,93257
 4.5000e+000 93453  1.5180e-001 -2.1519e+000  2.6854e-001 35405 93594,93127,93335
 4.5000e+000 93430 -2.7965e-002 -3.5770e-001  4.1673e-002 35405 93666,93257,93231
 4.5000e+000 93407 -8.0985e-001 -2.6692e+000 -7.2849e-001 35405 93127,93179,93153
 4.5000e+000 93384 -1.1275e+000  9.3557e-002  3.8115e-001 35405 93179,93231,93205
 4.5000e+000 93361  4.8901e-001  6.8538e-001  2.0164e-001 35405 93257,93309,93283
 4.5000e+000 93548  8.2537e-001 -1.6540e-001  8.3226e-001 35405 93335,93309,93522
 4.5000e+000 93571  3.5629e-001 -1.0985e+000  4.7058e-001 35405 93594,93335,93522
 4.5000e+000 93620  1.3353e-001 -1.0131e+000  1.5410e-001 35405 93179,93127,93594
 4.5000e+000 93643 -1.0390e-001 -5.6912e-001  1.5596e-001 35405 93738,93594,93522
 4.5000e+000 93692 -2.3173e-002 -5.8399e-001  8.9687e-002 35405 93738,93522,93666
 4.5000e+000 93715 -2.4137e-001 -5.8883e-001 -9.0542e-002 35405 93179,93666,93231
 4.5000e+000 93764 -1.4547e-001 -6.5373e-001  1.9355e-001 35405 93179,93594,93738
 4.5000e+000 93787 -1.0969e-001 -6.8790e-001  1.3376e-001 35405 93179,93738,93666
 4.5000e+000 94372  5.2727e-001  1.5784e-002 -7.8030e-002 34951 94395,94127,94075
 4.5000e+000 94349  1.0018e+000 -2.8213e-002  6.9575e-002 34951 94395,94075,94231
 4.5000e+000 94326  1.0656e-001 -4.1737e-001  3.2255e-003 34951 94049,94231,94075
 4.5000e+000 94303 -2.9771e-001 -4.2495e-001  4.4939e-001 34951 94075,94127,94101
 4.5000e+000 94280  1.1818e+000  1.8014e-001  3.7330e-001 34951 94127,94205,94153
 4.5000e+000 94257  1.3945e+000  2.2567e-001  6.3112e-001 34951 94153,94205,94179
 4.5000e+000 94421  9.1254e-001 -1.4098e-001  2.1551e-001 34951 94205,94127,94395
 4.5000e+000 94444  1.7940e+000  6.6650e-002  3.3351e-001 34951 94205,94395,94231
 4.5000e+000 94692 -8.3808e-004  6.9047e-002  2.0307e-003 34397 94715,94519,94467
 4.5000e+000 94669  1.0417e-003  3.7145e-002 -4.2245e-003 34397 94715,94467,94597
 4.5000e+000 94646  4.7438e-003  1.2741e-001  1.9398e-002 34397 94545,94597,94571
 4.5000e+000 94623  4.3590e-002  1.8211e-001 -1.7373e-002 34397 94467,94519,94493
 4.5000e+000 94741  2.1197e-002  1.7538e-001  1.7717e-002 34397 94545,94519,94715
 4.5000e+000 94764 -2.1501e-002  7.2421e-002  8.8913e-003 34397 94545,94715,94597
 4.5000e+000 94985 -6.7738e-002  1.2511e-001 -1.8560e-002 33985 94835,94913,94887
 4.5000e+000 94962  7.1031e-002  4.4996e-001 -8.0377e-003 33985 94809,94913,94835
 4.5000e+000 94939  2.0495e-002  1.4316e-001 -3.1262e-002 33985 94835,94887,94861
 4.5000e+000 95186 -2.9022e-001 -4.7485e-001 -3.1087e-001 33645 95281,95209,95036
 4.5000e+000 95163  1.2843e-002 -6.7794e-001  4.9286e-002 33645 95209,95010,95088
 4.5000e+000 95140  2.5830e-001 -2.8377e-001 -6.9776e-002 33645 95010,95114,95088
 4.5000e+000 95235 -6.0338e-001 -5.4822e-001 -2.2838e-001 33645 95062,95036,95209
 4.5000e+000 95258 -4.3506e-001 -8.5269e-001  2.5201e-001 33645 95413,95209,95088
 4.5000e+000 95307 -1.4899e-001 -3.2027e-001 -3.7191e-001 33645 95010,95209,95281
 4.5000e+000 95439 -3.6274e-001 -6.9828e-001  2.0029e-001 33645 95062,95209,95413
 4.5000e+000 95766 -4.4273e-001  1.8853e-001 -5.7887e-001 33141 95789,95593,95567
 4.5000e+000 95743 -1.0968e-001 -8.2712e-002 -2.0674e-001 33141 95861,95789,95567
 4.5000e+000 95720 -1.4446e-001 -1.3444e-003 -5.4701e-002 33141 95861,95567,95671
 4.5000e+000 95697 -1.5153e-001 -5.7536e-002 -7.3492e-002 33141 95541,95671,95567
 4.5000e+000 95815 -1.5223e-001  8.8591e-001 -5.0696e-001 33141 95619,95593,95789
 4.5000e+000 95838 -2.9822e-002  2.7799e-001 -2.1409e-001 33141 95619,95789,95645
 4.5000e+000 95887  9.8450e-003  1.8708e-001 -2.2717e-001 33141 95645,95789,95861
 4.5000e+000 95910 -3.4391e-002  2.6409e-001 -5.4763e-002 33141 95645,95861,95671
 4.5000e+000 96060 -5.3566e-001 -3.0716e-001 -3.2987e-001 32487 95959,96011,95985
 4.5000e+000 96037 -1.2681e-001 -2.4767e-001 -7.5729e-002 32487 95933,96011,95959
 4.5000e+000 96570 -2.7035e-001 -1.4172e-001  1.0443e-001 32033 96665,96593,96377
 4.5000e+000 96547 -4.3626e-001  1.2484e-001 -2.7259e-001 32033 96737,96593,96325
 4.5000e+000 96524 -3.0153e-001 -2.3925e-001  3.3512e-002 32033 96665,96377,96351
 4.5000e+000 96501 -4.5283e-001  2.6761e-001 -2.1279e-001 32033 96737,96325,96299
 4.5000e+000 96478 -3.9839e-001  2.7147e-001 -2.0812e-001 32033 96247,96429,96299
 4.5000e+000 96455 -7.8808e-001 -8.0188e-001 -1.8554e-001 32033 96247,96299,96273
 4.5000e+000 96619  2.1604e-003  3.1397e-002  5.9123e-002 32033 96809,96593,96403
 4.5000e+000 96642  2.3377e-001  6.4713e-001 -5.9831e-001 32033 96403,96593,96429
 4.5000e+000 96691 -1.1293e-001 -3.7429e-001 -5.7554e-003 32033 96325,96593,96665
 4.5000e+000 96714 -2.4719e-001 -5.5256e-001 -1.0123e-001 32033 96325,96665,96351
 4.5000e+000 96763 -4.9361e-001  3.5957e-002 -3.3651e-001 32033 96429,96593,96737
 4.5000e+000 96786 -4.9790e-001  1.4330e-001 -2.6204e-001 32033 96429,96737,96299
 4.5000e+000 96835 -2.3996e-002 -1.0134e-002  3.9529e-002 32033 96377,96593,96809
 4.5000e+000 97064  2.4135e-002  7.0926e-002  2.0843e-002 31671 97087,96989,96963
 4.5000e+000 97041  2.5506e-002  8.3736e-002 -1.3358e-002 31671 97087,96963,96937
 4.5000e+000 97113 -2.1140e-002  4.7282e-002  2.1493e-002 31671 97159,97087,97015
 4.5000e+000 97136 -1.4372e-002 -1.0051e-002 -1.4596e-002 31671 97015,97087,96937
 4.5000e+000 97185  1.8080e-002  7.6754e-002  7.2219e-003 31671 96989,97087,97159
 4.5000e+000 97563 -3.6068e-002  8.4504e-002 -1.2269e-002 31117 97586,97367,97341
 4.5000e+000 97540 -2.5949e-003  7.5941e-002 -2.7039e-002 31117 97658,97586,97341
 4.5000e+000 97517  3.1744e-002  5.8562e-002 -1.3119e-002 31117 97658,97341,97315
 4.5000e+000 97494 -7.7635e-002  6.2244e-002  1.9051e-002 31117 97289,97445,97315
 4.5000e+000 97471 -3.8385e-002  1.2591e-002  5.2005e-003 31117 97367,97419,97393
 4.5000e+000 97612 -3.9336e-002  3.7327e-002 -5.3270e-003 31117 97419,97367,97586
 4.5000e+000 97635 -6.3974e-002  5.8527e-002 -4.4318e-002 31117 97419,97586,97445
 4.5000e+000 97684 -5.8710e-002  6.8090e-002 -2.2610e-002 31117 97445,97586,97658
 4.5000e+000 97707 -1.9712e-002  5.4307e-002 -8.3000e-003 31117 97445,97658,97315
 4.5000e+000 98215 -2.2264e-001  5.7129e-003 -2.7933e-001 30563 98238,97996,97944
 4.5000e+000 98192 -3.5084e-001  7.6191e-002 -2.6664e-001 30563 98310,98238,97944
 4.5000e+000 98169 -4.8254e-001 -2.5352e-001 -2.8581e-001 30563 98310,97944,97918
 4.5000e+000 98146 -1.9882e-001  7.8453e-003  4.1904e-002 30563 97892,98074,97918
 4.5000e+000 98123 -1.1815e-001  3.7812e-001 -2.5658e-001 30563 97996,98048,98022
 4.5000e+000 98100 -3.2288e-001  1.1416e-001 -5.0039e-001 30563 97944,97996,97970
 4.5000e+000 98264 -2.2238e-001  9.1116e-002 -2.7230e-001 30563 98048,97996,98238
 4.5000e+000 98287 -1.7346e-001  4.0694e-001  1.5437e-003 30563 98048,98238,98074
 4.5000e+000 98336 -3.5890e-001 -8.6834e-002 -3.7541e-002 30563 98074,98238,98310
 4.5000e+000 98359 -3.7797e-001 -1.8031e-001 -3.3568e-002 30563 98074,98310,97918
 4.5000e+000 98607 -7.3683e-001  1.7407e-001 -6.5110e-003 30073 98630,98460,98408
 4.5000e+000 98584 -1.0914e+000  1.4944e-001 -6.2223e-002 30073 98630,98408,98382
 4.5000e+000 98561 -3.0604e-001  3.3867e-001 -1.9556e-001 30073 98382,98512,98486
 4.5000e+000 98538 -5.4327e-001  8.1590e-002  1.6006e-001 30073 98408,98460,98434
 4.5000e+000 98656 -5.5571e-001  6.0356e-002 -7.6648e-002 30073 98486,98460,98630
 4.5000e+000 98679 -7.9353e-001  1.2813e-001 -1.2820e-001 30073 98486,98630,98382
 4.5000e+000 99157  2.7155e-001 -1.6206e-001  1.9663e-001 29669 99180,98837,98811
 4.5000e+000 99134  2.8094e-001 -2.4283e-002  2.4324e-001 29669 99324,99180,98811
 4.5000e+000 99111  4.0759e-001  4.4002e-001 -2.6064e-001 29669 99252,98863,98837
 4.5000e+000 99088  1.8415e-001 -3.0014e-001  3.3169e-001 29669 99324,98811,98993
 4.5000e+000 99065 -7.7606e-001  6.5445e-001  1.2161e-001 29669 98863,98941,98915
 4.5000e+000 99042 -3.5974e-001  5.9224e-001  2.3768e-001 29669 98863,98915,98889
 4.5000e+000 99019 -3.6234e-002 -3.3497e-001  6.5064e-001 29669 98785,98993,98811
 4.5000e+000 99206  2.7297e-001 -1.4669e-001 -5.4319e-002 29669 99252,98837,99180
 4.5000e+000 99229 -1.1760e-001  2.2705e-001  1.7171e-001 29669 98941,99180,98967
 4.5000e+000 99278  7.6707e-002  8.8785e-001 -1.8568e-001 29669 98941,98863,99252
 4.5000e+000 99301  1.8826e-001  6.2151e-001  3.3023e-002 29669 98941,99252,99180
 4.5000e+000 99350  1.4046e-001  3.2006e-001  1.9254e-001 29669 98967,99180,99324
 4.5000e+000 99373  1.3085e-001  1.1306e-001  2.3601e-001 29669 98967,99324,98993
 4.5000e+000 99958  3.5681e-001  5.4517e-001  1.2897e-001 29051 99981,99765,99739
 4.5000e+000 99935 -5.5658e-003  6.3631e-002 -3.1068e-002 29051 99981,99739,99661
 4.5000e+000 99912  4.6058e-001 -4.0884e-001 -2.9262e-001 29051 99765,99817,99791
 4.5000e+000 99889 -7.2003e-001 -3.8996e-001  4.4236e-001 29051 99635,99817,99661
 4.5000e+000 99866 -8.6965e-001 -7.0189e-003  5.9621e-001 29051 99661,99739,99687
 4.5000e+000 99843 -1.0579e+000  2.6368e-001  3.0900e-001 29051 99687,99739,99713
 4.5000e+000 100007  5.6962e-001  6.4442e-002  1.6949e-001 29051 99817,99765,99981
 4.5000e+000 100030  3.9292e-001 -1.4849e-001  9.3222e-002 29051 99817,99981,99661
 4.5000e+000 100278  8.1645e-001  5.2119e-001  1.0503e-001 28525 100445,100301,100131
 4.5000e+000 100255  2.5433e-001  4.6023e-001  2.5386e-002 28525 100373,100301,100079
 4.5000e+000 100232  2.3245e-001  6.2292e-002  8.4640e-002 28525 100373,100079,100053
 4.5000e+000 100209  6.1896e-001  7.4140e-001 -1.0208e-001 28525 100445,100131,100105
 4.5000e+000 100327  1.6069e+000  2.5920e-001  4.9583e-002 28525 100517,100301,100157
 4.5000e+000 100350  5.1531e-001  3.6607e-001 -2.8745e-001 28525 100157,100301,100183
 4.5000e+000 100399  2.2250e-001  4.7363e-002  2.2783e-001 28525 100183,100301,100373
 4.5000e+000 100422  2.9216e-001 -2.3569e-001  2.8222e-001 28525 100183,100373,100053
 4.5000e+000 100471  5.5221e-001  2.9662e-001 -1.2577e-001 28525 100079,100301,100445
 4.5000e+000 100494  6.2935e-002  2.6328e-001 -3.7529e-001 28525 100079,100445,100105
 4.5000e+000 100543  1.2777e+000  2.2145e-001 -6.8897e-002 28525 100131,100301,100517
 4.5000e+000 101209 -1.5423e+000  3.0576e-001  4.3906e-002 28185 100938,101016,100990
 4.5000e+000 101186 -1.6411e+000 -1.4998e-002 -1.4899e-001 28185 100912,101016,100938
 4.5000e+000 101163 -5.4715e-001  3.3767e-001 -3.2728e-002 28185 100912,101068,101016
 4.5000e+000 101140 -2.0077e+000 -4.1827e-001 -4.1456e-001 28185 100886,101068,100912
 4.5000e+000 101117 -6.1319e-001  1.4106e-001 -2.3473e-002 28185 101016,101068,101042
 4.5000e+000 101094 -3.9741e+000 -4.9706e-001  8.2611e-002 28185 100938,100990,100964
 4.5000e+000 101408  1.0062e-001  1.6688e-002 -2.5278e-001 27781 101503,101431,101310
 4.5000e+000 101385 -2.6320e-001  4.9505e-001 -5.2762e-001 27781 101431,101258,101232
 4.5000e+000 101362  2.4912e-001 -4.9064e-002 -3.2259e-001 27781 101503,101310,101284
 4.5000e+000 101457  7.5873e-001  4.0255e-001 -4.1889e-001 27781 101336,101310,101431
 4.5000e+000 101480  2.1442e-001  7.7786e-001 -7.5541e-001 27781 101575,101431,101232
 4.5000e+000 101529  3.3259e-001  1.3389e-001 -4.7731e-001 27781 101258,101431,101503
 4.5000e+000 101552  1.5100e-001 -3.2204e-001 -2.9576e-001 27781 101705,101503,101284
 4.5000e+000 101601  2.8460e-001  8.3643e-001 -8.0234e-001 27781 101336,101431,101575
 4.5000e+000 101731 -8.3179e-002 -4.9512e-002 -4.4796e-001 27781 101258,101503,101705
 4.5000e+000 102237 -7.6601e-001 -2.5505e-001  5.2517e-002 27419 102476,102260,101992
 4.5000e+000 102214 -5.3831e-001 -3.7838e-001 -4.1629e-002 27419 102260,101940,101914
 4.5000e+000 102191 -8.1385e-001 -4.2607e-001  1.0965e-001 27419 102404,102332,102096
 4.5000e+000 102168 -7.1689e-001 -3.7740e-001  2.3380e-002 27419 102404,102096,102044
 4.5000e+000 102145 -7.1706e-001 -2.9238e-001  8.1214e-002 27419 102476,101992,101966
 4.5000e+000 102122 -4.7753e-001 -4.4635e-001  7.5080e-003 27419 102044,102096,102070
 4.5000e+000 102286 -9.9202e-001 -4.5075e-001  1.5578e-001 27419 102018,101992,102260
 4.5000e+000 102309 -7.7405e-001 -3.3920e-001  1.2645e-002 27419 102332,102018,102260
 4.5000e+000 102358 -8.3979e-001 -7.5026e-001  2.3585e-001 27419 101914,102096,102332
 4.5000e+000 102381 -7.2258e-001 -5.0663e-001  4.5623e-002 27419 101914,102332,102260
 4.5000e+000 102430 -6.2677e-001 -4.1403e-001 -1.2142e-002 27419 102018,102332,102404
 4.5000e+000 102453 -5.4563e-001 -3.3301e-001 -1.0787e-001 27419 102018,102404,102044
 4.5000e+000 102502 -6.5503e-001 -3.2400e-001  8.2023e-002 27419 101940,102260,102476
 4.5000e+000 102525 -1.9379e-001 -1.2377e-001  4.5389e-002 27419 101940,102476,101966
 4.5000e+000 103031 -1.0709e+000  9.9167e-001  7.3898e-001 26715 102708,102786,102760
 4.5000e+000 103008 -1.3137e-001 -3.0725e-001  1.1044e-001 26715 102708,102890,102786
 4.5000e+000 102985  9.5909e-001 -5.3807e-001  6.0933e-002 26715 102838,102890,102864
 4.5000e+000 102962  2.7735e-001  8.2211e-001  9.7464e-002 26715 102786,102890,102838
 4.5000e+000 102939  1.3217e+000  1.3370e+000  6.5160e-001 26715 102786,102838,102812
 4.5000e+000 102916 -1.7160e+000 -5.5785e-002  3.0632e-001 26715 102708,102760,102734
 4.5000e+000 103279  6.6146e-003  5.3011e-002 -8.6112e-002 26303 103302,103158,103080
 4.5000e+000 103256  1.1965e-001 -4.9134e-002 -9.2185e-002 26303 103302,103080,103054
 4.5000e+000 103233  2.5237e-001  1.7497e-001 -3.5021e-002 26303 103080,103158,103106
 4.5000e+000 103210 -3.3041e-001  2.4522e-002 -4.0506e-002 26303 103106,103158,103132
 4.5000e+000 103328 -1.7667e-001 -4.8672e-002 -4.1226e-002 26303 103184,103158,103302
 4.5000e+000 103351  3.7097e-002 -7.3002e-002 -7.0479e-002 26303 103184,103302,103054
 4.5000e+000 103501 -9.2940e-001 -1.8470e-001  5.2815e-002 25849 103374,103426,103400
 4.5000e+000 103478 -8.2941e-001 -4.0814e-001  3.8809e-003 25849 103374,103452,103426
 4.5000e+000 104090 -9.8613e-002  1.7312e-001  1.1248e-001 25445 103793,103871,103819
 4.5000e+000 104067  1.6865e-001  7.7980e-002 -5.6198e-004 25445 103793,103949,103871
 4.5000e+000 104044  2.4787e-001  2.6039e-001  1.2286e-002 25445 103871,103949,103923
 4.5000e+000 104021 -1.0865e-001  2.4680e-001 -2.7309e-002 25445 103819,103871,103845
 4.5000e+000 103998  1.1436e-001  1.6114e-001  1.9789e-001 25445 103767,103949,103793
 4.5000e+000 103975  3.6402e-001  1.8203e-001  1.4178e-003 25445 103871,103923,103897
 4.5000e+000 104419 -3.7556e-001 -1.2891e-001 -1.2036e-001 25083 104220,104298,104272
 4.5000e+000 104396 -6.8803e-001 -4.3622e-001  3.5584e-003 25083 104220,104324,104298
 4.5000e+000 104373 -2.9900e-001 -2.0672e-001 -3.4601e-002 25083 104220,104272,104246
 4.5000e+000 104350 -6.8204e-001 -3.6961e-001  2.4228e-002 25083 104194,104324,104220
 4.5000e+000 105102  2.1910e-002 -1.9045e-001 -1.0800e-001 24793 104785,104863,104837
 4.5000e+000 105079 -4.6925e-002 -4.9606e-001 -2.7950e-001 24793 104759,104863,104785
 4.5000e+000 105056 -1.1801e-001 -9.8406e-002 -2.9098e-001 24793 104759,104915,104863
 4.5000e+000 105033 -2.1365e-001 -1.4071e-001 -2.2491e-001 24793 104733,104915,104759
 4.5000e+000 105010  5.0953e-002 -3.9434e-002 -2.2880e-001 24793 104863,104915,104889
 4.5000e+000 104987 -3.4807e-001 -3.8897e-002 -3.2375e-001 24793 104681,104915,104733
 4.5000e+000 104964 -6.7922e-002 -2.9769e-001 -1.5125e-001 24793 104785,104837,104811
 4.5000e+000 104941 -2.3822e-001  2.4212e-001 -3.4546e-001 24793 104681,104733,104707
 4.5000e+000 105252  8.1451e-001  1.0140e+000 -6.5100e-002 24389 105477,105275,105177
 4.5000e+000 105229  7.7716e-001  1.0911e+000 -7.9820e-002 24389 105347,105275,105151
 4.5000e+000 105301  8.7703e-001  9.2931e-001 -9.8390e-002 24389 105203,105177,105275
 4.5000e+000 105324  9.1959e-001  1.0460e+000 -4.0733e-002 24389 105203,105275,105125
 4.5000e+000 105373  7.9301e-001  7.1301e-001 -9.1228e-003 24389 105125,105275,105347
 4.5000e+000 105503  9.5850e-001  1.2457e+000  1.2145e-002 24389 105151,105275,105477
 4.5000e+000 106088 -6.2088e-001  5.0567e-001  6.6920e-001 23735 105791,105921,105895
 4.5000e+000 106065 -2.0573e+000 -5.1800e-002  6.8996e-001 23735 105765,105921,105791
 4.5000e+000 106042 -4.1603e-001  6.3795e-001  3.6898e-001 23735 105765,105947,105921
 4.5000e+000 106019 -2.3481e+000  1.0463e-002  9.0467e-001 23735 105817,105895,105869
 4.5000e+000 105996 -1.4657e+000  2.5247e-001  8.0956e-001 23735 105791,105895,105817
 4.5000e+000 105973 -1.2118e+000  1.9635e-001  7.3180e-001 23735 105817,105869,105843
 4.5000e+000 106417  6.4112e-001  1.9736e+000 -4.3117e-001 23295 106218,106296,106270
 4.5000e+000 106394  2.0836e-001  6.2696e-001 -3.1698e-001 23295 106218,106322,106296
 4.5000e+000 106371 -1.1972e-002  4.2416e-001 -4.1070e-001 23295 106218,106270,106244
 4.5000e+000 106348  4.3616e-001  7.2415e-001 -1.1839e-001 23295 106192,106322,106218
 4.5000e+000 106746  5.2393e-002  6.7015e-001  1.4376e-001 23005 106521,106599,106547
 4.5000e+000 106723  5.3308e-001  8.1711e-001  1.4246e-002 23005 106521,106651,106599
 4.5000e+000 106700  3.3220e-001  6.5402e-001  1.5088e-002 23005 106547,106599,106573
 4.5000e+000 106677  6.8985e-001  7.8638e-001  3.9889e-001 23005 106599,106651,106625
 4.5000e+000 107331 -3.0140e-001  1.7360e-001 -2.4111e-001 22601 107060,107190,107138
 4.5000e+000 107308 -9.9273e-001 -5.7326e-002 -5.0773e-001 22601 107034,107190,107060
 4.5000e+000 107285 -1.4579e+000 -3.6685e-001 -4.7615e-001 22601 107060,107138,107112
 4.5000e+000 107262 -1.5487e+000 -3.0773e-001 -5.5957e-001 22601 107008,107190,107034
 4.5000e+000 107239 -1.2466e-001  9.2693e-001 -1.0098e+000 22601 107060,107112,107086
 4.5000e+000 107216 -4.9972e-001  2.5566e-001 -1.1206e-001 22601 107138,107190,107164
 4.5000e+000 107807 -5.6254e-001  8.2688e-002 -9.9908e-002 22031 107974,107902,107617
 4.5000e+000 107784 -6.8937e-001  3.4560e-001 -2.5083e-001 22031 107830,107565,107513
 4.5000e+000 107761 -4.6547e-001  3.6191e-002 -2.8462e-001 22031 108046,107830,107513
 4.5000e+000 107738 -4.3899e-001  2.9405e-001  2.1046e-002 22031 107974,107617,107591
 4.5000e+000 107715 -5.0703e-001 -1.0040e-001 -2.5035e-001 22031 108046,107513,107461
 4.5000e+000 107692 -1.6619e+000  5.5574e-001 -4.5081e-001 22031 107513,107565,107539
 4.5000e+000 107669 -2.8621e-001  1.9660e-001 -3.6975e-001 22031 107461,107513,107487
 4.5000e+000 107856 -8.1213e-001  2.0729e-001 -1.7149e-001 22031 107902,107565,107830
 4.5000e+000 107879 -5.4493e-001 -1.4111e-001 -1.9535e-002 22031 107643,107830,107435
 4.5000e+000 107928 -1.0896e+000  4.4462e-001 -4.7257e-001 22031 107643,107617,107902
 4.5000e+000 107951 -7.7447e-001  1.8806e-001  2.5035e-002 22031 107643,107902,107830
 4.5000e+000 108000 -7.1818e-001  3.8236e-001 -1.2258e-001 22031 107565,107902,107974
 4.5000e+000 108023 -6.9262e-001  3.1426e-001 -9.2873e-002 22031 107565,107974,107591
 4.5000e+000 108072 -4.1821e-001 -1.3926e-001 -9.4714e-002 22031 107435,107830,108046
 4.5000e+000 108095 -5.0577e-001 -3.5614e-001 -5.9863e-002 22031 107435,108046,107461
 4.5000e+000 108196  4.6882e-002  3.5505e-002 -1.8789e-001 21783 108118,108170,108144
 4.5000e+000 108655  1.5051e-001  8.6484e-001  5.1029e-001 21379 108407,108485,108459
 4.5000e+000 108632  1.7335e+000 -4.7257e-002  7.1850e-001 21379 108407,108511,108485
 4.5000e+000 108609  1.7751e+000 -2.7439e-001  4.3779e-001 21379 108381,108511,108407
 4.5000e+000 108586  7.9029e-001  4.7886e-001 -6.0746e-001 21379 108381,108537,108511
 4.5000e+000 108563  4.5858e-001  1.1778e-001  2.3227e-001 21379 108407,108459,108433
 4.5000e+000 109082 -6.7345e-002  6.5063e-001  1.7580e-001 20974 109105,108863,108811
 4.5000e+000 109059  3.4599e-001  8.7669e-001 -1.2952e-001 20974 109105,108811,108759
 4.5000e+000 109036 -7.4369e-002  1.4204e+000 -1.2043e-001 20974 109177,108889,108863
 4.5000e+000 109013  7.5012e-001  1.2552e+000 -1.3587e-001 20974 108811,108863,108837
 4.5000e+000 108990 -3.3181e-001  1.4537e-002 -6.0957e-002 20974 108759,108941,108915
 4.5000e+000 108967  1.6550e-001 -2.2743e-001  4.7246e-002 20974 108759,108811,108785
 4.5000e+000 109131  1.5779e-001  1.1147e+000  6.3110e-002 20974 109177,108863,109105
 4.5000e+000 109154  2.0525e-002  2.3800e-002 -2.8964e-002 20974 108915,109105,108759
 4.5000e+000 109203 -1.7905e-001  1.1649e+000  1.8419e-001 20974 108915,108889,109177
 4.5000e+000 109226 -1.4945e-001  5.0139e-001  3.5001e-001 20974 108915,109177,109105
 4.5000e+000 109496 -8.1416e-001  8.2496e-002 -6.7111e-002 20470 109271,109375,109297
 4.5000e+000 109473 -7.5602e-001  1.9385e-001 -1.2252e-001 20470 109271,109401,109375
 4.5000e+000 109450 -9.5448e-001 -1.2202e-001 -1.3792e-001 20470 109297,109375,109349
 4.5000e+000 109427 -1.3018e+000 -8.3054e-001  2.5080e-001 20470 109297,109349,109323
 4.5000e+000 109955  1.8894e-001  1.6592e+000  9.6310e-001 20123 110050,109733,109707
 4.5000e+000 109932 -7.3801e-001  7.7832e-001  5.2793e-001 20123 110050,109707,109681
 4.5000e+000 109909  1.6580e-001  4.4719e-001  6.1012e-001 20123 109978,109759,109733
 4.5000e+000 109886 -1.8643e-001  3.0145e-001  5.5006e-001 20123 110122,109978,109733
 4.5000e+000 109863  2.8276e-001  2.5159e-001  2.8195e-001 20123 109785,109837,109811
 4.5000e+000 110004  1.2794e-001  4.3880e-001  4.2248e-001 20123 109785,109759,109978
 4.5000e+000 110027 -1.1319e-002  3.2269e-001  3.0666e-001 20123 109785,109978,109837
 4.5000e+000 110076 -3.6703e-001  5.6916e-001  4.3719e-001 20123 110122,109733,110050
 4.5000e+000 110099 -3.3201e-001  4.7268e-001  1.0140e-001 20123 109837,110050,109681
 4.5000e+000 110148  1.6234e-001  6.8484e-001  3.9480e-001 20123 109837,109978,110122
 4.5000e+000 110171 -4.0958e-003  9.1342e-001  2.7724e-001 20123 109837,110122,110050
 4.5000e+000 110500  1.0723e+000  3.1351e-001 -2.5815e-001 19511 110301,110379,110353
 4.5000e+000 110477  1.6197e+000  9.1719e-001 -4.9223e-001 19511 110301,110405,110379
 4.5000e+000 110454  3.9685e-001  3.1413e-001 -2.5850e-001 19511 110275,110405,110301
 4.5000e+000 110431  9.2871e-001  4.4255e-001  4.2726e-001 19511 110301,110353,110327
 4.5000e+000 110957  1.2912e-001  1.1288e+000 -6.9211e-001 19107 110683,110735,110709
 4.5000e+000 110934  3.5760e-002 -2.7364e-001 -1.0052e+000 19107 110683,110813,110735
 4.5000e+000 110911  3.8846e-001  6.4007e-001 -9.0873e-001 19107 110735,110813,110761
 4.5000e+000 110888 -7.4189e-001 -7.0867e-001 -7.8708e-001 19107 110683,110839,110813
 4.5000e+000 110865  1.5183e-001  8.9623e-002 -8.9136e-001 19107 110761,110813,110787
 4.5000e+000 111335 -2.8024e-001 -3.2955e-001 -1.4617e-001 18653 111087,111165,111139
 4.5000e+000 111312 -9.7384e-002 -1.4704e-001 -2.2013e-001 18653 111087,111217,111165
 4.5000e+000 111289 -2.3976e-001 -2.3351e-001 -4.5846e-002 18653 111061,111217,111087
 4.5000e+000 111266 -1.9893e-001 -1.6401e-001 -1.1974e-001 18653 111087,111139,111113
 4.5000e+000 111243 -9.9832e-002 -1.9468e-001 -1.6198e-001 18653 111165,111217,111191
 4.5000e+000 111735 -1.1614e+000 -4.0465e-001 -4.2942e-002 18213 111461,111513,111487
 4.5000e+000 111712 -1.2803e+000 -8.2372e-001  1.5818e-002 18213 111461,111617,111513
 4.5000e+000 111689 -1.2221e+000 -7.3036e-001 -1.6365e-001 18213 111513,111617,111591
 4.5000e+000 111666 -5.5905e-001 -3.4532e-001  7.4999e-002 18213 111513,111591,111539
 4.5000e+000 111643 -3.1209e-001 -3.8120e-001  4.9438e-003 18213 111539,111591,111565
 4.5000e+000 111885  6.0602e-001 -3.6779e-001  2.4653e-001 17659 111784,111836,111810
 4.5000e+000 111862  1.4015e+000  4.0086e-001  5.7695e-001 17659 111758,111836,111784
 4.5000e+000 112287 -4.0636e-002  6.3635e-001 -3.4132e-001 17411 112065,112169,112143
 4.5000e+000 112264 -1.8002e+000  7.2837e-002  2.1556e-001 17411 112039,112169,112065
 4.5000e+000 112241 -1.9640e+000  1.3556e-001 -2.3403e-001 17411 112013,112169,112039
 4.5000e+000 112218  3.2034e+000  9.7360e-001 -6.5734e-001 17411 112091,112143,112117
 4.5000e+000 112195 -1.0033e-001 -1.0961e-001  2.3592e-001 17411 112065,112143,112091
 4.5000e+000 112508 -8.0839e-001  4.5441e-001  8.7548e-002 17007 112384,112436,112410
 4.5000e+000 112485 -6.2810e-001  6.2557e-001  1.6141e-001 17007 112332,112436,112384
 4.5000e+000 112462 -7.9761e-001  2.9486e-001  1.0143e-001 17007 112332,112384,112358
 4.5000e+000 112658 -2.0155e+000 -4.4220e-001  3.2767e-001 16553 112557,112609,112583
 4.5000e+000 112635 -2.0438e+000 -2.8319e-001  3.8396e-001 16553 112531,112609,112557
 4.5000e+000 112761 -4.2595e-001  1.6645e+000 -2.8209e-001 16355 112683,112735,112709
 4.5000e+000 112913 -1.2591e+000  6.0206e-001  7.1614e-002 15949 112786,112838,112812
 4.5000e+000 112890 -6.3997e-001  1.6624e+000 -2.2386e-001 15949 112786,112864,112838
 4.5000e+000 113065  1.7421e-001 -1.3445e-001 -6.4086e-002 15609 112938,112990,112964
 4.5000e+000 113042  5.7433e-001  8.1487e-002  2.6157e-002 15609 112938,113016,112990
 4.5000e+000 113420  7.2330e-001  6.6276e-001  2.5080e-001 15284 113247,113325,113299
 4.5000e+000 113397  6.7894e-001  5.5402e-001  1.5093e-001 15284 113195,113325,113247
 4.5000e+000 113374  5.2456e-001  5.2151e-001  9.5745e-002 15284 113195,113247,113221
 4.5000e+000 113351  7.1349e-001  1.1386e+000  2.9766e-001 15284 113247,113299,113273
 4.5000e+000 113521  4.3474e-001 -3.0387e-001  2.4403e-001 202 113443,113495,113469
 5.0000e+000 65564 -5.9315e-002  3.4158e-002  3.9247e-002 65155 65414,65466,65440
 5.0000e+000 65541 -3.3633e-003 -1.3457e-002 -1.8301e-002 65155 65414,65492,65466
 5.0000e+000 65518  1.8230e-002 -1.9898e-002  1.5940e-002 65155 65388,65492,65414
 5.0000e+000 65883 -2.4357e-001  7.8333e-001 -3.5520e-002 64957 65635,65739,65713
 5.0000e+000 65860 -7.7550e-002  1.5779e+000 -2.4168e-002 64957 65635,65765,65739
 5.0000e+000 65837  1.3449e-001  1.6687e+000 -3.5111e-002 64957 65609,65765,65635
 5.0000e+000 65814 -1.6285e-001  1.1402e+000 -4.1001e-001 64957 65635,65713,65687
 5.0000e+000 65791 -6.7305e-002  1.4069e+000 -2.6150e-001 64957 65635,65687,65661
 5.0000e+000 65984 -2.8908e-001  2.9855e-001  2.0475e-001 64781 65906,65958,65932
 5.0000e+000 66232  3.7773e-001  4.6956e-001 -4.1980e-001 64469 66007,66059,66033
 5.0000e+000 66209 -2.9530e-001 -7.6859e-002 -6.5828e-001 64469 66007,66085,66059
 5.0000e+000 66186  8.5191e-002  9.2006e-001 -1.9603e-001 64469 66007,66137,66085
 5.0000e+000 66163 -6.0345e-001  2.7410e-002 -1.0008e+000 64469 66085,66137,66111
 5.0000e+000 66504  1.2199e-002  1.5628e+000 -9.7420e-002 64271 66279,66383,66305
 5.0000e+000 66481 -1.8292e-001  1.5885e+000  5.8545e-002 64271 66279,66409,66383
 5.0000e+000 66458 -2.8209e-001  1.9976e+000 -1.2480e-001 64271 66305,66357,66331
 5.0000e+000 66435  6.3473e-002  1.9691e+000 -1.1908e-001 64271 66305,66383,66357
 5.0000e+000 66705 -3.0061e-002  1.6056e+000 -2.4429e-001 64073 66728,66581,66555
 5.0000e+000 66682  1.8282e-002  1.6432e+000 -2.2753e-001 64073 66728,66555,66529
 5.0000e+000 66659 -6.6664e-001  2.0987e+000  5.9783e-001 64073 66581,66633,66607
 5.0000e+000 66754 -8.4019e-002  1.6480e+000 -2.6017e-001 64073 66633,66581,66728
 5.0000e+000 66777 -4.5943e-002  1.6843e+000 -2.4343e-001 64073 66633,66728,66529
 5.0000e+000 66951  2.4383e-001 -2.7527e-002  3.1222e-001 63783 66824,66876,66850
 5.0000e+000 66928 -8.6232e-001  6.5578e-001 -1.0962e-001 63783 66824,66902,66876
 5.0000e+000 67201  6.1521e-001  1.8110e+000 -1.1360e-001 63585 66976,67080,67054
 5.0000e+000 67178  2.8812e-001  1.6805e+000 -2.0364e-001 63585 66976,67106,67080
 5.0000e+000 67155  3.2514e-001  8.5775e-001 -1.9411e-002 63585 66976,67054,67028
 5.0000e+000 67132  4.7759e-001  1.1013e+000  3.0182e-001 63585 66976,67028,67002
 5.0000e+000 67654 -1.7146e-001  1.1159e+000  4.4380e-002 63295 67357,67487,67383
 5.0000e+000 67631 -2.1263e-001  1.5709e+000 -3.2111e-001 63295 67331,67487,67357
 5.0000e+000 67608  8.1747e-002  2.0409e+000  7.9428e-002 63295 67331,67513,67487
 5.0000e+000 67585 -2.4152e-002  2.1327e+000 -8.0301e-002 63295 67435,67487,67461
 5.0000e+000 67562  8.4859e-002  2.0590e+000  4.4573e-002 63295 67383,67487,67435
 5.0000e+000 67539  7.5740e-004  1.5949e+000 -7.8748e-002 63295 67383,67435,67409
 5.0000e+000 67853 -2.4792e-002  1.3474e+000 -3.4566e-002 62891 67876,67703,67677
 5.0000e+000 67830  5.6254e-002  1.7470e+000 -7.6706e-003 62891 67876,67677,67781
 5.0000e+000 67807 -2.2008e-001  1.0817e+000 -1.2460e-001 62891 67948,67729,67703
 5.0000e+000 67902 -3.7224e-002  1.2615e+000 -2.2368e-001 62891 67948,67703,67876
 5.0000e+000 67925  3.4780e-001  1.4201e+000 -2.5135e-001 62891 67755,67876,67781
 5.0000e+000 67974  6.7859e-002  8.6489e-001 -7.8692e-002 62891 67755,67729,67948
 5.0000e+000 67997  1.1727e-001  9.4664e-001 -1.4055e-001 62891 67755,67948,67876
 5.0000e+000 68218  2.4929e-002 -5.5084e-002 -3.6389e-002 62693 68042,68120,68068
 5.0000e+000 68195 -1.7947e-003 -4.7413e-002  6.6330e-003 62693 68042,68146,68120
 5.0000e+000 68172 -8.4569e-002  5.0067e-002 -2.5239e-002 62693 68068,68120,68094
 5.0000e+000 68468  9.5189e-002 -3.5310e-004 -1.1319e-002 62289 68491,68295,68269
 5.0000e+000 68445  2.2838e-002 -2.2009e-002 -3.0283e-002 62289 68563,68491,68269
 5.0000e+000 68422  1.2079e-002  1.5057e-002 -4.2518e-004 62289 68563,68269,68243
 5.0000e+000 68399 -1.0285e-001 -1.2665e-001 -9.6251e-002 62289 68295,68347,68321
 5.0000e+000 68517  5.3533e-002 -9.9435e-003 -4.0062e-002 62289 68347,68295,68491
 5.0000e+000 68540 -3.5220e-002  1.7007e-003 -6.2084e-002 62289 68347,68491,68373
 5.0000e+000 68589  5.0924e-002  5.2252e-002 -3.5778e-002 62289 68373,68491,68563
 5.0000e+000 68612  2.5293e-002  6.3808e-002 -4.0475e-003 62289 68373,68563,68243
 5.0000e+000 68911  5.4489e-002  1.2301e+000 -4.6856e-002 62091 69222,68934,68741
 5.0000e+000 68888 -2.9440e-001  1.3487e+000 -5.6314e-002 62091 69006,68934,68689
 5.0000e+000 68865 -4.6654e-001  1.1589e+000 -2.4096e-001 62091 69006,68689,68663
 5.0000e+000 68842  2.4289e-001  1.6227e+000  2.5859e-001 62091 69078,68793,68767
 5.0000e+000 68819  6.8834e-002  1.2438e+000 -1.1139e-001 62091 69222,68741,68715
 5.0000e+000 68960  2.7383e-001  1.4474e+000 -1.3626e-001 62091 68767,68741,68934
 5.0000e+000 68983  1.1515e-001  1.7192e+000  6.2182e-002 62091 69078,68767,68934
 5.0000e+000 69032 -2.2159e-001  1.5346e+000 -1.3311e-002 62091 69150,69006,68637
 5.0000e+000 69055 -2.3372e-001  1.4542e+000 -7.3966e-002 62091 68637,69006,68663
 5.0000e+000 69104  1.5466e-001  1.4160e+000  7.5596e-003 62091 68637,68793,69078
 5.0000e+000 69127 -1.9675e-001  1.5151e+000 -2.6801e-002 62091 69150,68637,69078
 5.0000e+000 69176 -1.1569e-001  1.3605e+000  4.0701e-003 62091 68934,69006,69150
 5.0000e+000 69199  2.4480e-002  1.4732e+000 -5.6643e-002 62091 68934,69150,69078
 5.0000e+000 69248  2.5394e-002  1.1558e+000 -5.2187e-002 62091 68689,68934,69222
 5.0000e+000 69271  3.5028e-002  1.1358e+000 -9.6447e-002 62091 68689,69222,68715
 5.0000e+000 69521 -2.1890e-001  7.1739e-002 -2.0505e-002 61893 69544,69348,69296
 5.0000e+000 69498 -7.0138e-002  9.9128e-002  6.1107e-003 61893 69544,69296,69400
 5.0000e+000 69475  2.7981e-002  1.0095e-001 -1.2729e-002 61893 69296,69426,69400
 5.0000e+000 69452  6.4685e-002 -5.7002e-002 -2.2295e-001 61893 69296,69348,69322
 5.0000e+000 69570 -1.4062e-001  5.1461e-003  9.5327e-002 61893 69374,69348,69544
 5.0000e+000 69593  1.2197e-001  9.6427e-002  1.1455e-001 61893 69374,69544,69400
 5.0000e+000 70046 -1.1373e-001  1.2940e+000 -2.9409e-002 61467 69749,69905,69879
 5.0000e+000 70023 -1.3960e-001  1.0663e+000 -3.0757e-001 61467 69723,69905,69749
 5.0000e+000 70000 -1.8239e-001  1.1772e+000 -2.3284e-004 61467 70069,69827,69775
 5.0000e+000 69977  1.7142e-001  1.9927e+000 -2.8161e-001 61467 70069,69775,69749
 5.0000e+000 69954  2.5921e-002  5.7203e-001 -1.0946e-003 61467 70141,69853,69827
 5.0000e+000 69931 -3.2387e-001  1.2699e+000  3.9656e-001 61467 69775,69827,69801
 5.0000e+000 70095 -8.5765e-002  7.3731e-001  1.0553e-001 61467 70141,69827,70069
 5.0000e+000 70118 -1.2950e-001  1.1863e+000 -8.3775e-003 61467 69879,70069,69749
 5.0000e+000 70167 -9.8884e-002  8.2578e-001 -9.3435e-003 61467 69879,69853,70141
 5.0000e+000 70190 -3.4908e-002  1.2176e+000  1.0127e-001 61467 69879,70141,70069
 5.0000e+000 70291  1.7142e-001  2.1500e+000  2.2376e-001 61013 70213,70265,70239
 5.0000e+000 70441 -4.3785e-002  1.1113e-001  5.2581e-002 60651 70340,70392,70366
 5.0000e+000 70418 -8.5359e-002  2.3496e-002  3.9699e-002 60651 70314,70392,70340
 5.0000e+000 70642 -9.0841e-002  1.1739e+000  3.1356e-001 60311 70665,70492,70466
 5.0000e+000 70619  8.4883e-002  1.5902e+000  3.1647e-001 60311 70665,70466,70570
 5.0000e+000 70596 -3.5950e-001  4.0550e-001  3.7286e-002 60311 70492,70544,70518
 5.0000e+000 70691 -7.0490e-003  7.6554e-001 -1.2476e-001 60311 70544,70492,70665
 5.0000e+000 70714  2.6748e-001  1.4061e+000 -1.3463e-001 60311 70544,70665,70570
 5.0000e+000 70964 -2.8436e-001  9.3279e-001  4.5282e-002 59907 70987,70765,70739
 5.0000e+000 70941 -6.0513e-002  1.4438e+000 -5.0112e-002 59907 71059,70987,70739
 5.0000e+000 70918  9.0977e-002  2.1883e+000 -1.3560e-001 59907 71059,70739,70869
 5.0000e+000 70895  2.4828e-002  1.4643e+000 -1.0105e-001 59907 70817,70869,70843
 5.0000e+000 71013 -1.1852e-001  9.6456e-001 -2.4040e-001 59907 70791,70765,70987
 5.0000e+000 71036 -4.3151e-002  9.6228e-001 -2.0366e-001 59907 70791,70987,70817
 5.0000e+000 71085  1.0634e-001  9.4631e-001 -1.6771e-001 59907 70817,70987,71059
 5.0000e+000 71108 -3.9373e-002  1.2725e+000 -1.2074e-001 59907 70817,71059,70869
 5.0000e+000 71441  5.2764e-001  7.3710e-001 -1.1617e+000 59417 71464,71242,71216
 5.0000e+000 71418  9.1225e-001  1.0497e+000  1.1746e-001 59417 71464,71216,71320
 5.0000e+000 71395  4.4923e-001  1.2415e+000  2.9110e-001 59417 71216,71346,71320
 5.0000e+000 71372 -1.5950e+000  1.9710e-001 -1.7004e-001 59417 71268,71320,71294
 5.0000e+000 71490 -3.3013e-001  3.9756e-001 -1.3762e+000 59417 71268,71242,71464
 5.0000e+000 71513 -9.1745e-001  4.0393e-001 -1.6382e-002 59417 71268,71464,71320
 5.0000e+000 71712 -1.9201e-003  1.2470e+000 -2.0802e-001 58913 71562,71614,71588
 5.0000e+000 71689  9.5622e-001  1.1305e+000 -5.7777e-001 58913 71536,71614,71562
 5.0000e+000 71666  6.7268e-001  9.0751e-001 -4.7965e-001 58913 71536,71640,71614
 5.0000e+000 72171  7.0498e-001  1.6230e+000 -3.4315e-001 58409 72194,72027,72001
 5.0000e+000 72148  5.4906e-001  9.2089e-001 -4.2283e-001 58409 72194,72001,71949
 5.0000e+000 72125  2.1352e-001  1.2614e+000 -4.0810e-001 58409 71923,72053,71949
 5.0000e+000 72102  3.4199e-002  6.1060e-001 -2.5865e-001 58409 71949,72001,71975
 5.0000e+000 72079  4.8814e-001  1.3053e+000 -4.5960e-001 58409 71897,72053,71923
 5.0000e+000 72220  6.2877e-001  1.7425e+000  3.5353e-003 58409 72053,72027,72194
 5.0000e+000 72243  6.0707e-001  1.3932e+000 -1.3751e-001 58409 72053,72194,71949
 5.0000e+000 72491 -2.0340e+000 -8.4797e-001 -1.3394e+000 57855 72514,72318,72292
 5.0000e+000 72468  1.1807e+000  4.6647e-001 -1.4648e+000 57855 72514,72292,72266
 5.0000e+000 72445 -1.1524e+000  1.4386e-001  3.1999e-002 57855 72318,72396,72370
 5.0000e+000 72422 -3.1092e+000  9.8428e-001 -9.8805e-001 57855 72318,72370,72344
 5.0000e+000 72540 -2.3355e+000 -3.7373e-001 -8.6744e-001 57855 72396,72318,72514
 5.0000e+000 72563 -2.0291e+000 -3.5124e-001 -8.9515e-001 57855 72396,72514,72266
 5.0000e+000 72811  1.0492e+000  2.3405e-001 -6.5060e-001 57401 72612,72690,72638
 5.0000e+000 72788  1.7503e-001 -1.2010e-001  4.8274e-002 57401 72586,72690,72612
 5.0000e+000 72765 -6.2449e-001 -8.9192e-001 -1.1389e+000 57401 72638,72690,72664
 5.0000e+000 72742  2.5134e-001  1.0098e+000 -2.3944e-001 57401 72586,72716,72690
 5.0000e+000 73144  1.2398e-001  7.5783e-001 -1.8331e-001 57004 72919,72997,72945
 5.0000e+000 73121  1.8996e-001  1.5388e+000 -3.9199e-001 57004 72919,73049,72997
 5.0000e+000 73098  9.9746e-002  1.0125e+000 -3.6291e-001 57004 72945,72997,72971
 5.0000e+000 73075  2.9021e-001  1.8757e+000 -4.5833e-001 57004 72997,73049,73023
 5.0000e+000 73650 -1.3638e+000  1.8029e+000 -1.2211e+000 56592 73673,73379,73353
 5.0000e+000 73627  1.9055e+000  2.4142e+000 -1.9679e+000 56592 73673,73353,73327
 5.0000e+000 73604  8.0887e-002  1.6242e+000 -5.7752e-001 56592 73745,73509,73483
 5.0000e+000 73581 -2.4853e+000 -5.9742e-001 -3.7411e-001 56592 73379,73457,73405
 5.0000e+000 73558  3.6721e-001  3.2731e-001  1.1485e-001 56592 73379,73483,73457
 5.0000e+000 73535  2.2657e+000  5.2519e-001 -1.1846e-001 56592 73405,73457,73431
 5.0000e+000 73699 -1.1066e+000  1.2236e+000  2.7972e-001 56592 73483,73379,73673
 5.0000e+000 73722 -6.1934e-002  1.9177e+000 -6.7223e-001 56592 73745,73483,73673
 5.0000e+000 73771 -4.2233e-002  1.2751e+000 -6.0219e-001 56592 73327,73509,73745
 5.0000e+000 73794 -2.2483e-001  1.5106e+000 -7.4160e-001 56592 73327,73745,73673
 5.0000e+000 74123  1.2873e+000  9.0069e-001 -2.0690e-001 56152 74146,74002,73924
 5.0000e+000 74100  1.1158e+000  7.0805e-001 -4.9803e-002 56152 74146,73924,73898
 5.0000e+000 74077  1.4840e+000  1.1663e+000 -3.0871e-001 56152 73924,74002,73976
 5.0000e+000 74054  1.0862e+000  2.5535e-001  1.4490e-001 56152 73924,73976,73950
 5.0000e+000 74172  1.6727e+000  1.1927e+000 -3.9808e-001 56152 74028,74002,74146
 5.0000e+000 74195  1.3145e+000  8.1356e-001 -1.9634e-001 56152 74028,74146,73898
 5.0000e+000 74345 -1.0444e+000  1.5271e-001  4.2632e-001 55634 74218,74270,74244
 5.0000e+000 74322 -8.7313e-002  1.0478e-001  1.8582e-001 55634 74218,74296,74270
 5.0000e+000 74823  4.6385e-001 -1.2669e+000  4.8299e-001 55016 74918,74846,74581
 5.0000e+000 74800 -7.2072e-002  1.7216e-001  2.6796e-001 55016 74846,74477,74633
 5.0000e+000 74777 -3.9936e-001 -2.1896e+000  8.4700e-001 55016 74918,74581,74555
 5.0000e+000 74754 -8.2070e-001 -1.2599e+000  9.2119e-001 55016 74990,74503,74477
 5.0000e+000 74731 -1.4501e+000 -6.2829e-002  7.2513e-001 55016 74451,74633,74477
 5.0000e+000 74708 -1.5392e+000  1.0170e+000  3.2708e-001 55016 74451,74659,74633
 5.0000e+000 74685 -1.8953e+000 -2.3943e+000  1.7083e+000 55016 74503,74555,74529
 5.0000e+000 74872  4.3530e-001 -1.3983e+000  3.8697e-001 55016 74607,74581,74846
 5.0000e+000 74895 -2.2063e-002 -1.0659e+000  2.9682e-001 55016 74607,74846,74633
 5.0000e+000 74944 -7.8626e-001 -1.1490e+000  7.5102e-001 55016 74477,74846,74918
 5.0000e+000 74967 -8.8132e-001 -1.2500e+000  8.2948e-001 55016 74990,74477,74918
 5.0000e+000 75016 -6.0965e-001 -1.1651e+000  9.8562e-001 55016 74555,74503,74990
 5.0000e+000 75039 -6.8441e-001 -1.1945e+000  8.7948e-001 55016 74555,74990,74918
 5.0000e+000 75287 -2.0050e+000 -3.3463e+000 -6.4191e-002 54726 75310,75140,75114
 5.0000e+000 75264 -2.5226e+000 -2.1048e+000 -3.8001e-001 54726 75310,75114,75088
 5.0000e+000 75241 -2.5175e+000 -1.5839e+000 -1.4169e+000 54726 75088,75192,75166
 5.0000e+000 75218 -4.0987e+000  8.5099e-002 -1.2243e+000 54726 75062,75192,75088
 5.0000e+000 75336 -1.3601e+000 -2.6395e+000 -8.0207e-001 54726 75166,75140,75310
 5.0000e+000 75359 -2.3822e+000 -1.4125e+000 -8.1398e-001 54726 75166,75310,75088
 5.0000e+000 75946 -1.7055e-001  2.7680e-002  1.6211e-001 54322 75969,75701,75649
 5.0000e+000 75923 -5.9475e-001 -2.6593e-001  2.9254e-001 54322 75969,75649,75623
 5.0000e+000 75900 -3.4316e-001 -1.7790e-001 -6.1566e-002 54322 76041,75753,75701
 5.0000e+000 75877 -1.9282e-001  6.5273e-001  4.7207e-003 54322 75623,75805,75779
 5.0000e+000 75854 -4.4249e-001 -1.6910e-001 -1.8792e-001 54322 75701,75753,75727
 5.0000e+000 75831 -2.1079e-001 -1.6515e-001 -8.2544e-003 54322 75649,75701,75675
 5.0000e+000 75995 -4.7338e-001 -9.7152e-002  5.5512e-002 54322 76041,75701,75969
 5.0000e+000 76018 -4.4981e-001  1.1578e-001  1.4896e-001 54322 75779,75969,75623
 5.0000e+000 76067 -2.8563e-001  3.7443e-002 -1.0699e-001 54322 75779,75753,76041
 5.0000e+000 76090 -3.6491e-001  1.9558e-001  1.2877e-002 54322 75779,76041,75969
 5.0000e+000 76468 -7.8389e-002  1.6879e-001 -2.8412e-002 53868 76491,76272,76220
 5.0000e+000 76445 -7.3148e-002  1.8883e-001 -4.6803e-002 53868 76491,76220,76324
 5.0000e+000 76422  2.7206e-002  1.1248e-001 -9.9095e-002 53868 76220,76272,76246
 5.0000e+000 76399 -1.0160e-001  5.1815e-001  1.0904e-001 53868 76194,76324,76220
 5.0000e+000 76376 -6.0323e-001  3.1361e-001  1.0523e-002 53868 76194,76350,76324
 5.0000e+000 76517 -8.0990e-002  1.3925e-001 -1.6042e-002 53868 76298,76272,76491
 5.0000e+000 76540 -7.1022e-002  1.6549e-001 -3.4743e-002 53868 76298,76491,76324
 5.0000e+000 76690 -5.5164e-002  2.2976e-001 -4.0663e-002 53356 76589,76641,76615
 5.0000e+000 76667  5.7253e-002  7.1640e-001  1.0278e-002 53356 76563,76641,76589
 5.0000e+000 76938 -5.1885e-001  2.4682e-001 -6.8544e-001 53009 77105,76961,76765
 5.0000e+000 76915  3.4984e-002  4.9465e-001 -3.7523e-001 53009 76961,76713,76843
 5.0000e+000 76892 -3.2076e-001  3.8959e-001 -1.7027e-001 53009 77033,76817,76791
 5.0000e+000 76869 -1.1359e+000 -1.6037e-001 -1.2927e+000 53009 77105,76765,76739
 5.0000e+000 76987 -1.7705e-001  9.6057e-001 -4.9216e-001 53009 76791,76765,76961
 5.0000e+000 77010 -3.7015e-001  4.2500e-001 -4.0100e-001 53009 77033,76791,76961
 5.0000e+000 77059  2.9206e-002  5.4145e-001 -1.8642e-001 53009 76843,76817,77033
 5.0000e+000 77082 -4.0088e-002  5.6428e-001 -3.9906e-001 53009 76843,77033,76961
 5.0000e+000 77131  1.5297e-001  6.6100e-001 -4.2789e-001 53009 76713,76961,77105
 5.0000e+000 77154  5.2183e-002  6.1749e-001 -9.3730e-001 53009 76713,77105,76739
 5.0000e+000 77355  1.5744e+000 -2.0178e+000  8.8849e-001 52390 77378,77257,77231
 5.0000e+000 77332  1.1121e+000 -1.4596e+000  5.7649e-001 52390 77378,77231,77179
 5.0000e+000 77309  1.3344e+000 -1.7572e+000  4.8832e-002 52390 77179,77231,77205
 5.0000e+000 77404  2.0341e+000 -1.6606e+000  7.2503e-001 52390 77283,77257,77378
 5.0000e+000 77427  1.5648e+000 -1.0603e+000  4.0604e-001 52390 77283,77378,77179
 5.0000e+000 77677 -2.0055e+000  2.2508e+000 -1.8985e+000 51986 77700,77504,77478
 5.0000e+000 77654  1.1645e-001  3.2054e+000 -2.2144e+000 51986 77700,77478,77452
 5.0000e+000 77631 -1.0269e-001  1.4541e+000 -5.9139e-001 51986 77772,77556,77530
 5.0000e+000 77608 -2.0654e-001  1.3943e+000 -7.6339e-001 51986 77452,77582,77556
 5.0000e+000 77726 -5.2646e-001  2.2851e+000 -7.7924e-001 51986 77530,77504,77700
 5.0000e+000 77749  8.3989e-002  1.8063e+000 -8.9228e-001 51986 77772,77530,77700
 5.0000e+000 77798  3.0765e-001  1.7098e+000 -9.3330e-001 51986 77452,77556,77772
 5.0000e+000 77821  5.2318e-001  1.8059e+000 -1.1908e+000 51986 77452,77772,77700
 5.0000e+000 78282  9.4902e-001  8.6294e-001 -1.1759e-001 51738 78008,78138,78060
 5.0000e+000 78259  2.3837e+000  2.1519e+000 -2.0278e+000 51738 78008,78164,78138
 5.0000e+000 78236  3.7596e-001  7.3094e-002 -1.0422e-001 51738 78086,78138,78112
 5.0000e+000 78213  2.7695e-001  3.7157e-001 -3.3518e-001 51738 78060,78138,78086
 5.0000e+000 78190  1.2780e+000  2.2189e-001 -3.3804e-001 51738 78008,78060,78034
 5.0000e+000 78432 -1.7340e-001 -1.3985e-001  4.9189e-003 51148 78305,78357,78331
 5.0000e+000 78409 -1.5047e-001  6.9904e-002 -2.9796e-002 51148 78305,78383,78357
 5.0000e+000 78891 -3.0425e-001 -2.3469e-001  1.4587e-001 50808 78914,78695,78669
 5.0000e+000 78868 -2.3231e-001 -9.9592e-002  6.5107e-002 50808 78914,78669,78643
 5.0000e+000 78845 -5.6394e-002 -3.3288e-003  3.9246e-002 50808 78643,78773,78747
 5.0000e+000 78822 -5.0679e-002 -4.9306e-002  4.3333e-002 50808 78617,78773,78643
 5.0000e+000 78799 -1.3675e-001  9.2901e-002  1.8678e-001 50808 78695,78747,78721
 5.0000e+000 78940 -1.4548e-001 -1.0635e-001  7.6977e-002 50808 78747,78695,78914
 5.0000e+000 78963 -2.1649e-001 -6.8010e-002  2.3661e-002 50808 78747,78914,78643
 5.0000e+000 79260 -1.9786e-001 -2.6421e-001 -1.8110e-001 50468 79283,79090,79012
 5.0000e+000 79237 -2.0458e-001 -1.6353e-001 -1.6975e-001 50468 79283,79012,78986
 5.0000e+000 79214 -3.7438e-001 -3.3952e-001 -1.7882e-001 50468 79012,79090,79038
 5.0000e+000 79191 -1.2383e-001 -1.7725e-002 -2.2529e-001 50468 78986,79142,79116
 5.0000e+000 79168 -2.2867e-001 -3.4673e-001 -2.4530e-001 50468 79038,79090,79064
 5.0000e+000 79309 -2.3459e-001 -1.9639e-001 -2.0930e-001 50468 79116,79090,79283
 5.0000e+000 79332 -2.2544e-001 -7.4295e-002 -1.8966e-001 50468 79116,79283,78986
 5.0000e+000 79889  1.5049e+000  1.9369e+000 -8.0097e-001 50064 79569,79725,79699
 5.0000e+000 79866  3.1789e-001  1.3041e+000 -1.5958e+000 50064 79543,79725,79569
 5.0000e+000 79843  1.4912e+000  9.5225e-001 -7.5193e-001 50064 79621,79699,79673
 5.0000e+000 79820  1.6273e+000  1.2542e+000 -9.5421e-001 50064 79595,79699,79621
 5.0000e+000 79797  1.0262e+000  1.5196e+000 -1.1740e+000 50064 79569,79699,79595
 5.0000e+000 79774  1.2049e+000  2.9053e+000 -3.6289e-001 50064 79517,79725,79543
 5.0000e+000 79751  6.9306e-001  9.9210e-001 -8.3040e-001 50064 79621,79673,79647
 5.0000e+000 80169  1.5502e+000  2.1098e+000 -9.6984e-001 49724 80019,80097,80071
 5.0000e+000 80146  1.2670e+000  3.2826e+000 -1.2686e+000 49724 79993,80097,80019
 5.0000e+000 80123  9.6557e-001  1.9284e+000 -1.1290e+000 49724 80019,80071,80045
 5.0000e+000 80626 -1.0874e+000 -4.4449e-001 -2.4874e-001 49277 80352,80482,80378
 5.0000e+000 80603 -7.1843e-001 -3.4124e-001  6.9761e-002 49277 80352,80508,80482
 5.0000e+000 80580 -8.5408e-001 -3.3196e-001 -1.7662e-001 49277 80378,80482,80456
 5.0000e+000 80557 -1.0721e+000 -8.1178e-001 -1.7561e-001 49277 80378,80430,80404
 5.0000e+000 80534 -1.4260e+000 -5.6377e-001 -1.2866e-001 49277 80378,80456,80430
 5.0000e+000 81230 -2.0659e+000 -1.0463e+000  7.8528e-001 48716 81253,80835,80809
 5.0000e+000 81207 -1.3262e+000  2.1248e-003 -4.2143e-001 48716 81397,81253,80809
 5.0000e+000 81184 -1.0905e+000  1.1452e+000 -5.0298e-001 48716 81325,80913,80887
 5.0000e+000 81161 -8.5055e-001 -8.6145e-001 -3.5864e-001 48716 81397,80809,81017
 5.0000e+000 81138 -1.6674e+000  7.0509e-001 -8.4127e-001 48716 81469,80965,80913
 5.0000e+000 81115 -8.0967e-001  1.1094e-001  1.0218e+000 48716 80835,80887,80861
 5.0000e+000 81092  4.2842e-001 -1.6324e+000  1.7296e+000 48716 80809,81043,81017
 5.0000e+000 81069 -1.8001e+000 -8.5443e-001 -1.9031e+000 48716 80913,80965,80939
 5.0000e+000 81279  5.7237e-001  4.8708e-001  1.1520e-001 48716 80887,80835,81253
 5.0000e+000 81302 -1.6433e+000  8.5318e-001 -6.7901e-001 48716 81325,80887,81253
 5.0000e+000 81351 -1.2860e+000  8.1147e-001 -6.8753e-001 48716 81469,80913,81325
 5.0000e+000 81374 -1.4962e+000  1.4236e+000 -6.4186e-001 48716 80991,81325,81253
 5.0000e+000 81423 -1.1952e+000  1.1504e+000 -1.7770e-004 48716 80991,81253,81397
 5.0000e+000 81446 -8.7210e-001  8.2518e-002  7.8821e-002 48716 80991,81397,81017
 5.0000e+000 81495 -2.3530e+000  9.8424e-001 -9.6103e-001 48716 80991,80965,81469
 5.0000e+000 81518 -2.0598e+000  1.0055e+000 -8.2581e-001 48716 80991,81469,81325
 5.0000e+000 81717 -9.4499e-002 -3.3725e-003 -6.7702e-002 48262 81740,81567,81541
 5.0000e+000 81694  1.3399e-002  5.9453e-002 -9.6052e-002 48262 81740,81541,81645
 5.0000e+000 81671 -1.0248e-001 -2.3127e-001 -6.0638e-002 48262 81567,81619,81593
 5.0000e+000 81766 -3.3778e-002 -5.7565e-002  7.7529e-003 48262 81619,81567,81740
 5.0000e+000 81789  6.5026e-002 -6.6239e-003 -1.6461e-002 48262 81619,81740,81645
 5.0000e+000 81939  1.5405e+000  2.6879e+000 -5.1697e-001 47957 82034,81962,81864
 5.0000e+000 81916  4.4969e-001  2.0130e+000 -7.2884e-001 47957 82166,81962,81838
 5.0000e+000 81988  1.9065e+000  2.4099e+000  3.4739e-001 47957 82294,81962,81890
 5.0000e+000 82011  1.4392e+000  2.1455e+000  1.0176e-002 47957 81890,81962,81812
 5.0000e+000 82060  1.5314e+000  2.9927e+000 -3.0626e-001 47957 81838,81962,82034
 5.0000e+000 82192 -2.0810e-002  1.9255e+000  4.5143e-001 47957 81812,81962,82166
 5.0000e+000 82320  2.5798e+000  2.2755e+000  1.2924e-002 47957 81864,81962,82294
 5.0000e+000 82549 -2.1405e-001 -1.6994e-001 -1.3317e-001 47617 82448,82500,82474
 5.0000e+000 82526  3.4400e-002  3.6291e-001 -3.7898e-002 47617 82422,82500,82448
 5.0000e+000 82902  5.1224e-001  3.1033e-001 -1.8874e-001 47255 82729,82807,82755
 5.0000e+000 82879  1.1112e+000  1.0684e+000  8.9372e-002 47255 82703,82807,82729
 5.0000e+000 82856  3.7068e-001  2.0664e-001 -6.6772e-002 47255 82755,82807,82781
 5.0000e+000 82833  1.5320e+000  1.2487e+000  1.3173e-001 47255 82677,82807,82703
 5.0000e+000 83182  1.3116e-001 -8.3833e-001  3.7696e-001 46680 83032,83084,83058
 5.0000e+000 83159  5.3485e-001 -4.8494e-001  5.9658e-001 46680 83205,83084,83032
 5.0000e+000 83136 -4.5980e-001  1.9428e-002  4.7295e-001 46680 83006,83110,83084
 5.0000e+000 83231  9.9211e-001 -4.7374e-002  8.2836e-001 46680 83006,83084,83205
 5.0000e+000 83737 -1.8438e+000 -5.5588e-001  3.2455e-001 46290 83832,83760,83492
 5.0000e+000 83714 -1.8481e+000 -2.6663e-001  2.6850e-001 46290 83760,83440,83414
 5.0000e+000 83691 -1.4199e+000 -8.2156e-001  2.4724e-001 46290 83832,83492,83466
 5.0000e+000 83668 -1.5225e+000 -1.4117e+000  4.7990e-001 46290 83492,83570,83544
 5.0000e+000 83645 -2.3958e+000 -7.7101e-001  4.8873e-002 46290 83414,83596,83570
 5.0000e+000 83622 -1.3837e+000 -1.0185e+000  7.4330e-001 46290 83492,83544,83518
 5.0000e+000 83786 -1.7570e+000 -5.1116e-001  2.4777e-001 46290 83570,83492,83760
 5.0000e+000 83809 -1.8423e+000 -6.7945e-001  6.7238e-002 46290 83570,83760,83414
 5.0000e+000 83858 -1.3037e+000 -2.2798e-001  4.8024e-001 46290 83440,83760,83832
 5.0000e+000 83881 -5.7252e-001 -4.5578e-001  3.2272e-001 46290 83440,83832,83466
 5.0000e+000 84161  2.3530e-003 -5.4060e-001  1.6074e-002 45829 84011,84063,84037
 5.0000e+000 84138 -2.4844e-001 -5.2557e-001 -7.1343e-002 45829 84011,84089,84063
 5.0000e+000 84115 -3.0348e-002 -4.2803e-001  9.2141e-003 45829 83985,84089,84011
 5.0000e+000 84311  9.1654e-001  1.0782e+000  1.5205e-001 45631 84184,84236,84210
 5.0000e+000 84288  5.8838e-001 -3.1023e-002 -3.4870e-002 45631 84184,84262,84236
 5.0000e+000 84657 -1.9593e-001 -2.9946e-001 -6.9320e-002 45155 84680,84490,84412
 5.0000e+000 84634 -2.4650e-001 -2.0131e-001 -3.2024e-002 45155 84680,84412,84360
 5.0000e+000 84611 -3.3034e-001 -3.9590e-001  4.4820e-002 45155 84412,84490,84438
 5.0000e+000 84588 -3.4275e-002 -9.6079e-003 -6.5425e-002 45155 84334,84516,84360
 5.0000e+000 84565 -2.0019e-001 -6.7294e-002 -3.4217e-001 45155 84360,84412,84386
 5.0000e+000 84542 -2.8965e-001 -4.3089e-001  1.9575e-002 45155 84438,84490,84464
 5.0000e+000 84706 -2.0040e-001 -2.0529e-001 -8.9625e-002 45155 84516,84490,84680
 5.0000e+000 84729 -2.4191e-001 -9.8299e-002 -6.6897e-002 45155 84516,84680,84360
 5.0000e+000 85077 -7.9813e-002 -4.7004e-001 -2.3503e-001 44508 85100,84754,84910
 5.0000e+000 85054 -1.6789e-001  1.4125e-002 -8.5092e-002 44508 84754,84936,84910
 5.0000e+000 85031 -4.8760e-001 -8.3862e-001  8.9312e-002 44508 85100,84910,84884
 5.0000e+000 85008 -3.9343e-001 -7.0972e-002 -4.2882e-001 44508 84780,84884,84832
 5.0000e+000 84985 -4.3315e-001 -1.6822e-001 -4.3341e-001 44508 84780,84832,84806
 5.0000e+000 84962 -1.1291e+000 -8.3424e-001 -6.3878e-002 44508 84832,84884,84858
 5.0000e+000 85126 -4.1324e-001  6.6532e-002 -5.3332e-001 44508 84780,84754,85100
 5.0000e+000 85149 -7.2266e-001 -2.9560e-001 -2.3807e-001 44508 84780,85100,84884
 5.0000e+000 85482  1.0026e-001 -1.0520e-001 -1.0584e-001 44104 85335,85387,85361
 5.0000e+000 85459  4.3025e-002 -3.7770e-001 -4.8791e-002 44104 85309,85387,85335
 5.0000e+000 85436 -2.0138e-002 -2.7497e-001 -1.5229e-001 44104 85257,85387,85309
 5.0000e+000 85413 -1.1007e-001 -1.3842e-001 -2.1858e-002 44104 85257,85309,85283
 5.0000e+000 85811 -2.7636e-001 -3.5043e-001 -1.5113e-001 43600 85586,85664,85612
 5.0000e+000 85788 -2.3881e-001 -8.8623e-002 -1.0273e-001 43600 85586,85690,85664
 5.0000e+000 85765 -1.2076e-001  1.3386e-001 -2.0880e-001 43600 85586,85716,85690
 5.0000e+000 85742 -3.1095e-001 -2.9273e-001 -2.7071e-001 43600 85612,85664,85638
 5.0000e+000 86010  2.2510e-001  5.6780e-002 -2.0212e-001 43224 85886,85938,85912
 5.0000e+000 85987  2.3694e-001  2.8065e-002 -1.7358e-001 43224 85834,85938,85886
 5.0000e+000 85964  1.9742e-001 -7.2668e-001 -1.2997e-001 43224 85834,85886,85860
 5.0000e+000 86420  2.5784e+000  1.0792e+000 -5.7337e-002 42820 86195,86299,86221
 5.0000e+000 86397  2.4614e+000  2.1882e+000 -8.6301e-001 42820 86195,86325,86299
 5.0000e+000 86374  1.6567e+000  1.2660e+000  3.6902e-001 42820 86221,86299,86273
 5.0000e+000 86351  1.2278e+000  9.3570e-001 -7.8712e-002 42820 86221,86273,86247
 5.0000e+000 86749  4.8513e-001 -5.2185e-001 -1.7454e-001 42223 86550,86602,86576
 5.0000e+000 86726  2.1323e+000 -1.1673e+000  1.2478e-001 42223 86550,86628,86602
 5.0000e+000 86703  5.7462e-001 -1.6145e+000  9.0792e-001 42223 86524,86628,86550
 5.0000e+000 86680  1.5493e+000  5.4685e-001  6.3438e-001 42223 86524,86654,86628
 5.0000e+000 87078  6.7371e-001 -2.8562e-001  2.5734e-001 41883 87173,87101,86905
 5.0000e+000 87055  5.0094e-001  8.2893e-001  9.2690e-002 41883 87101,86879,86853
 5.0000e+000 87032  1.0553e-001  1.3391e-001 -6.8412e-002 41883 86853,86983,86931
 5.0000e+000 87009  1.4227e-001  3.7694e-001 -1.8054e-001 41883 86931,86983,86957
 5.0000e+000 87127  1.0622e+000  3.4204e-001 -1.7666e-001 41883 86931,86905,87101
 5.0000e+000 87150  1.0746e-001 -7.5206e-002 -6.9620e-002 41883 86931,87101,86853
 5.0000e+000 87199  2.1955e-001  1.0405e-001  3.5501e-001 41883 86879,87101,87173
 5.0000e+000 87558  1.5207e-002  7.3435e-001 -2.4447e-001 41471 87382,87460,87408
 5.0000e+000 87535 -1.2139e+000  7.2848e-001 -1.4234e-001 41471 87382,87486,87460
 5.0000e+000 87512  3.7330e-001 -2.8259e-003 -5.6789e-002 41471 87408,87460,87434
 5.0000e+000 87806  1.3042e-001  8.4791e-002 -4.6012e-001 41017 87829,87607,87581
 5.0000e+000 87783  1.1762e-001 -2.2870e-001 -1.0098e-001 41017 87829,87581,87685
 5.0000e+000 87760  4.4804e-001 -4.2673e-002 -2.1206e-001 41017 87581,87711,87685
 5.0000e+000 87737  2.6754e-001 -8.0044e-001 -2.8610e-002 41017 87633,87685,87659
 5.0000e+000 87855 -9.3049e-002 -9.7533e-002 -2.4763e-001 41017 87633,87607,87829
 5.0000e+000 87878 -1.8545e-001 -4.5266e-001  1.2149e-001 41017 87633,87829,87685
 5.0000e+000 88258  3.3882e-002  4.7806e-002 -8.4853e-003 40613 88281,88036,88010
 5.0000e+000 88235  9.2253e-003  4.0103e-002  1.7151e-003 40613 88281,88010,88088
 5.0000e+000 88212 -4.0823e-003  2.1796e-002  1.2586e-002 40613 87984,88088,88010
 5.0000e+000 88189 -1.1515e-002 -3.9041e-004  3.0479e-002 40613 87984,88114,88088
 5.0000e+000 88166  2.3953e-003  1.1796e-002  2.5062e-002 40613 87984,88140,88114
 5.0000e+000 88307  1.1631e-002  5.6995e-002  3.5430e-003 40613 88062,88036,88281
 5.0000e+000 88330 -2.6384e-002  3.2175e-002  1.8855e-002 40613 88062,88281,88088
 5.0000e+000 88649 -1.2198e-002  8.5217e-002  4.3612e-003 40095 88375,88505,88401
 5.0000e+000 88626  8.9588e-003  4.9529e-002  2.3178e-002 40095 88375,88531,88505
 5.0000e+000 88603  3.3185e-004  1.0292e-001  1.3089e-002 40095 88401,88505,88479
 5.0000e+000 88580 -6.8726e-002  6.2316e-001  3.0638e-001 40095 88427,88479,88453
 5.0000e+000 88557  1.0034e-002  1.3436e-001  6.9397e-003 40095 88401,88479,88427
 5.0000e+000 89078  7.5455e-001 -1.3605e+000 -7.1331e-001 39897 89101,88833,88807
 5.0000e+000 89055  8.3589e-002 -1.6475e+000 -8.1361e-001 39897 89101,88807,88911
 5.0000e+000 89032 -7.2655e-001 -1.2851e+000 -1.4007e+000 39897 88781,88911,88807
 5.0000e+000 89009 -1.3384e+000 -1.7435e+000 -1.7143e+000 39897 88781,88937,88911
 5.0000e+000 88986  2.7706e+000  2.9278e-001 -5.2693e-001 39897 88833,88885,88859
 5.0000e+000 88963 -1.9136e+000 -1.5427e+000 -2.0611e+000 39897 88755,88937,88781
 5.0000e+000 89127  1.3618e+000 -1.7775e+000 -1.3255e+000 39897 88885,88833,89101
 5.0000e+000 89150  3.1792e-001 -2.2832e+000 -1.5351e+000 39897 88885,89101,88911
 5.0000e+000 89300 -1.6338e+000 -1.5961e+000  6.1338e-001 39607 89453,89323,89199
 5.0000e+000 89277 -2.4126e+000 -1.0086e+000  4.7924e-001 39607 89525,89453,89199
 5.0000e+000 89349 -1.2119e+000 -1.4871e+000 -2.6106e-002 39607 89225,89199,89323
 5.0000e+000 89479 -1.2578e+000 -6.8478e-001  4.2492e-001 39607 89251,89323,89453
 5.0000e+000 89502 -1.2737e+000 -1.0409e-001  1.0970e+000 39607 89251,89453,89173
 5.0000e+000 89551 -1.0448e+000 -6.7358e-001  6.5055e-001 39607 89173,89453,89525
 5.0000e+000 90264 -1.1248e+000 -1.7819e+000 -3.8895e-001 39039 89996,90074,90048
 5.0000e+000 90241 -6.9042e-001 -8.6735e-001 -2.4045e-001 39039 89918,90074,89996
 5.0000e+000 90218 -1.1012e+000 -1.0717e+000 -2.6269e-002 39039 89918,89996,89944
 5.0000e+000 90195 -1.3898e+000 -9.8129e-001  1.6637e-002 39039 89892,90074,89918
 5.0000e+000 90172 -2.1925e-001 -1.7169e+000 -4.4244e-001 39039 89996,90048,90022
 5.0000e+000 90149 -1.9848e+000  7.4067e-001 -1.0158e-001 39039 89892,90100,90074
 5.0000e+000 90126 -1.2783e+000 -1.1416e+000 -1.3918e-001 39039 89944,89996,89970
 5.0000e+000 90770 -4.0002e-001 -4.8322e-001 -7.2061e-002 38635 90473,90603,90577
 5.0000e+000 90747 -2.4729e-001 -4.5010e-001 -9.7555e-003 38635 90447,90603,90473
 5.0000e+000 90724 -3.7577e-001 -6.4552e-001 -8.1063e-002 38635 90499,90577,90551
 5.0000e+000 90701 -3.7378e-001 -6.5335e-001 -6.6652e-002 38635 90473,90577,90499
 5.0000e+000 90678 -2.9292e-001 -8.0268e-001 -8.9669e-002 38635 90499,90551,90525
 5.0000e+000 90655 -3.7665e-001 -3.5518e-001  3.2054e-002 38635 90447,90629,90603
 5.0000e+000 90871 -1.1398e-001 -3.1409e-001 -1.5127e-001 38231 90793,90845,90819
 5.0000e+000 91458  1.9993e-001 -2.2414e-001 -1.0171e-001 37534 91161,91317,91291
 5.0000e+000 91435  5.0377e-002  1.9775e-003  5.9344e-002 37534 91135,91317,91161
 5.0000e+000 91412 -2.2513e-001 -9.8295e-001 -4.8397e-001 37534 91187,91291,91239
 5.0000e+000 91389  2.9112e-002 -1.0030e+000  4.5458e-002 37534 91161,91291,91187
 5.0000e+000 91366  4.5574e-002 -6.0536e-001 -3.4000e-001 37534 91239,91291,91265
 5.0000e+000 91343  7.0900e-001 -9.8185e-001 -8.8517e-001 37534 91187,91239,91213
 5.0000e+000 91915 -6.5524e-001 -6.8182e-001  2.1482e-002 37080 91938,91745,91667
 5.0000e+000 91892 -6.3062e-001 -5.8556e-001  1.4815e-001 37080 91938,91667,91797
 5.0000e+000 91869 -8.6354e-001  1.6879e-001 -1.5053e-001 37080 91641,91797,91667
 5.0000e+000 91846 -7.9583e-001 -7.6628e-001  8.0634e-002 37080 91667,91719,91693
 5.0000e+000 91823 -7.6223e-001 -7.0704e-001  3.3853e-002 37080 91667,91745,91719
 5.0000e+000 91964 -5.6809e-001 -4.6895e-001  2.4423e-002 37080 91771,91745,91938
 5.0000e+000 91987 -6.0840e-001 -5.1497e-001  1.5635e-001 37080 91771,91938,91797
 5.0000e+000 92235 -4.4780e-001 -5.2504e-001 -3.3241e-002 36397 92036,92088,92062
 5.0000e+000 92212 -3.2691e-001 -3.8997e-001 -8.4909e-002 36397 92036,92114,92088
 5.0000e+000 92189 -1.7685e-001 -2.7650e-001 -3.0063e-003 36397 92036,92140,92114
 5.0000e+000 92166 -2.6611e-001 -2.0027e-001  4.0844e-003 36397 92010,92140,92036
 5.0000e+000 92694 -1.7075e-001 -6.4096e-003  3.2360e-002 36057 92446,92498,92472
 5.0000e+000 92671 -7.8966e-002  1.8222e-001  6.2547e-002 36057 92446,92550,92498
 5.0000e+000 92648  1.0019e-001 -2.7986e-002  2.8266e-002 36057 92446,92576,92550
 5.0000e+000 92625 -3.4861e-002 -9.6383e-002  5.2844e-002 36057 92420,92576,92446
 5.0000e+000 92602 -1.0682e-001 -6.6952e-002 -2.0747e-001 36057 92498,92550,92524
 5.0000e+000 93023 -4.9069e-001 -4.4229e-001 -1.1322e-001 35717 92876,92928,92902
 5.0000e+000 93000 -4.3972e-001 -4.7299e-001 -1.2469e-001 35717 92824,92928,92876
 5.0000e+000 92977 -2.0350e-001 -4.4329e-001 -7.5321e-002 35717 92798,92928,92824
 5.0000e+000 92954 -3.7297e-001 -5.6554e-001 -4.8359e-001 35717 92824,92876,92850
 5.0000e+000 93499  1.3344e-001 -6.6048e-001  3.0102e-001 35405 93522,93309,93257
 5.0000e+000 93476  3.2916e-001 -4.1361e-001  2.1593e-001 35405 93666,93522,93257
 5.0000e+000 93453  1.8340e-001 -2.1400e+000  2.7473e-001 35405 93594,93127,93335
 5.0000e+000 93430  1.2858e-002 -3.4353e-001  3.8878e-002 35405 93666,93257,93231
 5.0000e+000 93407 -7.7002e-001 -2.6657e+000 -6.9324e-001 35405 93127,93179,93153
 5.0000e+000 93384 -1.0818e+000  1.0701e-001  3.8906e-001 35405 93179,93231,93205
 5.0000e+000 93361  5.0665e-001  6.4898e-001  1.7774e-001 35405 93257,93309,93283
 5.0000e+000 93548  8.4023e-001 -1.7044e-001  8.1764e-001 35405 93335,93309,93522
 5.0000e+000 93571  3.7875e-001 -1.0938e+000  4.7335e-001 35405 93594,93335,93522
 5.0000e+000 93620  1.6566e-001 -1.0092e+000  1.6097e-001 35405 93179,93127,93594
 5.0000e+000 93643 -6.7784e-002 -5.6406e-001  1.5943e-001 35405 93738,93594,93522
 5.0000e+000 93692  2.0119e-002 -5.7697e-001  9.2021e-002 35405 93738,93522,93666
 5.0000e+000 93715 -1.9274e-001 -5.7970e-001 -8.4300e-002 35405 93179,93666,93231
 5.0000e+000 93764 -1.0988e-001 -6.4843e-001  2.0132e-001 35405 93179,93594,93738
 5.0000e+000 93787 -7.2265e-002 -6.8311e-001  1.4003e-001 35405 93179,93738,93666
 5.0000e+000 94372  5.3340e-001  3.3800e-003 -6.3221e-002 34951 94395,94127,94075
 5.0000e+000 94349  1.0041e+000 -4.5596e-002  8.7544e-002 34951 94395,94075,94231
 5.0000e+000 94326  9.7682e-002 -4.4517e-001  1.2020e-002 34951 94049,94231,94075
 5.0000e+000 94303 -3.2256e-001 -4.4300e-001  4.8615e-001 34951 94075,94127,94101
 5.0000e+000 94280  1.2114e+000  1.9480e-001  3.9056e-001 34951 94127,94205,94153
 5.0000e+000 94257  1.4063e+000  2.3376e-001  6.2816e-001 34951 94153,94205,94179
 5.0000e+000 94421  9.1443e-001 -1.4318e-001  2.2566e-001 34951 94205,94127,94395
 5.0000e+000 94444  1.7855e+000  5.6419e-002  3.4863e-001 34951 94205,94395,94231
 5.0000e+000 94692 -1.3799e-002  1.2961e-001 -3.8703e-003 34397 94715,94519,94467
 5.0000e+000 94669 -6.7419e-003  1.0969e-001 -1.1759e-002 34397 94715,94467,94597
 5.0000e+000 94646  3.8579e-003  3.3984e-002  6.0916e-003 34397 94545,94597,94571
 5.0000e+000 94623 -1.4012e-002  1.4271e-001 -3.4762e-002 34397 94467,94519,94493
 5.0000e+000 94741  1.9366e-002  1.9050e-001  1.2021e-002 34397 94545,94519,94715
 5.0000e+000 94764 -4.0819e-003  1.3048e-001 -3.5194e-003 34397 94545,94715,94597
 5.0000e+000 94985 -1.0840e-001  1.2148e-001 -3.8699e-002 33985 94835,94913,94887
 5.0000e+000 94962  2.4042e-001  9.6786e-001 -6.3217e-002 33985 94809,94913,94835
 5.0000e+000 94939 -1.5233e-002  1.1005e-001 -4.1771e-002 33985 94835,94887,94861
 5.0000e+000 95186 -2.7742e-001 -4.5462e-001 -3.0821e-001 33645 95281,95209,95036
 5.0000e+000 95163  2.7452e-002 -6.6322e-001  4.8810e-002 33645 95209,95010,95088
 5.0000e+000 95140  2.7316e-001 -2.7657e-001 -6.9307e-002 33645 95010,95114,95088
 5.0000e+000 95235 -5.8290e-001 -5.2120e-001 -2.1947e-001 33645 95062,95036,95209
 5.0000e+000 95258 -4.1600e-001 -8.3578e-001  2.5495e-001 33645 95413,95209,95088
 5.0000e+000 95307 -1.3139e-001 -3.0514e-001 -3.6837e-001 33645 95010,95209,95281
 5.0000e+000 95439 -3.4970e-001 -6.8130e-001  2.0400e-001 33645 95062,95209,95413
 5.0000e+000 95766 -4.3844e-001  2.1029e-001 -5.8394e-001 33141 95789,95593,95567
 5.0000e+000 95743 -1.0531e-001 -6.5635e-002 -2.0722e-001 33141 95861,95789,95567
 5.0000e+000 95720 -1.4082e-001  1.5431e-002 -5.5202e-002 33141 95861,95567,95671
 5.0000e+000 95697 -1.4431e-001 -4.7281e-002 -7.5789e-002 33141 95541,95671,95567
 5.0000e+000 95815 -1.4756e-001  9.1895e-001 -5.1443e-001 33141 95619,95593,95789
 5.0000e+000 95838 -2.6901e-002  3.0042e-001 -2.1657e-001 33141 95619,95789,95645
 5.0000e+000 95887  1.5354e-002  2.0439e-001 -2.3032e-001 33141 95645,95789,95861
 5.0000e+000 95910 -3.2173e-002  2.7998e-001 -5.8093e-002 33141 95645,95861,95671
 5.0000e+000 96060 -5.3743e-001 -2.8574e-001 -3.2712e-001 32487 95959,96011,95985
 5.0000e+000 96037 -1.3469e-001 -2.3215e-001 -7.6095e-002 32487 95933,96011,95959
 5.0000e+000 96570 -2.4473e-001 -1.2436e-001  1.0231e-001 32033 96665,96593,96377
 5.0000e+000 96547 -4.0489e-001  1.4570e-001 -2.7486e-001 32033 96737,96593,96325
 5.0000e+000 96524 -2.7909e-001 -2.1983e-001  3.3772e-002 32033 96665,96377,96351
 5.0000e+000 96501 -4.1470e-001  2.9712e-001 -2.1882e-001 32033 96737,96325,96299
 5.0000e+000 96478 -3.6196e-001  2.6527e-001 -2.1477e-001 32033 96247,96429,96299
 5.0000e+000 96455 -7.4616e-001 -8.0053e-001 -1.9527e-001 32033 96247,96299,96273
 5.0000e+000 96619  3.6688e-002  4.9437e-002  5.5315e-002 32033 96809,96593,96403
 5.0000e+000 96642  2.6554e-001  6.5870e-001 -6.0168e-001 32033 96403,96593,96429
 5.0000e+000 96691 -8.3833e-002 -3.5304e-001 -9.4995e-003 32033 96325,96593,96665
 5.0000e+000 96714 -2.2131e-001 -5.2846e-001 -1.0275e-001 32033 96325,96665,96351
 5.0000e+000 96763 -4.5343e-001  5.4875e-002 -3.4301e-001 32033 96429,96593,96737
 5.0000e+000 96786 -4.5521e-001  1.6478e-001 -2.7095e-001 32033 96429,96737,96299
 5.0000e+000 96835 -2.0174e-003  6.6210e-003  3.5636e-002 32033 96377,96593,96809
 5.0000e+000 97064  2.8782e-002  6.6851e-002  6.0312e-002 31671 97087,96989,96963
 5.0000e+000 97041 -2.4125e-002  7.7245e-002 -3.0219e-002 31671 97087,96963,96937
 5.0000e+000 97113 -5.8252e-002  7.9346e-002  1.6634e-002 31671 97159,97087,97015
 5.0000e+000 97136 -3.3773e-002  4.1097e-002 -9.8194e-003 31671 97015,97087,96937
 5.0000e+000 97185 -4.2006e-002 -7.6978e-002  3.6766e-002 31671 96989,97087,97159
 5.0000e+000 97563 -3.7242e-003  1.5918e-001 -7.7713e-003 31117 97586,97367,97341
 5.0000e+000 97540  2.3761e-002  1.6145e-001 -1.2356e-002 31117 97658,97586,97341
 5.0000e+000 97517  6.1461e-002  1.2407e-001  2.6226e-003 31117 97658,97341,97315
 5.0000e+000 97494 -6.8364e-003  1.1975e-001  4.9590e-002 31117 97289,97445,97315
 5.0000e+000 97471  3.6274e-002  6.8520e-002  2.0573e-002 31117 97367,97419,97393
 5.0000e+000 97612  3.2531e-002  1.5779e-001 -1.7611e-002 31117 97419,97367,97586
 5.0000e+000 97635 -2.8828e-002  1.3794e-001 -2.1219e-002 31117 97419,97586,97445
 5.0000e+000 97684 -3.1776e-002  1.2809e-001  2.4297e-003 31117 97445,97586,97658
 5.0000e+000 97707  1.0019e-002  9.2831e-002  1.6924e-002 31117 97445,97658,97315
 5.0000e+000 98215 -2.0805e-001  2.2137e-002 -2.7801e-001 30563 98238,97996,97944
 5.0000e+000 98192 -3.3317e-001  9.2448e-002 -2.6512e-001 30563 98310,98238,97944
 5.0000e+000 98169 -4.6194e-001 -2.3541e-001 -2.8183e-001 30563 98310,97944,97918
 5.0000e+000 98146 -1.7824e-001  1.6594e-002  4.1903e-002 30563 97892,98074,97918
 5.0000e+000 98123 -1.0989e-001  3.9923e-001 -2.6413e-001 30563 97996,98048,98022
 5.0000e+000 98100 -2.9821e-001  1.3545e-001 -5.0055e-001 30563 97944,97996,97970
 5.0000e+000 98264 -2.0641e-001  1.0646e-001 -2.7184e-001 30563 98048,97996,98238
 5.0000e+000 98287 -1.6077e-001  4.1796e-001 -9.9637e-004 30563 98048,98238,98074
 5.0000e+000 98336 -3.4519e-001 -7.0864e-002 -3.7772e-002 30563 98074,98238,98310
 5.0000e+000 98359 -3.6175e-001 -1.6434e-001 -3.1939e-002 30563 98074,98310,97918
 5.0000e+000 98607 -7.3874e-001  1.9948e-001 -6.6125e-003 30073 98630,98460,98408
 5.0000e+000 98584 -1.0923e+000  1.7180e-001 -6.3001e-002 30073 98630,98408,98382
 5.0000e+000 98561 -3.0858e-001  3.5781e-001 -1.9692e-001 30073 98382,98512,98486
 5.0000e+000 98538 -5.4116e-001  1.0732e-001  1.6107e-001 30073 98408,98460,98434
 5.0000e+000 98656 -5.5763e-001  8.3335e-002 -7.6686e-002 30073 98486,98460,98630
 5.0000e+000 98679 -7.9465e-001  1.4785e-001 -1.2850e-001 30073 98486,98630,98382
 5.0000e+000 99157  2.9024e-001 -1.7308e-001  2.0067e-001 29669 99180,98837,98811
 5.0000e+000 99134  3.1222e-001 -2.7060e-002  2.3602e-001 29669 99324,99180,98811
 5.0000e+000 99111  4.6089e-001  4.6353e-001 -2.7956e-001 29669 99252,98863,98837
 5.0000e+000 99088  2.1787e-001 -3.1549e-001  3.2763e-001 29669 99324,98811,98993
 5.0000e+000 99065 -7.4997e-001  7.0602e-001  1.3190e-001 29669 98863,98941,98915
 5.0000e+000 99042 -2.7610e-001  6.3067e-001  2.6723e-001 29669 98863,98915,98889
 5.0000e+000 99019 -1.3670e-002 -3.5449e-001  6.4974e-001 29669 98785,98993,98811
 5.0000e+000 99206  3.1391e-001 -1.4734e-001 -6.4209e-002 29669 99252,98837,99180
 5.0000e+000 99229 -9.4071e-002  2.3651e-001  1.6429e-001 29669 98941,99180,98967
 5.0000e+000 99278  1.0815e-001  9.3122e-001 -2.0224e-001 29669 98941,98863,99252
 5.0000e+000 99301  2.1710e-001  6.5320e-001  2.4597e-002 29669 98941,99252,99180
 5.0000e+000 99350  1.7318e-001  3.3263e-001  1.8623e-001 29669 98967,99180,99324
 5.0000e+000 99373  1.6720e-001  1.1417e-001  2.3127e-001 29669 98967,99324,98993
 5.0000e+000 99958  3.6584e-001  5.9993e-001  1.4506e-001 29051 99981,99765,99739
 5.0000e+000 99935 -1.7858e-002  6.5811e-002 -2.3176e-002 29051 99981,99739,99661
 5.0000e+000 99912  4.7240e-001 -4.3411e-001 -3.0961e-001 29051 99765,99817,99791
 5.0000e+000 99889 -7.7467e-001 -4.2777e-001  4.7928e-001 29051 99635,99817,99661
 5.0000e+000 99866 -9.4182e-001 -9.2594e-003  6.4771e-001 29051 99661,99739,99687
 5.0000e+000 99843 -1.1500e+000  2.8275e-001  3.3657e-001 29051 99687,99739,99713
 5.0000e+000 100007  5.8740e-001  7.1787e-002  1.9224e-001 29051 99817,99765,99981
 5.0000e+000 100030  4.0672e-001 -1.6869e-001  1.1349e-001 29051 99817,99981,99661
 5.0000e+000 100278  8.8195e-001  5.7563e-001  9.7091e-002 28525 100445,100301,100131
 5.0000e+000 100255  3.0497e-001  4.8368e-001  2.1209e-002 28525 100373,100301,100079
 5.0000e+000 100232  2.7976e-001  6.9795e-002  8.1032e-002 28525 100373,100079,100053
 5.0000e+000 100209  6.8372e-001  8.0549e-001 -1.1748e-001 28525 100445,100131,100105
 5.0000e+000 100327  1.6844e+000  2.8766e-001  4.3321e-002 28525 100517,100301,100157
 5.0000e+000 100350  5.7971e-001  3.8688e-001 -2.9857e-001 28525 100157,100301,100183
 5.0000e+000 100399  2.7605e-001  5.3696e-002  2.3221e-001 28525 100183,100301,100373
 5.0000e+000 100422  3.4574e-001 -2.4056e-001  2.8731e-001 28525 100183,100373,100053
 5.0000e+000 100471  6.1648e-001  3.3000e-001 -1.2540e-001 28525 100079,100301,100445
 5.0000e+000 100494  1.3286e-001  3.0574e-001 -3.8581e-001 28525 100079,100445,100105
 5.0000e+000 100543  1.3330e+000  2.3901e-001 -7.1695e-002 28525 100131,100301,100517
 5.0000e+000 101209 -1.4959e+000  3.4409e-001  4.3169e-002 28185 100938,101016,100990
 5.0000e+000 101186 -1.6136e+000  5.3526e-003 -1.5872e-001 28185 100912,101016,100938
 5.0000e+000 101163 -5.1491e-001  3.5814e-001 -3.9736e-002 28185 100912,101068,101016
 5.0000e+000 101140 -1.9994e+000 -4.2065e-001 -4.3100e-001 28185 100886,101068,100912
 5.0000e+000 101117 -5.7932e-001  1.5133e-001 -3.3923e-002 28185 101016,101068,101042
 5.0000e+000 101094 -3.9419e+000 -4.7050e-001  8.8490e-002 28185 100938,100990,100964
 5.0000e+000 101408  1.2372e-001  4.2288e-002 -2.5339e-001 27781 101503,101431,101310
 5.0000e+000 101385 -2.3346e-001  5.2323e-001 -5.2301e-001 27781 101431,101258,101232
 5.0000e+000 101362  2.7219e-001 -2.1531e-002 -3.2186e-001 27781 101503,101310,101284
 5.0000e+000 101457  7.7521e-001  4.2680e-001 -4.2035e-001 27781 101336,101310,101431
 5.0000e+000 101480  2.3449e-001  8.0262e-001 -7.5237e-001 27781 101575,101431,101232
 5.0000e+000 101529  3.5361e-001  1.6162e-001 -4.7457e-001 27781 101258,101431,101503
 5.0000e+000 101552  1.7342e-001 -2.9342e-001 -2.9448e-001 27781 101705,101503,101284
 5.0000e+000 101601  3.0446e-001  8.5545e-001 -8.0075e-001 27781 101336,101431,101575
 5.0000e+000 101731 -5.5829e-002 -1.9553e-002 -4.4404e-001 27781 101258,101503,101705
 5.0000e+000 102237 -7.6877e-001 -2.3573e-001  5.5741e-002 27419 102476,102260,101992
 5.0000e+000 102214 -5.3671e-001 -3.5850e-001 -4.1205e-002 27419 102260,101940,101914
 5.0000e+000 102191 -8.1805e-001 -4.0825e-001  1.1163e-001 27419 102404,102332,102096
 5.0000e+000 102168 -7.1832e-001 -3.5950e-001  2.2410e-002 27419 102404,102096,102044
 5.0000e+000 102145 -7.1708e-001 -2.7496e-001  8.5930e-002 27419 102476,101992,101966
 5.0000e+000 102122 -4.6976e-001 -4.3810e-001  7.7607e-003 27419 102044,102096,102070
 5.0000e+000 102286 -1.0004e+000 -4.3526e-001  1.6159e-001 27419 102018,101992,102260
 5.0000e+000 102309 -7.7608e-001 -3.2051e-001  1.4525e-002 27419 102332,102018,102260
 5.0000e+000 102358 -8.4337e-001 -7.3451e-001  2.3968e-001 27419 101914,102096,102332
 5.0000e+000 102381 -7.2432e-001 -4.8837e-001  4.7668e-002 27419 101914,102332,102260
 5.0000e+000 102430 -6.2488e-001 -3.9439e-001 -1.1376e-002 27419 102018,102332,102404
 5.0000e+000 102453 -5.4208e-001 -3.1332e-001 -1.1036e-001 27419 102018,102404,102044
 5.0000e+000 102502 -6.5498e-001 -3.0156e-001  8.6428e-002 27419 101940,102260,102476
 5.0000e+000 102525 -1.8521e-001 -1.0073e-001  5.3307e-002 27419 101940,102476,101966
 5.0000e+000 103031 -1.1736e+000  1.0510e+000  8.0879e-001 26715 102708,102786,102760
 5.0000e+000 103008 -1.5590e-001 -3.4127e-001  1.2903e-001 26715 102708,102890,102786
 5.0000e+000 102985  9.9741e-001 -5.9876e-001  7.7167e-002 26715 102838,102890,102864
 5.0000e+000 102962  2.8393e-001  8.8906e-001  1.0788e-001 26715 102786,102890,102838
 5.0000e+000 102939  1.3791e+000  1.4279e+000  6.7994e-001 26715 102786,102838,102812
 5.0000e+000 102916 -1.8659e+000 -6.0324e-002  3.3461e-001 26715 102708,102760,102734
 5.0000e+000 103279  2.5314e-002  3.3060e-002 -8.6780e-002 26303 103302,103158,103080
 5.0000e+000 103256  1.3819e-001 -5.8454e-002 -9.0338e-002 26303 103302,103080,103054
 5.0000e+000 103233  2.5687e-001  1.4978e-001 -3.4169e-002 26303 103080,103158,103106
 5.0000e+000 103210 -3.1652e-001 -1.0293e-002 -4.8041e-002 26303 103106,103158,103132
 5.0000e+000 103328 -1.6411e-001 -5.5242e-002 -4.7442e-002 26303 103184,103158,103302
 5.0000e+000 103351  5.1383e-002 -6.7993e-002 -7.0510e-002 26303 103184,103302,103054
 5.0000e+000 103501 -9.4598e-001 -1.4595e-001  5.5845e-002 25849 103374,103426,103400
 5.0000e+000 103478 -8.4176e-001 -3.9984e-001  4.5299e-003 25849 103374,103452,103426
 5.0000e+000 104090 -8.9076e-002  1.9020e-001  1.1712e-001 25445 103793,103871,103819
 5.0000e+000 104067  1.8489e-001  9.1725e-002  1.2396e-003 25445 103793,103949,103871
 5.0000e+000 104044  2.6089e-001  2.7408e-001  8.9783e-003 25445 103871,103949,103923
 5.0000e+000 104021 -8.5780e-002  2.6546e-001 -1.5967e-002 25445 103819,103871,103845
 5.0000e+000 103998  1.2243e-001  1.7162e-001  1.9973e-001 25445 103767,103949,103793
 5.0000e+000 103975  3.7968e-001  1.9290e-001 -2.4473e-003 25445 103871,103923,103897
 5.0000e+000 104419 -3.6793e-001 -1.0600e-001 -1.2218e-001 25083 104220,104298,104272
 5.0000e+000 104396 -6.9035e-001 -4.2109e-001  5.2638e-003 25083 104220,104324,104298
 5.0000e+000 104373 -2.8480e-001 -1.8945e-001 -2.9330e-002 25083 104220,104272,104246
 5.0000e+000 104350 -6.8600e-001 -3.5374e-001  2.5983e-002 25083 104194,104324,104220
 5.0000e+000 105102  3.8656e-002 -1.7598e-001 -1.1251e-001 24793 104785,104863,104837
 5.0000e+000 105079 -2.6319e-002 -4.7000e-001 -2.8116e-001 24793 104759,104863,104785
 5.0000e+000 105056 -1.0016e-001 -8.0187e-002 -2.9400e-001 24793 104759,104915,104863
 5.0000e+000 105033 -1.9560e-001 -1.1275e-001 -2.2595e-001 24793 104733,104915,104759
 5.0000e+000 105010  6.2854e-002 -2.3094e-002 -2.3499e-001 24793 104863,104915,104889
 5.0000e+000 104987 -3.2804e-001 -2.2704e-002 -3.2197e-001 24793 104681,104915,104733
 5.0000e+000 104964 -4.9803e-002 -2.8483e-001 -1.5465e-001 24793 104785,104837,104811
 5.0000e+000 104941 -2.1089e-001  2.6206e-001 -3.4897e-001 24793 104681,104733,104707
 5.0000e+000 105252  8.5493e-001  1.0594e+000 -7.9162e-002 24389 105477,105275,105177
 5.0000e+000 105229  8.2494e-001  1.1269e+000 -9.9789e-002 24389 105347,105275,105151
 5.0000e+000 105301  9.1175e-001  9.6883e-001 -1.0989e-001 24389 105203,105177,105275
 5.0000e+000 105324  9.5745e-001  1.0547e+000 -6.8228e-002 24389 105203,105275,105125
 5.0000e+000 105373  8.4542e-001  7.5140e-001 -3.0552e-002 24389 105125,105275,105347
 5.0000e+000 105503  1.0110e+000  1.3010e+000  9.4717e-003 24389 105151,105275,105477
 5.0000e+000 106088 -5.9377e-001  5.2757e-001  6.8116e-001 23735 105791,105921,105895
 5.0000e+000 106065 -2.0261e+000 -3.6566e-002  6.8743e-001 23735 105765,105921,105791
 5.0000e+000 106042 -3.8243e-001  6.4468e-001  3.6977e-001 23735 105765,105947,105921
 5.0000e+000 106019 -2.3225e+000  4.4165e-002  9.1654e-001 23735 105817,105895,105869
 5.0000e+000 105996 -1.4394e+000  2.8374e-001  8.1820e-001 23735 105791,105895,105817
 5.0000e+000 105973 -1.1584e+000  2.2594e-001  7.4210e-001 23735 105817,105869,105843
 5.0000e+000 106417  6.7108e-001  2.0206e+000 -4.4128e-001 23295 106218,106296,106270
 5.0000e+000 106394  2.2558e-001  6.5715e-001 -3.2130e-001 23295 106218,106322,106296
 5.0000e+000 106371  1.4437e-002  4.5710e-001 -4.0945e-001 23295 106218,106270,106244
 5.0000e+000 106348  4.5445e-001  7.5480e-001 -1.2748e-001 23295 106192,106322,106218
 5.0000e+000 106746  1.1059e-001  7.0002e-001  1.3369e-001 23005 106521,106599,106547
 5.0000e+000 106723  5.7366e-001  8.1628e-001  1.3683e-002 23005 106521,106651,106599
 5.0000e+000 106700  3.7377e-001  6.9624e-001  2.5441e-002 23005 106547,106599,106573
 5.0000e+000 106677  7.3202e-001  7.9208e-001  3.9585e-001 23005 106599,106651,106625
 5.0000e+000 107331 -3.2666e-001  1.7744e-001 -2.6116e-001 22601 107060,107190,107138
 5.0000e+000 107308 -1.0884e+000 -5.5800e-002 -5.5168e-001 22601 107034,107190,107060
 5.0000e+000 107285 -1.5560e+000 -3.9753e-001 -5.2220e-001 22601 107060,107138,107112
 5.0000e+000 107262 -1.6884e+000 -3.1466e-001 -5.8608e-001 22601 107008,107190,107034
 5.0000e+000 107239 -1.6580e-001  8.8252e-001 -1.0565e+000 22601 107060,107112,107086
 5.0000e+000 107216 -5.3696e-001  2.7601e-001 -1.2147e-001 22601 107138,107190,107164
 5.0000e+000 107807 -5.5909e-001  1.0657e-001 -1.0206e-001 22031 107974,107902,107617
 5.0000e+000 107784 -6.8946e-001  3.6987e-001 -2.5505e-001 22031 107830,107565,107513
 5.0000e+000 107761 -4.5672e-001  5.9519e-002 -2.8757e-001 22031 108046,107830,107513
 5.0000e+000 107738 -4.3325e-001  3.2156e-001  2.1534e-002 22031 107974,107617,107591
 5.0000e+000 107715 -4.9790e-001 -7.9368e-002 -2.5019e-001 22031 108046,107513,107461
 5.0000e+000 107692 -1.6839e+000  5.8761e-001 -4.6115e-001 22031 107513,107565,107539
 5.0000e+000 107669 -2.7351e-001  2.0732e-001 -3.7628e-001 22031 107461,107513,107487
 5.0000e+000 107856 -8.1332e-001  2.3396e-001 -1.7369e-001 22031 107902,107565,107830
 5.0000e+000 107879 -5.4321e-001 -1.2309e-001 -1.8174e-002 22031 107643,107830,107435
 5.0000e+000 107928 -1.1030e+000  4.8002e-001 -4.8663e-001 22031 107643,107617,107902
 5.0000e+000 107951 -7.7850e-001  2.1276e-001  2.7129e-002 22031 107643,107902,107830
 5.0000e+000 108000 -7.1846e-001  4.1137e-001 -1.2489e-001 22031 107565,107902,107974
 5.0000e+000 108023 -6.9220e-001  3.4188e-001 -9.4442e-002 22031 107565,107974,107591
 5.0000e+000 108072 -4.1296e-001 -1.1951e-001 -9.5269e-002 22031 107435,107830,108046
 5.0000e+000 108095 -5.0158e-001 -3.3998e-001 -5.7035e-002 22031 107435,108046,107461
 5.0000e+000 108196  3.7640e-002  5.9282e-002 -1.5421e-001 21783 108118,108170,108144
 5.0000e+000 108655  1.5580e-001  8.9572e-001  5.2874e-001 21379 108407,108485,108459
 5.0000e+000 108632  1.7944e+000 -4.4429e-002  7.4285e-001 21379 108407,108511,108485
 5.0000e+000 108609  1.8422e+000 -2.7232e-001  4.5866e-001 21379 108381,108511,108407
 5.0000e+000 108586  8.0860e-001  5.0325e-001 -6.2375e-001 21379 108381,108537,108511
 5.0000e+000 108563  4.7517e-001  1.2195e-001  2.4059e-001 21379 108407,108459,108433
 5.0000e+000 109082 -9.7310e-002  6.2657e-001  1.6579e-001 20974 109105,108863,108811
 5.0000e+000 109059  2.6964e-001  8.3123e-001 -1.2941e-001 20974 109105,108811,108759
 5.0000e+000 109036 -1.2297e-001  1.3523e+000 -1.3855e-001 20974 109177,108889,108863
 5.0000e+000 109013  6.7112e-001  1.1707e+000 -1.2470e-001 20974 108811,108863,108837
 5.0000e+000 108990 -3.5974e-001  3.6815e-003 -6.9719e-002 20974 108759,108941,108915
 5.0000e+000 108967  9.9532e-002 -1.6912e-001  2.4351e-002 20974 108759,108811,108785
 5.0000e+000 109131  1.1458e-001  1.0556e+000  4.7222e-002 20974 109177,108863,109105
 5.0000e+000 109154 -2.9227e-002  1.4355e-002 -4.0889e-002 20974 108915,109105,108759
 5.0000e+000 109203 -2.3699e-001  1.1051e+000  1.4934e-001 20974 108915,108889,109177
 5.0000e+000 109226 -1.9238e-001  4.6987e-001  3.2077e-001 20974 108915,109177,109105
 5.0000e+000 109496 -8.1368e-001  1.0776e-001 -6.7360e-002 20470 109271,109375,109297
 5.0000e+000 109473 -7.5685e-001  2.2186e-001 -1.2432e-001 20470 109271,109401,109375
 5.0000e+000 109450 -9.5918e-001 -1.0451e-001 -1.4083e-001 20470 109297,109375,109349
 5.0000e+000 109427 -1.3139e+000 -8.3046e-001  2.5758e-001 20470 109297,109349,109323
 5.0000e+000 109955  2.1308e-001  1.7109e+000  9.7698e-001 20123 110050,109733,109707
 5.0000e+000 109932 -7.2301e-001  8.0828e-001  5.2932e-001 20123 110050,109707,109681
 5.0000e+000 109909  1.9166e-001  4.8605e-001  6.2693e-001 20123 109978,109759,109733
 5.0000e+000 109886 -1.7105e-001  3.2151e-001  5.5828e-001 20123 110122,109978,109733
 5.0000e+000 109863  3.0206e-001  2.6275e-001  2.8303e-001 20123 109785,109837,109811
 5.0000e+000 110004  1.4565e-001  4.6114e-001  4.3315e-001 20123 109785,109759,109978
 5.0000e+000 110027  4.8480e-003  3.3898e-001  3.0688e-001 20123 109785,109978,109837
 5.0000e+000 110076 -3.5526e-001  5.9510e-001  4.4311e-001 20123 110122,109733,110050
 5.0000e+000 110099 -3.1513e-001  4.8920e-001  9.7705e-002 20123 109837,110050,109681
 5.0000e+000 110148  1.8477e-001  7.1341e-001  3.9963e-001 20123 109837,109978,110122
 5.0000e+000 110171  1.4887e-002  9.4688e-001  2.7961e-001 20123 109837,110122,110050
 5.0000e+000 110500  1.1273e+000  3.4260e-001 -2.6698e-001 19511 110301,110379,110353
 5.0000e+000 110477  1.6612e+000  9.4659e-001 -4.9581e-001 19511 110301,110405,110379
 5.0000e+000 110454  4.2207e-001  3.3953e-001 -2.6821e-001 19511 110275,110405,110301
 5.0000e+000 110431  9.7414e-001  4.7464e-001  4.5628e-001 19511 110301,110353,110327
 5.0000e+000 110957  2.1749e-001  1.1764e+000 -7.1880e-001 19107 110683,110735,110709
 5.0000e+000 110934  9.8195e-002 -2.6045e-001 -1.0182e+000 19107 110683,110813,110735
 5.0000e+000 110911  4.3553e-001  6.7013e-001 -9.3468e-001 19107 110735,110813,110761
 5.0000e+000 110888 -7.2958e-001 -7.0976e-001 -8.0947e-001 19107 110683,110839,110813
 5.0000e+000 110865  1.8469e-001  9.1492e-002 -9.0865e-001 19107 110761,110813,110787
 5.0000e+000 111335 -2.4677e-001 -3.3371e-001 -1.5010e-001 18653 111087,111165,111139
 5.0000e+000 111312 -8.0835e-002 -1.3771e-001 -2.2580e-001 18653 111087,111217,111165
 5.0000e+000 111289 -2.1283e-001 -2.1642e-001 -7.4045e-002 18653 111061,111217,111087
 5.0000e+000 111266 -1.3292e-001 -1.3777e-001 -9.2031e-002 18653 111087,111139,111113
 5.0000e+000 111243 -9.3229e-002 -2.0905e-001 -1.6765e-001 18653 111165,111217,111191
 5.0000e+000 111735 -1.1450e+000 -3.8378e-001 -5.1057e-002 18213 111461,111513,111487
 5.0000e+000 111712 -1.2795e+000 -8.1246e-001  1.4208e-002 18213 111461,111617,111513
 5.0000e+000 111689 -1.2226e+000 -7.2352e-001 -1.7094e-001 18213 111513,111617,111591
 5.0000e+000 111666 -5.5758e-001 -3.3337e-001  6.8881e-002 18213 111513,111591,111539
 5.0000e+000 111643 -3.1642e-001 -3.7642e-001  1.3340e-003 18213 111539,111591,111565
 5.0000e+000 111885  6.4982e-001 -4.1592e-001  2.4592e-001 17659 111784,111836,111810
 5.0000e+000 111862  1.5025e+000  3.9243e-001  5.9372e-001 17659 111758,111836,111784
 5.0000e+000 112287 -4.8631e-002  6.2774e-001 -3.6863e-001 17411 112065,112169,112143
 5.0000e+000 112264 -1.8960e+000  5.0417e-002  2.1418e-001 17411 112039,112169,112065
 5.0000e+000 112241 -2.0770e+000  1.3771e-001 -3.0023e-001 17411 112013,112169,112039
 5.0000e+000 112218  3.3148e+000  9.8188e-001 -6.8542e-001 17411 112091,112143,112117
 5.0000e+000 112195 -1.0558e-001 -1.4450e-001  2.4031e-001 17411 112065,112143,112091
 5.0000e+000 112508 -8.0899e-001  4.8435e-001  8.9699e-002 17007 112384,112436,112410
 5.0000e+000 112485 -6.2452e-001  6.5984e-001  1.6542e-001 17007 112332,112436,112384
 5.0000e+000 112462 -7.9822e-001  3.2077e-001  1.0401e-001 17007 112332,112384,112358
 5.0000e+000 112658 -2.0155e+000 -4.3950e-001  3.2176e-001 16553 112557,112609,112583
 5.0000e+000 112635 -2.0083e+000 -2.9774e-001  3.7373e-001 16553 112531,112609,112557
 5.0000e+000 112761 -4.4069e-001  1.5922e+000 -2.7347e-001 16355 112683,112735,112709
 5.0000e+000 112913 -1.2705e+000  6.3562e-001  7.3379e-002 15949 112786,112838,112812
 5.0000e+000 112890 -6.3644e-001  1.7220e+000 -2.2907e-001 15949 112786,112864,112838
 5.0000e+000 113065  1.2962e-001 -1.3981e-001 -6.4313e-002 15609 112938,112990,112964
 5.0000e+000 113042  5.0856e-001  2.4171e-002  9.5529e-004 15609 112938,113016,112990
 5.0000e+000 113420  7.5107e-001  6.9489e-001  2.5443e-001 15284 113247,113325,113299
 5.0000e+000 113397  7.0651e-001  5.8568e-001  1.5420e-001 15284 113195,113325,113247
 5.0000e+000 113374  5.6153e-001  5.5538e-001  1.0191e-001 15284 113195,113247,113221
 5.0000e+000 113351  7.4496e-001  1.1843e+000  3.0384e-001 15284 113247,113299,113273
 5.0000e+000 113521  3.3323e-001 -3.9928e-001  2.3515e-001 202 113443,113495,113469
 5.5000e+000 65564 -8.7819e-002  3.8053e-002  1.2949e-002 65155 65414,65466,65440
 5.5000e+000 65541 -6.3191e-002  1.3114e-001  1.5114e-002 65155 65414,65492,65466
 5.5000e+000 65518 -3.2869e-002  1.6469e-001 -3.9960e-002 65155 65388,65492,65414
 5.5000e+000 65883 -2.3852e-001  7.6359e-001 -3.4441e-002 64957 65635,65739,65713
 5.5000e+000 65860 -7.3711e-002  1.5425e+000 -2.4715e-002 64957 65635,65765,65739
 5.5000e+000 65837  1.3153e-001  1.6297e+000 -3.4030e-002 64957 65609,65765,65635
 5.5000e+000 65814 -1.5878e-001  1.1145e+000 -4.0078e-001 64957 65635,65713,65687
 5.5000e+000 65791 -6.4100e-002  1.3747e+000 -2.5608e-001 64957 65635,65687,65661
 5.5000e+000 65984 -2.7867e-001  2.9533e-001  1.9526e-001 64781 65906,65958,65932
 5.5000e+000 66232  3.7178e-001  4.5562e-001 -4.1211e-001 64469 66007,66059,66033
 5.5000e+000 66209 -2.8305e-001 -7.2847e-002 -6.4333e-001 64469 66007,66085,66059
 5.5000e+000 66186  9.0344e-002  9.0265e-001 -2.0171e-001 64469 66007,66137,66085
 5.5000e+000 66163 -5.7976e-001  3.3131e-002 -9.8387e-001 64469 66085,66137,66111
 5.5000e+000 66504  1.2324e-002  1.5300e+000 -9.5480e-002 64271 66279,66383,66305
 5.5000e+000 66481 -1.8033e-001  1.5550e+000  5.7897e-002 64271 66279,66409,66383
 5.5000e+000 66458 -2.7492e-001  1.9539e+000 -1.2250e-001 64271 66305,66357,66331
 5.5000e+000 66435  6.0719e-002  1.9290e+000 -1.1589e-001 64271 66305,66383,66357
 5.5000e+000 66705 -3.5691e-002  1.5797e+000 -2.4080e-001 64073 66728,66581,66555
 5.5000e+000 66682  1.2407e-002  1.6084e+000 -2.2634e-001 64073 66728,66555,66529
 5.5000e+000 66659 -6.5696e-001  2.0487e+000  5.8709e-001 64073 66581,66633,66607
 5.5000e+000 66754 -8.3800e-002  1.6139e+000 -2.5347e-001 64073 66633,66581,66728
 5.5000e+000 66777 -4.8147e-002  1.6384e+000 -2.3773e-001 64073 66633,66728,66529
 5.5000e+000 66951  2.3718e-001 -2.7834e-002  3.0426e-001 63783 66824,66876,66850
 5.5000e+000 66928 -8.3984e-001  6.3900e-001 -1.0641e-001 63783 66824,66902,66876
 5.5000e+000 67201  6.0731e-001  1.7720e+000 -1.1109e-001 63585 66976,67080,67054
 5.5000e+000 67178  2.8045e-001  1.6412e+000 -1.9758e-001 63585 66976,67106,67080
 5.5000e+000 67155  3.1902e-001  8.4544e-001 -1.6216e-002 63585 66976,67054,67028
 5.5000e+000 67132  4.6844e-001  1.0847e+000  2.9695e-001 63585 66976,67028,67002
 5.5000e+000 67654 -1.6800e-001  1.0895e+000  4.3862e-002 63295 67357,67487,67383
 5.5000e+000 67631 -2.0782e-001  1.5367e+000 -3.1429e-001 63295 67331,67487,67357
 5.5000e+000 67608  7.9859e-002  1.9975e+000  7.8795e-002 63295 67331,67513,67487
 5.5000e+000 67585 -2.3850e-002  2.0874e+000 -7.9065e-002 63295 67435,67487,67461
 5.5000e+000 67562  8.3157e-002  2.0144e+000  4.4218e-002 63295 67383,67487,67435
 5.5000e+000 67539  1.0382e-003  1.5574e+000 -7.7108e-002 63295 67383,67435,67409
 5.5000e+000 67853 -2.9462e-002  1.3115e+000 -3.1517e-002 62891 67876,67703,67677
 5.5000e+000 67830  5.2645e-002  1.7078e+000 -6.2373e-003 62891 67876,67677,67781
 5.5000e+000 67807 -2.1900e-001  1.0518e+000 -1.2330e-001 62891 67948,67729,67703
 5.5000e+000 67902 -3.9293e-002  1.2271e+000 -2.1957e-001 62891 67948,67703,67876
 5.5000e+000 67925  3.3932e-001  1.3849e+000 -2.4673e-001 62891 67755,67876,67781
 5.5000e+000 67974  6.3490e-002  8.4092e-001 -7.8017e-002 62891 67755,67729,67948
 5.5000e+000 67997  1.1272e-001  9.2048e-001 -1.3787e-001 62891 67755,67948,67876
 5.5000e+000 68218  2.6934e-002 -5.9002e-002 -3.6161e-002 62693 68042,68120,68068
 5.5000e+000 68195  5.4920e-003 -4.9055e-002  7.1252e-003 62693 68042,68146,68120
 5.5000e+000 68172 -7.9456e-002  4.7184e-002 -2.5939e-002 62693 68068,68120,68094
 5.5000e+000 68468  9.8469e-002 -1.2098e-003 -8.8311e-003 62289 68491,68295,68269
 5.5000e+000 68445  2.7748e-002 -2.1218e-002 -3.0094e-002 62289 68563,68491,68269
 5.5000e+000 68422  1.9027e-002  1.4102e-002 -1.9406e-003 62289 68563,68269,68243
 5.5000e+000 68399 -8.4937e-002 -1.1977e-001 -8.8472e-002 62289 68295,68347,68321
 5.5000e+000 68517  5.6590e-002 -1.3570e-002 -3.7212e-002 62289 68347,68295,68491
 5.5000e+000 68540 -3.2529e-002 -5.3558e-004 -6.0236e-002 62289 68347,68491,68373
 5.5000e+000 68589  5.3040e-002  4.9009e-002 -3.4262e-002 62289 68373,68491,68563
 5.5000e+000 68612  2.9945e-002  6.0198e-002 -4.5101e-003 62289 68373,68563,68243
 5.5000e+000 68911  5.3170e-002  1.1952e+000 -4.5710e-002 62091 69222,68934,68741
 5.5000e+000 68888 -2.8838e-001  1.3134e+000 -5.5226e-002 62091 69006,68934,68689
 5.5000e+000 68865 -4.5704e-001  1.1274e+000 -2.3603e-001 62091 69006,68689,68663
 5.5000e+000 68842  2.3712e-001  1.5840e+000  2.5365e-001 62091 69078,68793,68767
 5.5000e+000 68819  6.5996e-002  1.2079e+000 -1.0743e-001 62091 69222,68741,68715
 5.5000e+000 68960  2.6742e-001  1.4104e+000 -1.3400e-001 62091 68767,68741,68934
 5.5000e+000 68983  1.1271e-001  1.6786e+000  6.1505e-002 62091 69078,68767,68934
 5.5000e+000 69032 -2.1713e-001  1.4977e+000 -1.2565e-002 62091 69150,69006,68637
 5.5000e+000 69055 -2.2974e-001  1.4174e+000 -7.1755e-002 62091 68637,69006,68663
 5.5000e+000 69104  1.5229e-001  1.3853e+000  6.9330e-003 62091 68637,68793,69078
 5.5000e+000 69127 -1.9326e-001  1.4794e+000 -2.5507e-002 62091 69150,68637,69078
 5.5000e+000 69176 -1.1377e-001  1.3247e+000  4.1082e-003 62091 68934,69006,69150
 5.5000e+000 69199  2.3684e-002  1.4370e+000 -5.5441e-002 62091 68934,69150,69078
 5.5000e+000 69248  2.5388e-002  1.1239e+000 -5.1238e-002 62091 68689,68934,69222
 5.5000e+000 69271  3.4579e-002  1.1048e+000 -9.3533e-002 62091 68689,69222,68715
 5.5000e+000 69521 -2.2147e-001  6.5011e-002 -1.8762e-002 61893 69544,69348,69296
 5.5000e+000 69498 -7.5744e-002  9.2239e-002  6.8712e-003 61893 69544,69296,69400
 5.5000e+000 69475  2.5575e-002  9.6590e-002 -1.0695e-002 61893 69296,69426,69400
 5.5000e+000 69452  5.4813e-002 -6.0659e-002 -2.1604e-001 61893 69296,69348,69322
 5.5000e+000 69570 -1.4484e-001 -8.9643e-004  9.4920e-002 61893 69374,69348,69544
 5.5000e+000 69593  1.1257e-001  8.8909e-002  1.1322e-001 61893 69374,69544,69400
 5.5000e+000 70046 -1.1125e-001  1.2633e+000 -2.8967e-002 61467 69749,69905,69879
 5.5000e+000 70023 -1.3615e-001  1.0413e+000 -3.0038e-001 61467 69723,69905,69749
 5.5000e+000 70000 -1.7819e-001  1.1473e+000 -4.8744e-004 61467 70069,69827,69775
 5.5000e+000 69977  1.6783e-001  1.9455e+000 -2.7587e-001 61467 70069,69775,69749
 5.5000e+000 69954  2.5399e-002  5.5406e-001 -1.5972e-003 61467 70141,69853,69827
 5.5000e+000 69931 -3.1738e-001  1.2331e+000  3.8500e-001 61467 69775,69827,69801
 5.5000e+000 70095 -8.3895e-002  7.1612e-001  1.0292e-001 61467 70141,69827,70069
 5.5000e+000 70118 -1.2650e-001  1.1566e+000 -8.2216e-003 61467 69879,70069,69749
 5.5000e+000 70167 -9.7264e-002  8.0293e-001 -9.6236e-003 61467 69879,69853,70141
 5.5000e+000 70190 -3.4271e-002  1.1871e+000  9.8875e-002 61467 69879,70141,70069
 5.5000e+000 70291  1.6759e-001  2.0992e+000  2.1833e-001 61013 70213,70265,70239
 5.5000e+000 70441 -3.8233e-002  3.8840e-002  1.2344e-001 60651 70340,70392,70366
 5.5000e+000 70418 -1.5091e-001  7.7202e-002  1.5715e-002 60651 70314,70392,70340
 5.5000e+000 70642 -9.4475e-002  1.1412e+000  3.1421e-001 60311 70665,70492,70466
 5.5000e+000 70619  7.8866e-002  1.5482e+000  3.1005e-001 60311 70665,70466,70570
 5.5000e+000 70596 -3.4617e-001  3.9188e-001  4.3036e-002 60311 70492,70544,70518
 5.5000e+000 70691 -4.8286e-003  7.4354e-001 -1.1534e-001 60311 70544,70492,70665
 5.5000e+000 70714  2.6497e-001  1.3704e+000 -1.3237e-001 60311 70544,70665,70570
 5.5000e+000 70964 -2.8014e-001  8.9491e-001  4.9159e-002 59907 70987,70765,70739
 5.5000e+000 70941 -5.8299e-002  1.4008e+000 -4.9842e-002 59907 71059,70987,70739
 5.5000e+000 70918  8.9901e-002  2.1304e+000 -1.3352e-001 59907 71059,70739,70869
 5.5000e+000 70895  2.6179e-002  1.4254e+000 -9.8967e-002 59907 70817,70869,70843
 5.5000e+000 71013 -1.0438e-001  9.3134e-001 -2.3341e-001 59907 70791,70765,70987
 5.5000e+000 71036 -3.9652e-002  9.3161e-001 -2.0195e-001 59907 70791,70987,70817
 5.5000e+000 71085  1.0489e-001  9.1323e-001 -1.6515e-001 59907 70817,70987,71059
 5.5000e+000 71108 -3.8025e-002  1.2330e+000 -1.1907e-001 59907 70817,71059,70869
 5.5000e+000 71441  5.1695e-001  7.2039e-001 -1.1313e+000 59417 71464,71242,71216
 5.5000e+000 71418  8.9130e-001  1.0249e+000  1.1298e-001 59417 71464,71216,71320
 5.5000e+000 71395  4.5585e-001  1.2093e+000  2.7616e-001 59417 71216,71346,71320
 5.5000e+000 71372 -1.5137e+000  1.9374e-001 -1.6266e-001 59417 71268,71320,71294
 5.5000e+000 71490 -3.1754e-001  3.9015e-001 -1.3404e+000 59417 71268,71242,71464
 5.5000e+000 71513 -8.8849e-001  3.9704e-001 -1.7735e-002 59417 71268,71464,71320
 5.5000e+000 71712  6.1905e-003  1.2193e+000 -1.8992e-001 58913 71562,71614,71588
 5.5000e+000 71689  9.2734e-001  1.0891e+000 -5.6165e-001 58913 71536,71614,71562
 5.5000e+000 71666  6.5592e-001  8.6984e-001 -4.6499e-001 58913 71536,71640,71614
 5.5000e+000 72171  6.8942e-001  1.5696e+000 -3.3825e-001 58409 72194,72027,72001
 5.5000e+000 72148  5.3341e-001  8.7772e-001 -4.1440e-001 58409 72194,72001,71949
 5.5000e+000 72125  2.0553e-001  1.2151e+000 -3.9638e-001 58409 71923,72053,71949
 5.5000e+000 72102  6.1047e-002  5.8925e-001 -2.5830e-001 58409 71949,72001,71975
 5.5000e+000 72079  4.6824e-001  1.2601e+000 -4.4255e-001 58409 71897,72053,71923
 5.5000e+000 72220  6.1114e-001  1.6862e+000  3.8520e-003 58409 72053,72027,72194
 5.5000e+000 72243  5.8852e-001  1.3431e+000 -1.3300e-001 58409 72053,72194,71949
 5.5000e+000 72491 -1.9874e+000 -8.3554e-001 -1.3025e+000 57855 72514,72318,72292
 5.5000e+000 72468  1.1461e+000  4.4935e-001 -1.4301e+000 57855 72514,72292,72266
 5.5000e+000 72445 -1.1328e+000  1.3056e-001  2.8552e-002 57855 72318,72396,72370
 5.5000e+000 72422 -3.0494e+000  9.6477e-001 -9.7100e-001 57855 72318,72370,72344
 5.5000e+000 72540 -2.2811e+000 -3.7531e-001 -8.4342e-001 57855 72396,72318,72514
 5.5000e+000 72563 -1.9824e+000 -3.5612e-001 -8.7220e-001 57855 72396,72514,72266
 5.5000e+000 72811  1.0620e+000  2.1158e-001 -6.4124e-001 57401 72612,72690,72638
 5.5000e+000 72788  1.6726e-001 -1.5155e-001  5.1230e-002 57401 72586,72690,72612
 5.5000e+000 72765 -6.0610e-001 -9.0840e-001 -1.1268e+000 57401 72638,72690,72664
 5.5000e+000 72742  2.4376e-001  9.6338e-001 -2.3287e-001 57401 72586,72716,72690
 5.5000e+000 73144  1.1780e-001  7.2767e-001 -1.7962e-001 57004 72919,72997,72945
 5.5000e+000 73121  1.8234e-001  1.4948e+000 -3.8457e-001 57004 72919,73049,72997
 5.5000e+000 73098  9.1929e-002  9.8003e-001 -3.5786e-001 57004 72945,72997,72971
 5.5000e+000 73075  2.8092e-001  1.8252e+000 -4.4910e-001 57004 72997,73049,73023
 5.5000e+000 73650 -1.3228e+000  1.7402e+000 -1.1806e+000 56592 73673,73379,73353
 5.5000e+000 73627  1.8386e+000  2.3352e+000 -1.8978e+000 56592 73673,73353,73327
 5.5000e+000 73604  1.1030e-001  1.5647e+000 -5.3982e-001 56592 73745,73509,73483
 5.5000e+000 73581 -2.4091e+000 -5.7335e-001 -3.6350e-001 56592 73379,73457,73405
 5.5000e+000 73558  3.7299e-001  3.2403e-001  1.2269e-001 56592 73379,73483,73457
 5.5000e+000 73535  2.2358e+000  5.2099e-001 -1.1536e-001 56592 73405,73457,73431
 5.5000e+000 73699 -1.0692e+000  1.1850e+000  2.7883e-001 56592 73483,73379,73673
 5.5000e+000 73722 -4.0770e-002  1.8622e+000 -6.3544e-001 56592 73745,73483,73673
 5.5000e+000 73771 -2.3032e-002  1.2211e+000 -5.7297e-001 56592 73327,73509,73745
 5.5000e+000 73794 -2.2130e-001  1.4553e+000 -7.1275e-001 56592 73327,73745,73673
 5.5000e+000 74123  1.2506e+000  8.7606e-001 -1.9956e-001 56152 74146,74002,73924
 5.5000e+000 74100  1.0800e+000  6.8380e-001 -4.2563e-002 56152 74146,73924,73898
 5.5000e+000 74077  1.4501e+000  1.1395e+000 -3.0099e-001 56152 73924,74002,73976
 5.5000e+000 74054  1.0671e+000  2.6333e-001  1.5370e-001 56152 73924,73976,73950
 5.5000e+000 74172  1.6348e+000  1.1679e+000 -3.9007e-001 56152 74028,74002,74146
 5.5000e+000 74195  1.2780e+000  7.8937e-001 -1.8853e-001 56152 74028,74146,73898
 5.5000e+000 74345 -9.3889e-001  1.1959e-001  4.5431e-001 55634 74218,74270,74244
 5.5000e+000 74322 -2.3153e-002  3.0852e-001  1.9036e-001 55634 74218,74296,74270
 5.5000e+000 74823  4.5242e-001 -1.2754e+000  4.9892e-001 55016 74918,74846,74581
 5.5000e+000 74800 -8.3895e-002  1.2213e-001  2.8089e-001 55016 74846,74477,74633
 5.5000e+000 74777 -4.0143e-001 -2.2069e+000  8.6399e-001 55016 74918,74581,74555
 5.5000e+000 74754 -8.1098e-001 -1.2570e+000  9.2168e-001 55016 74990,74503,74477
 5.5000e+000 74731 -1.4091e+000 -1.1411e-001  7.0488e-001 55016 74451,74633,74477
 5.5000e+000 74708 -1.4832e+000  9.8007e-001  3.0081e-001 55016 74451,74659,74633
 5.5000e+000 74685 -1.8740e+000 -2.3994e+000  1.7253e+000 55016 74503,74555,74529
 5.5000e+000 74872  4.2586e-001 -1.4104e+000  3.9026e-001 55016 74607,74581,74846
 5.5000e+000 74895 -4.4730e-002 -1.0888e+000  3.0477e-001 55016 74607,74846,74633
 5.5000e+000 74944 -7.8994e-001 -1.1734e+000  7.5513e-001 55016 74477,74846,74918
 5.5000e+000 74967 -8.7392e-001 -1.2527e+000  8.2966e-001 55016 74990,74477,74918
 5.5000e+000 75016 -5.9200e-001 -1.1574e+000  1.0079e+000 55016 74555,74503,74990
 5.5000e+000 75039 -6.7542e-001 -1.2066e+000  9.0031e-001 55016 74555,74990,74918
 5.5000e+000 75287 -1.9806e+000 -3.3662e+000 -5.4747e-002 54726 75310,75140,75114
 5.5000e+000 75264 -2.4922e+000 -2.1378e+000 -3.6694e-001 54726 75310,75114,75088
 5.5000e+000 75241 -2.4789e+000 -1.6152e+000 -1.3762e+000 54726 75088,75192,75166
 5.5000e+000 75218 -3.9994e+000  6.5158e-002 -1.1717e+000 54726 75062,75192,75088
 5.5000e+000 75336 -1.3437e+000 -2.6670e+000 -7.8513e-001 54726 75166,75140,75310
 5.5000e+000 75359 -2.3538e+000 -1.4525e+000 -7.9655e-001 54726 75166,75310,75088
 5.5000e+000 75946 -1.6958e-001  1.7780e-002  1.5616e-001 54322 75969,75701,75649
 5.5000e+000 75923 -5.8345e-001 -2.6939e-001  2.8386e-001 54322 75969,75649,75623
 5.5000e+000 75900 -3.3800e-001 -1.8376e-001 -6.2430e-002 54322 76041,75753,75701
 5.5000e+000 75877 -1.9072e-001  6.2981e-001  3.6013e-003 54322 75623,75805,75779
 5.5000e+000 75854 -4.3671e-001 -1.7627e-001 -1.8481e-001 54322 75701,75753,75727
 5.5000e+000 75831 -2.0881e-001 -1.7013e-001 -9.7864e-003 54322 75649,75701,75675
 5.5000e+000 75995 -4.6503e-001 -1.0465e-001  5.2103e-002 54322 76041,75701,75969
 5.5000e+000 76018 -4.4128e-001  1.0459e-001  1.4448e-001 54322 75779,75969,75623
 5.5000e+000 76067 -2.8276e-001  2.7254e-002 -1.0665e-001 54322 75779,75753,76041
 5.5000e+000 76090 -3.5958e-001  1.8230e-001  1.0735e-002 54322 75779,76041,75969
 5.5000e+000 76468 -7.7025e-002  1.5835e-001 -3.0780e-002 53868 76491,76272,76220
 5.5000e+000 76445 -7.0262e-002  1.7706e-001 -4.7315e-002 53868 76491,76220,76324
 5.5000e+000 76422  2.7600e-002  9.8113e-002 -1.0132e-001 53868 76220,76272,76246
 5.5000e+000 76399 -9.7386e-002  5.0176e-001  1.0632e-001 53868 76194,76324,76220
 5.5000e+000 76376 -5.8504e-001  3.0282e-001  1.1505e-002 53868 76194,76350,76324
 5.5000e+000 76517 -7.8492e-002  1.3106e-001 -1.8011e-002 53868 76298,76272,76491
 5.5000e+000 76540 -6.7241e-002  1.5542e-001 -3.4923e-002 53868 76298,76491,76324
 5.5000e+000 76690 -5.4059e-002  2.1728e-001 -3.9258e-002 53356 76589,76641,76615
 5.5000e+000 76667  5.3114e-002  6.9260e-001  9.3713e-003 53356 76563,76641,76589
 5.5000e+000 76938 -5.1132e-001  2.2227e-001 -6.8197e-001 53009 77105,76961,76765
 5.5000e+000 76915  3.3035e-002  4.6431e-001 -3.7137e-001 53009 76961,76713,76843
 5.5000e+000 76892 -3.1737e-001  3.6791e-001 -1.7182e-001 53009 77033,76817,76791
 5.5000e+000 76869 -1.1206e+000 -1.8557e-001 -1.2786e+000 53009 77105,76765,76739
 5.5000e+000 76987 -1.7614e-001  9.3494e-001 -4.9052e-001 53009 76791,76765,76961
 5.5000e+000 77010 -3.6773e-001  3.9932e-001 -3.9997e-001 53009 77033,76791,76961
 5.5000e+000 77059  2.8253e-002  5.1709e-001 -1.8431e-001 53009 76843,76817,77033
 5.5000e+000 77082 -4.0818e-002  5.3829e-001 -3.9452e-001 53009 76843,77033,76961
 5.5000e+000 77131  1.4676e-001  6.3197e-001 -4.2275e-001 53009 76713,76961,77105
 5.5000e+000 77154  4.6612e-002  5.8651e-001 -9.2306e-001 53009 76713,77105,76739
 5.5000e+000 77355  1.5515e+000 -2.0189e+000  8.7713e-001 52390 77378,77257,77231
 5.5000e+000 77332  1.1080e+000 -1.5009e+000  5.7940e-001 52390 77378,77231,77179
 5.5000e+000 77309  1.3377e+000 -1.7694e+000  5.7865e-002 52390 77179,77231,77205
 5.5000e+000 77404  2.0002e+000 -1.6911e+000  7.2987e-001 52390 77283,77257,77378
 5.5000e+000 77427  1.5459e+000 -1.1395e+000  4.2374e-001 52390 77283,77378,77179
 5.5000e+000 77677 -1.9756e+000  2.2234e+000 -1.8885e+000 51986 77700,77504,77478
 5.5000e+000 77654  1.3481e-001  3.1709e+000 -2.2014e+000 51986 77700,77478,77452
 5.5000e+000 77631 -9.2150e-002  1.4263e+000 -5.8333e-001 51986 77772,77556,77530
 5.5000e+000 77608 -1.9408e-001  1.3553e+000 -7.5472e-001 51986 77452,77582,77556
 5.5000e+000 77726 -5.0386e-001  2.2707e+000 -7.7749e-001 51986 77530,77504,77700
 5.5000e+000 77749  9.5514e-002  1.7803e+000 -8.8600e-001 51986 77772,77530,77700
 5.5000e+000 77798  3.2058e-001  1.6835e+000 -9.2705e-001 51986 77452,77556,77772
 5.5000e+000 77821  5.3735e-001  1.7801e+000 -1.1861e+000 51986 77452,77772,77700
 5.5000e+000 78282  9.3773e-001  8.5407e-001 -6.2292e-002 51738 78008,78138,78060
 5.5000e+000 78259  2.2312e+000  2.0994e+000 -2.0142e+000 51738 78008,78164,78138
 5.5000e+000 78236  3.9709e-001  3.2743e-002 -8.3063e-002 51738 78086,78138,78112
 5.5000e+000 78213  2.5747e-001  2.3588e-001 -3.2186e-001 51738 78060,78138,78086
 5.5000e+000 78190  1.2434e+000  6.7128e-001 -2.3909e-001 51738 78008,78060,78034
 5.5000e+000 78432 -1.6829e-001 -1.4175e-001  4.7738e-003 51148 78305,78357,78331
 5.5000e+000 78409 -1.4657e-001  6.5323e-002 -2.9254e-002 51148 78305,78383,78357
 5.5000e+000 78891 -2.9972e-001 -2.4177e-001  1.3470e-001 50808 78914,78695,78669
 5.5000e+000 78868 -2.3033e-001 -1.1103e-001  5.7795e-002 50808 78914,78669,78643
 5.5000e+000 78845 -6.0964e-002 -1.7796e-002  3.2243e-002 50808 78643,78773,78747
 5.5000e+000 78822 -5.9353e-002 -6.4784e-002  3.4398e-002 50808 78617,78773,78643
 5.5000e+000 78799 -1.3988e-001  8.1376e-002  1.7745e-001 50808 78695,78747,78721
 5.5000e+000 78940 -1.4874e-001 -1.1803e-001  6.7748e-002 50808 78747,78695,78914
 5.5000e+000 78963 -2.1592e-001 -8.0466e-002  1.7108e-002 50808 78747,78914,78643
 5.5000e+000 79260 -1.9204e-001 -2.6692e-001 -1.8277e-001 50468 79283,79090,79012
 5.5000e+000 79237 -1.9358e-001 -1.6863e-001 -1.7031e-001 50468 79283,79012,78986
 5.5000e+000 79214 -3.7074e-001 -3.4330e-001 -1.8198e-001 50468 79012,79090,79038
 5.5000e+000 79191 -1.1889e-001 -2.5348e-002 -2.2215e-001 50468 78986,79142,79116
 5.5000e+000 79168 -2.2943e-001 -3.5130e-001 -2.4760e-001 50468 79038,79090,79064
 5.5000e+000 79309 -2.3298e-001 -1.9982e-001 -2.1062e-001 50468 79116,79090,79283
 5.5000e+000 79332 -2.1789e-001 -7.9536e-002 -1.8969e-001 50468 79116,79283,78986
 5.5000e+000 79889  1.4814e+000  1.9210e+000 -7.9829e-001 50064 79569,79725,79699
 5.5000e+000 79866  3.2250e-001  1.3031e+000 -1.5742e+000 50064 79543,79725,79569
 5.5000e+000 79843  1.4758e+000  9.5245e-001 -7.4679e-001 50064 79621,79699,79673
 5.5000e+000 79820  1.6129e+000  1.2571e+000 -9.4594e-001 50064 79595,79699,79621
 5.5000e+000 79797  1.0177e+000  1.5143e+000 -1.1638e+000 50064 79569,79699,79595
 5.5000e+000 79774  1.1843e+000  2.8676e+000 -3.6801e-001 50064 79517,79725,79543
 5.5000e+000 79751  6.9111e-001  9.8811e-001 -8.2495e-001 50064 79621,79673,79647
 5.5000e+000 80169  1.5392e+000  2.0958e+000 -9.5906e-001 49724 80019,80097,80071
 5.5000e+000 80146  1.2610e+000  3.2444e+000 -1.2522e+000 49724 79993,80097,80019
 5.5000e+000 80123  9.6254e-001  1.9198e+000 -1.1237e+000 49724 80019,80071,80045
 5.5000e+000 80626 -1.0722e+000 -4.4589e-001 -2.4758e-001 49277 80352,80482,80378
 5.5000e+000 80603 -7.0510e-001 -3.4309e-001  6.8872e-002 49277 80352,80508,80482
 5.5000e+000 80580 -8.4160e-001 -3.3407e-001 -1.7620e-001 49277 80378,80482,80456
 5.5000e+000 80557 -1.0582e+000 -8.0958e-001 -1.7426e-001 49277 80378,80430,80404
 5.5000e+000 80534 -1.4104e+000 -5.6435e-001 -1.2730e-001 49277 80378,80456,80430
 5.5000e+000 81230 -2.0223e+000 -1.0316e+000  7.7930e-001 48716 81253,80835,80809
 5.5000e+000 81207 -1.3044e+000 -1.4339e-002 -3.9251e-001 48716 81397,81253,80809
 5.5000e+000 81184 -1.0690e+000  1.1195e+000 -4.8594e-001 48716 81325,80913,80887
 5.5000e+000 81161 -8.5774e-001 -8.6255e-001 -3.2653e-001 48716 81397,80809,81017
 5.5000e+000 81138 -1.6506e+000  7.0122e-001 -8.3037e-001 48716 81469,80965,80913
 5.5000e+000 81115 -7.8437e-001  1.5076e-001  1.0047e+000 48716 80835,80887,80861
 5.5000e+000 81092  4.1048e-001 -1.6223e+000  1.7361e+000 48716 80809,81043,81017
 5.5000e+000 81069 -1.7740e+000 -8.2190e-001 -1.8685e+000 48716 80913,80965,80939
 5.5000e+000 81279  5.4523e-001  4.6349e-001  1.2408e-001 48716 80887,80835,81253
 5.5000e+000 81302 -1.6281e+000  8.2743e-001 -6.5465e-001 48716 81325,80887,81253
 5.5000e+000 81351 -1.2600e+000  7.9833e-001 -6.7334e-001 48716 81469,80913,81325
 5.5000e+000 81374 -1.4773e+000  1.4049e+000 -6.1878e-001 48716 80991,81325,81253
 5.5000e+000 81423 -1.2042e+000  1.1211e+000  2.2361e-002 48716 80991,81253,81397
 5.5000e+000 81446 -9.0955e-001  6.9610e-002  1.0606e-001 48716 80991,81397,81017
 5.5000e+000 81495 -2.3482e+000  9.6835e-001 -9.4488e-001 48716 80991,80965,81469
 5.5000e+000 81518 -2.0474e+000  9.7984e-001 -8.0592e-001 48716 80991,81469,81325
 5.5000e+000 81717 -9.6291e-002 -1.1027e-002 -6.8092e-002 48262 81740,81567,81541
 5.5000e+000 81694  9.1034e-003  5.0647e-002 -9.6144e-002 48262 81740,81541,81645
 5.5000e+000 81671 -1.0482e-001 -2.3419e-001 -6.1256e-002 48262 81567,81619,81593
 5.5000e+000 81766 -3.7013e-002 -6.4266e-002  5.6735e-003 48262 81619,81567,81740
 5.5000e+000 81789  5.9407e-002 -1.4382e-002 -1.8357e-002 48262 81619,81740,81645
 5.5000e+000 81939  1.5487e+000  2.6914e+000 -5.0510e-001 47957 82034,81962,81864
 5.5000e+000 81916  4.6568e-001  1.9972e+000 -7.0942e-001 47957 82166,81962,81838
 5.5000e+000 81988  1.8799e+000  2.3958e+000  3.4484e-001 47957 82294,81962,81890
 5.5000e+000 82011  1.4424e+000  2.1466e+000  2.9602e-002 47957 81890,81962,81812
 5.5000e+000 82060  1.5277e+000  2.9675e+000 -2.9339e-001 47957 81838,81962,82034
 5.5000e+000 82192  2.8613e-002  1.9227e+000  4.5824e-001 47957 81812,81962,82166
 5.5000e+000 82320  2.5596e+000  2.2754e+000  2.1674e-002 47957 81864,81962,82294
 5.5000e+000 82549 -2.1273e-001 -1.7428e-001 -1.3395e-001 47617 82448,82500,82474
 5.5000e+000 82526  3.5551e-002  3.4425e-001 -3.7665e-002 47617 82422,82500,82448
 5.5000e+000 82902  3.3861e-001  2.7003e-001 -1.3612e-001 47255 82729,82807,82755
 5.5000e+000 82879  8.3064e-001  1.1507e+000  6.2041e-002 47255 82703,82807,82729
 5.5000e+000 82856  2.9331e-001  3.7156e-001 -4.0817e-002 47255 82755,82807,82781
 5.5000e+000 82833  1.3480e+000  1.3724e+000  1.1413e-001 47255 82677,82807,82703
 5.5000e+000 83182  1.3920e-001 -8.3477e-001  3.7492e-001 46680 83032,83084,83058
 5.5000e+000 83159  5.4232e-001 -4.8345e-001  5.9449e-001 46680 83205,83084,83032
 5.5000e+000 83136 -4.5128e-001  1.6046e-002  4.6931e-001 46680 83006,83110,83084
 5.5000e+000 83231  9.9136e-001 -5.1750e-002  8.2354e-001 46680 83006,83084,83205
 5.5000e+000 83737 -1.8170e+000 -5.5552e-001  3.2565e-001 46290 83832,83760,83492
 5.5000e+000 83714 -1.8197e+000 -2.6689e-001  2.6929e-001 46290 83760,83440,83414
 5.5000e+000 83691 -1.4008e+000 -8.1622e-001  2.4973e-001 46290 83832,83492,83466
 5.5000e+000 83668 -1.4984e+000 -1.3998e+000  4.8008e-001 46290 83492,83570,83544
 5.5000e+000 83645 -2.3651e+000 -7.6659e-001  5.3990e-002 46290 83414,83596,83570
 5.5000e+000 83622 -1.3623e+000 -1.0098e+000  7.4166e-001 46290 83492,83544,83518
 5.5000e+000 83786 -1.7311e+000 -5.1005e-001  2.5015e-001 46290 83570,83492,83760
 5.5000e+000 83809 -1.8160e+000 -6.7606e-001  7.2410e-002 46290 83570,83760,83414
 5.5000e+000 83858 -1.2871e+000 -2.3123e-001  4.7918e-001 46290 83440,83760,83832
 5.5000e+000 83881 -5.7184e-001 -4.5829e-001  3.2569e-001 46290 83440,83832,83466
 5.5000e+000 84161  4.8284e-003 -5.4686e-001  1.5690e-002 45829 84011,84063,84037
 5.5000e+000 84138 -2.4354e-001 -5.2414e-001 -7.8110e-002 45829 84011,84089,84063
 5.5000e+000 84115 -3.2341e-002 -4.2926e-001  8.3677e-003 45829 83985,84089,84011
 5.5000e+000 84311  9.7080e-001  1.2572e+000  1.4354e-001 45631 84184,84236,84210
 5.5000e+000 84288  5.4615e-001  4.5593e-002  5.2397e-002 45631 84184,84262,84236
 5.5000e+000 84657 -1.9818e-001 -2.9892e-001 -6.9970e-002 45155 84680,84490,84412
 5.5000e+000 84634 -2.4806e-001 -2.0268e-001 -3.3407e-002 45155 84680,84412,84360
 5.5000e+000 84611 -3.3241e-001 -3.9515e-001  4.3769e-002 45155 84412,84490,84438
 5.5000e+000 84588 -3.5737e-002 -1.2987e-002 -6.6088e-002 45155 84334,84516,84360
 5.5000e+000 84565 -2.0375e-001 -7.3339e-002 -3.4370e-001 45155 84360,84412,84386
 5.5000e+000 84542 -2.9239e-001 -4.3012e-001  1.8608e-002 45155 84438,84490,84464
 5.5000e+000 84706 -2.0238e-001 -2.0662e-001 -8.9903e-002 45155 84516,84490,84680
 5.5000e+000 84729 -2.4329e-001 -1.0166e-001 -6.7629e-002 45155 84516,84680,84360
 5.5000e+000 85077 -7.8946e-002 -4.6387e-001 -2.3550e-001 44508 85100,84754,84910
 5.5000e+000 85054 -1.6811e-001  1.4981e-002 -8.5730e-002 44508 84754,84936,84910
 5.5000e+000 85031 -4.8241e-001 -8.2999e-001  8.7636e-002 44508 85100,84910,84884
 5.5000e+000 85008 -3.8298e-001 -6.1080e-002 -4.2879e-001 44508 84780,84884,84832
 5.5000e+000 84985 -4.2572e-001 -1.6305e-001 -4.2956e-001 44508 84780,84832,84806
 5.5000e+000 84962 -1.1152e+000 -8.2651e-001 -6.2359e-002 44508 84832,84884,84858
 5.5000e+000 85126 -4.0885e-001  6.9964e-002 -5.3106e-001 44508 84780,84754,85100
 5.5000e+000 85149 -7.1493e-001 -2.9007e-001 -2.3688e-001 44508 84780,85100,84884
 5.5000e+000 85482  8.6685e-002 -1.1723e-001 -1.0795e-001 44104 85335,85387,85361
 5.5000e+000 85459  3.1363e-002 -3.9277e-001 -5.0884e-002 44104 85309,85387,85335
 5.5000e+000 85436 -2.4614e-002 -2.8012e-001 -1.5039e-001 44104 85257,85387,85309
 5.5000e+000 85413 -1.1949e-001 -1.6496e-001 -2.1954e-002 44104 85257,85309,85283
 5.5000e+000 85811 -2.7721e-001 -3.4865e-001 -1.5431e-001 43600 85586,85664,85612
 5.5000e+000 85788 -2.3853e-001 -8.7839e-002 -1.0735e-001 43600 85586,85690,85664
 5.5000e+000 85765 -1.2113e-001  1.2834e-001 -2.1030e-001 43600 85586,85716,85690
 5.5000e+000 85742 -3.1021e-001 -2.9020e-001 -2.7408e-001 43600 85612,85664,85638
 5.5000e+000 86010  2.2306e-001  5.3171e-002 -2.0944e-001 43224 85886,85938,85912
 5.5000e+000 85987  2.3829e-001  3.0760e-002 -1.7954e-001 43224 85834,85938,85886
 5.5000e+000 85964  1.9383e-001 -7.2209e-001 -1.3410e-001 43224 85834,85886,85860
 5.5000e+000 86420  2.5695e+000  1.0672e+000 -4.0327e-002 42820 86195,86299,86221
 5.5000e+000 86397  2.4428e+000  2.1648e+000 -8.5386e-001 42820 86195,86325,86299
 5.5000e+000 86374  1.6592e+000  1.2758e+000  3.8116e-001 42820 86221,86299,86273
 5.5000e+000 86351  1.2246e+000  9.3619e-001 -6.9873e-002 42820 86221,86273,86247
 5.5000e+000 86749  4.9078e-001 -5.1306e-001 -1.6186e-001 42223 86550,86602,86576
 5.5000e+000 86726  2.1311e+000 -1.1548e+000  1.3573e-001 42223 86550,86628,86602
 5.5000e+000 86703  5.6534e-001 -1.6080e+000  9.0911e-001 42223 86524,86628,86550
 5.5000e+000 86680  1.5392e+000  5.2554e-001  6.2874e-001 42223 86524,86654,86628
 5.5000e+000 87078  6.9792e-001 -2.7283e-001  2.6194e-001 41883 87173,87101,86905
 5.5000e+000 87055  5.1098e-001  8.1625e-001  9.8387e-002 41883 87101,86879,86853
 5.5000e+000 87032  1.1476e-001  1.3513e-001 -6.8468e-002 41883 86853,86983,86931
 5.5000e+000 87009  1.5016e-001  3.8304e-001 -1.8670e-001 41883 86931,86983,86957
 5.5000e+000 87127  1.0877e+000  3.5072e-001 -1.8259e-001 41883 86931,86905,87101
 5.5000e+000 87150  1.2379e-001 -7.2468e-002 -7.2787e-002 41883 86931,87101,86853
 5.5000e+000 87199  2.3577e-001  1.0602e-001  3.5536e-001 41883 86879,87101,87173
 5.5000e+000 87558 -4.1405e-002  7.7086e-001 -2.8112e-001 41471 87382,87460,87408
 5.5000e+000 87535 -1.2635e+000  7.3895e-001 -1.9426e-001 41471 87382,87486,87460
 5.5000e+000 87512  2.1535e-001  1.3610e-001 -1.4387e-001 41471 87408,87460,87434
 5.5000e+000 87806  1.3364e-001  9.0482e-002 -4.5739e-001 41017 87829,87607,87581
 5.5000e+000 87783  1.1909e-001 -2.2383e-001 -1.0251e-001 41017 87829,87581,87685
 5.5000e+000 87760  4.5079e-001 -3.8988e-002 -2.1373e-001 41017 87581,87711,87685
 5.5000e+000 87737  2.7107e-001 -7.9187e-001 -2.8114e-002 41017 87633,87685,87659
 5.5000e+000 87855 -8.6479e-002 -9.0901e-002 -2.4388e-001 41017 87633,87607,87829
 5.5000e+000 87878 -1.7977e-001 -4.4651e-001  1.2093e-001 41017 87633,87829,87685
 5.5000e+000 88258  1.9958e-002  2.3116e-002 -1.2326e-002 40613 88281,88036,88010
 5.5000e+000 88235  1.5717e-002  2.9593e-002 -1.0741e-002 40613 88281,88010,88088
 5.5000e+000 88212  5.4568e-003  3.2730e-002 -1.4975e-002 40613 87984,88088,88010
 5.5000e+000 88189 -7.5995e-003 -3.3380e-004 -5.3112e-003 40613 87984,88114,88088
 5.5000e+000 88166  1.3308e-002  2.9836e-002 -1.7320e-002 40613 87984,88140,88114
 5.5000e+000 88307  1.6301e-002  1.5587e-002 -1.7394e-002 40613 88062,88036,88281
 5.5000e+000 88330  1.3338e-002  2.6152e-002 -1.6819e-002 40613 88062,88281,88088
 5.5000e+000 88649  4.0734e-003  9.3653e-002  5.1267e-003 40095 88375,88505,88401
 5.5000e+000 88626  1.0716e-002  6.8929e-002  1.7763e-002 40095 88375,88531,88505
 5.5000e+000 88603 -2.2327e-002  1.1117e-001  1.6703e-002 40095 88401,88505,88479
 5.5000e+000 88580 -1.5251e-001  1.8448e-001  1.6262e-002 40095 88427,88479,88453
 5.5000e+000 88557  2.4990e-002  1.9532e-001 -6.3228e-003 40095 88401,88479,88427
 5.5000e+000 89078  7.6388e-001 -1.3405e+000 -6.8506e-001 39897 89101,88833,88807
 5.5000e+000 89055  9.6957e-002 -1.6335e+000 -7.8931e-001 39897 89101,88807,88911
 5.5000e+000 89032 -7.1430e-001 -1.2681e+000 -1.3776e+000 39897 88781,88911,88807
 5.5000e+000 89009 -1.3063e+000 -1.7147e+000 -1.6853e+000 39897 88781,88937,88911
 5.5000e+000 88986  2.7645e+000  2.9973e-001 -5.1112e-001 39897 88833,88885,88859
 5.5000e+000 88963 -1.8839e+000 -1.5105e+000 -2.0338e+000 39897 88755,88937,88781
 5.5000e+000 89127  1.3689e+000 -1.7632e+000 -1.2969e+000 39897 88885,88833,89101
 5.5000e+000 89150  3.2804e-001 -2.2769e+000 -1.5104e+000 39897 88885,89101,88911
 5.5000e+000 89300 -1.6254e+000 -1.5905e+000  6.1076e-001 39607 89453,89323,89199
 5.5000e+000 89277 -2.4037e+000 -1.0098e+000  4.7588e-001 39607 89525,89453,89199
 5.5000e+000 89349 -1.1888e+000 -1.4746e+000 -2.3310e-002 39607 89225,89199,89323
 5.5000e+000 89479 -1.2424e+000 -6.8813e-001  4.2028e-001 39607 89251,89323,89453
 5.5000e+000 89502 -1.2669e+000 -1.1680e-001  1.0852e+000 39607 89251,89453,89173
 5.5000e+000 89551 -1.0392e+000 -6.7363e-001  6.4457e-001 39607 89173,89453,89525
 5.5000e+000 90264 -1.1183e+000 -1.7837e+000 -3.9717e-001 39039 89996,90074,90048
 5.5000e+000 90241 -6.7651e-001 -8.6437e-001 -2.4431e-001 39039 89918,90074,89996
 5.5000e+000 90218 -1.0842e+000 -1.0602e+000 -3.1126e-002 39039 89918,89996,89944
 5.5000e+000 90195 -1.3693e+000 -9.7742e-001  1.0058e-002 39039 89892,90074,89918
 5.5000e+000 90172 -2.0963e-001 -1.7106e+000 -4.4619e-001 39039 89996,90048,90022
 5.5000e+000 90149 -1.9716e+000  7.2284e-001 -1.0299e-001 39039 89892,90100,90074
 5.5000e+000 90126 -1.2534e+000 -1.1273e+000 -1.3312e-001 39039 89944,89996,89970
 5.5000e+000 90770 -4.0178e-001 -4.8152e-001 -7.3882e-002 38635 90473,90603,90577
 5.5000e+000 90747 -2.5243e-001 -4.5024e-001 -1.0583e-002 38635 90447,90603,90473
 5.5000e+000 90724 -3.7935e-001 -6.4393e-001 -8.0488e-002 38635 90499,90577,90551
 5.5000e+000 90701 -3.7684e-001 -6.5031e-001 -6.8155e-002 38635 90473,90577,90499
 5.5000e+000 90678 -2.9417e-001 -7.9625e-001 -9.0307e-002 38635 90499,90551,90525
 5.5000e+000 90655 -3.7792e-001 -3.5584e-001  2.9850e-002 38635 90447,90629,90603
 5.5000e+000 90871 -1.1770e-001 -3.1389e-001 -1.5077e-001 38231 90793,90845,90819
 5.5000e+000 91458  2.0560e-001 -2.2219e-001 -1.0192e-001 37534 91161,91317,91291
 5.5000e+000 91435  5.0767e-002  5.3552e-004  5.7677e-002 37534 91135,91317,91161
 5.5000e+000 91412 -2.1293e-001 -9.8009e-001 -4.8805e-001 37534 91187,91291,91239
 5.5000e+000 91389  3.4333e-002 -1.0042e+000  4.5773e-002 37534 91161,91291,91187
 5.5000e+000 91366  5.7704e-002 -5.9531e-001 -3.4185e-001 37534 91239,91291,91265
 5.5000e+000 91343  7.2440e-001 -9.7428e-001 -8.9065e-001 37534 91187,91239,91213
 5.5000e+000 91915 -6.5220e-001 -6.7682e-001  1.9835e-002 37080 91938,91745,91667
 5.5000e+000 91892 -6.2975e-001 -5.8282e-001  1.4443e-001 37080 91938,91667,91797
 5.5000e+000 91869 -8.5989e-001  1.6769e-001 -1.5159e-001 37080 91641,91797,91667
 5.5000e+000 91846 -7.9396e-001 -7.5278e-001  8.1426e-002 37080 91667,91719,91693
 5.5000e+000 91823 -7.6345e-001 -7.0182e-001  3.2197e-002 37080 91667,91745,91719
 5.5000e+000 91964 -5.6601e-001 -4.6764e-001  2.1256e-002 37080 91771,91745,91938
 5.5000e+000 91987 -6.0715e-001 -5.1359e-001  1.5119e-001 37080 91771,91938,91797
 5.5000e+000 92235 -4.5147e-001 -5.2160e-001 -3.3211e-002 36397 92036,92088,92062
 5.5000e+000 92212 -3.3049e-001 -3.8881e-001 -8.4822e-002 36397 92036,92114,92088
 5.5000e+000 92189 -1.8059e-001 -2.7604e-001 -3.8469e-003 36397 92036,92140,92114
 5.5000e+000 92166 -2.7109e-001 -2.0043e-001  2.9025e-003 36397 92010,92140,92036
 5.5000e+000 92694 -1.7397e-001 -6.1202e-003  3.2331e-002 36057 92446,92498,92472
 5.5000e+000 92671 -7.8805e-002  1.8773e-001  6.4889e-002 36057 92446,92550,92498
 5.5000e+000 92648  1.0375e-001 -2.9955e-002  3.0305e-002 36057 92446,92576,92550
 5.5000e+000 92625 -2.8240e-002 -9.7617e-002  5.5563e-002 36057 92420,92576,92446
 5.5000e+000 92602 -1.1196e-001 -6.9374e-002 -2.1197e-001 36057 92498,92550,92524
 5.5000e+000 93023 -4.9577e-001 -4.3615e-001 -1.1392e-001 35717 92876,92928,92902
 5.5000e+000 93000 -4.4313e-001 -4.6856e-001 -1.2605e-001 35717 92824,92928,92876
 5.5000e+000 92977 -2.0903e-001 -4.4064e-001 -7.5593e-002 35717 92798,92928,92824
 5.5000e+000 92954 -3.7456e-001 -5.5828e-001 -4.8712e-001 35717 92824,92876,92850
 5.5000e+000 93499  1.5683e-001 -6.5102e-001  2.9826e-001 35405 93522,93309,93257
 5.5000e+000 93476  3.4284e-001 -4.0469e-001  2.1720e-001 35405 93666,93522,93257
 5.5000e+000 93453  1.9682e-001 -2.1346e+000  2.8378e-001 35405 93594,93127,93335
 5.5000e+000 93430  3.2155e-002 -3.2993e-001  3.7335e-002 35405 93666,93257,93231
 5.5000e+000 93407 -7.4968e-001 -2.6640e+000 -6.6510e-001 35405 93127,93179,93153
 5.5000e+000 93384 -1.0685e+000  1.2337e-001  3.9879e-001 35405 93179,93231,93205
 5.5000e+000 93361  5.1561e-001  6.3530e-001  1.6767e-001 35405 93257,93309,93283
 5.5000e+000 93548  8.4310e-001 -1.7025e-001  8.1291e-001 35405 93335,93309,93522
 5.5000e+000 93571  3.8517e-001 -1.0908e+000  4.8023e-001 35405 93594,93335,93522
 5.5000e+000 93620  1.8083e-001 -1.0070e+000  1.6984e-001 35405 93179,93127,93594
 5.5000e+000 93643 -5.1196e-002 -5.5873e-001  1.6580e-001 35405 93738,93594,93522
 5.5000e+000 93692  4.1654e-002 -5.7133e-001  9.6115e-002 35405 93738,93522,93666
 5.5000e+000 93715 -1.6968e-001 -5.7373e-001 -7.9886e-002 35405 93179,93666,93231
 5.5000e+000 93764 -9.4622e-002 -6.4530e-001  2.1044e-001 35405 93179,93594,93738
 5.5000e+000 93787 -5.5432e-002 -6.8118e-001  1.4690e-001 35405 93179,93738,93666
 5.5000e+000 94372  5.3669e-001 -4.5961e-003 -4.8890e-002 34951 94395,94127,94075
 5.5000e+000 94349  1.0062e+000 -5.8335e-002  1.0548e-001 34951 94395,94075,94231
 5.5000e+000 94326  8.5039e-002 -4.6371e-001  2.9808e-002 34951 94049,94231,94075
 5.5000e+000 94303 -3.5142e-001 -4.6599e-001  5.2148e-001 34951 94075,94127,94101
 5.5000e+000 94280  1.2332e+000  2.0288e-001  4.0450e-001 34951 94127,94205,94153
 5.5000e+000 94257  1.4225e+000  2.4980e-001  6.3082e-001 34951 94153,94205,94179
 5.5000e+000 94421  9.1572e-001 -1.4258e-001  2.3717e-001 34951 94205,94127,94395
 5.5000e+000 94444  1.7817e+000  5.0685e-002  3.6526e-001 34951 94205,94395,94231
 5.5000e+000 94692 -5.0418e-002  1.6120e-002  3.3453e-003 34397 94715,94519,94467
 5.5000e+000 94669 -3.9373e-002 -2.4813e-002 -1.0518e-002 34397 94715,94467,94597
 5.5000e+000 94646 -4.0671e-002 -3.0066e-002  1.6332e-002 34397 94545,94597,94571
 5.5000e+000 94623  2.1358e-002  1.8991e-001 -7.8484e-003 34397 94467,94519,94493
 5.5000e+000 94741 -3.4574e-003  1.4840e-001  2.9413e-002 34397 94545,94519,94715
 5.5000e+000 94764 -5.5853e-002  1.7914e-002  5.7176e-003 34397 94545,94715,94597
 5.5000e+000 94985 -8.4190e-002  1.4191e-001 -1.4501e-002 33985 94835,94913,94887
 5.5000e+000 94962  7.2055e-002  5.4823e-001 -6.5267e-002 33985 94809,94913,94835
 5.5000e+000 94939  6.1362e-002  1.7904e-001 -3.7951e-002 33985 94835,94887,94861
 5.5000e+000 95186 -2.7598e-001 -4.4653e-001 -3.0965e-001 33645 95281,95209,95036
 5.5000e+000 95163  3.0314e-002 -6.6003e-001  4.7725e-002 33645 95209,95010,95088
 5.5000e+000 95140  2.7815e-001 -2.7663e-001 -7.0528e-002 33645 95010,95114,95088
 5.5000e+000 95235 -5.7852e-001 -5.0896e-001 -2.1594e-001 33645 95062,95036,95209
 5.5000e+000 95258 -4.1195e-001 -8.3189e-001  2.5609e-001 33645 95413,95209,95088
 5.5000e+000 95307 -1.2812e-001 -3.0288e-001 -3.6838e-001 33645 95010,95209,95281
 5.5000e+000 95439 -3.4981e-001 -6.7750e-001  2.0570e-001 33645 95062,95209,95413
 5.5000e+000 95766 -4.4094e-001  2.2023e-001 -5.8969e-001 33141 95789,95593,95567
 5.5000e+000 95743 -1.0650e-001 -5.9365e-002 -2.0895e-001 33141 95861,95789,95567
 5.5000e+000 95720 -1.4257e-001  2.1928e-002 -5.6224e-002 33141 95861,95567,95671
 5.5000e+000 95697 -1.4449e-001 -4.4118e-002 -7.7751e-002 33141 95541,95671,95567
 5.5000e+000 95815 -1.4871e-001  9.3789e-001 -5.2122e-001 33141 95619,95593,95789
 5.5000e+000 95838 -2.8690e-002  3.1112e-001 -2.1945e-001 33141 95619,95789,95645
 5.5000e+000 95887  1.5326e-002  2.1205e-001 -2.3356e-001 33141 95645,95789,95861
 5.5000e+000 95910 -3.4154e-002  2.8726e-001 -6.0614e-002 33141 95645,95861,95671
 5.5000e+000 96060 -5.4370e-001 -2.7796e-001 -3.2734e-001 32487 95959,96011,95985
 5.5000e+000 96037 -1.4217e-001 -2.2731e-001 -7.6692e-002 32487 95933,96011,95959
 5.5000e+000 96570 -2.3397e-001 -1.1327e-001  9.7354e-002 32033 96665,96593,96377
 5.5000e+000 96547 -3.9320e-001  1.6220e-001 -2.7829e-001 32033 96737,96593,96325
 5.5000e+000 96524 -2.6879e-001 -2.0725e-001  3.0098e-002 32033 96665,96377,96351
 5.5000e+000 96501 -3.9854e-001  3.2371e-001 -2.2340e-001 32033 96737,96325,96299
 5.5000e+000 96478 -3.4665e-001  2.6541e-001 -2.2044e-001 32033 96247,96429,96299
 5.5000e+000 96455 -7.2788e-001 -7.9051e-001 -2.0051e-001 32033 96247,96299,96273
 5.5000e+000 96619  4.9590e-002  5.8774e-002  4.7362e-002 32033 96809,96593,96403
 5.5000e+000 96642  2.7768e-001  6.6606e-001 -6.0771e-001 32033 96403,96593,96429
 5.5000e+000 96691 -7.3817e-002 -3.3856e-001 -1.3734e-002 32033 96325,96593,96665
 5.5000e+000 96714 -2.1070e-001 -5.1149e-001 -1.0548e-001 32033 96325,96665,96351
 5.5000e+000 96763 -4.3688e-001  6.7606e-002 -3.5121e-001 32033 96429,96593,96737
 5.5000e+000 96786 -4.3696e-001  1.8225e-001 -2.7892e-001 32033 96429,96737,96299
 5.5000e+000 96835  5.4591e-003  1.7390e-002  2.8640e-002 32033 96377,96593,96809
 5.5000e+000 97064  2.0042e-002  7.6174e-002  2.2463e-002 31671 97087,96989,96963
 5.5000e+000 97041  2.6915e-002  7.9062e-002  2.2377e-002 31671 97087,96963,96937
 5.5000e+000 97113 -4.3952e-002  3.7411e-002  4.9920e-002 31671 97159,97087,97015
 5.5000e+000 97136  2.5994e-003  1.5755e-002  3.1049e-002 31671 97015,97087,96937
 5.5000e+000 97185  4.0783e-002  1.4493e-001  1.2328e-002 31671 96989,97087,97159
 5.5000e+000 97563 -1.5350e-002  1.1943e-001  2.0017e-002 31117 97586,97367,97341
 5.5000e+000 97540  8.2243e-003  7.3874e-002 -2.2468e-002 31117 97658,97586,97341
 5.5000e+000 97517  3.4118e-002  5.1147e-002 -1.2132e-002 31117 97658,97341,97315
 5.5000e+000 97494 -6.3389e-002  1.1236e-002 -7.1876e-003 31117 97289,97445,97315
 5.5000e+000 97471 -5.1416e-002 -9.4868e-003  8.7664e-003 31117 97367,97419,97393
 5.5000e+000 97612 -2.5510e-002 -1.8484e-002  4.0492e-002 31117 97419,97367,97586
 5.5000e+000 97635 -3.9182e-002  4.2290e-002 -4.4259e-002 31117 97419,97586,97445
 5.5000e+000 97684 -3.1822e-002  5.5701e-002 -1.4199e-002 31117 97445,97586,97658
 5.5000e+000 97707 -2.8712e-003  3.4830e-002 -4.0112e-003 31117 97445,97658,97315
 5.5000e+000 98215 -2.0714e-001  2.9347e-002 -2.7983e-001 30563 98238,97996,97944
 5.5000e+000 98192 -3.3005e-001  1.0011e-001 -2.6661e-001 30563 98310,98238,97944
 5.5000e+000 98169 -4.5677e-001 -2.2883e-001 -2.8073e-001 30563 98310,97944,97918
 5.5000e+000 98146 -1.7856e-001  1.9167e-002  4.1947e-002 30563 97892,98074,97918
 5.5000e+000 98123 -1.1192e-001  4.1259e-001 -2.7243e-001 30563 97996,98048,98022
 5.5000e+000 98100 -2.9010e-001  1.4764e-001 -5.0570e-001 30563 97944,97996,97970
 5.5000e+000 98264 -2.0389e-001  1.1321e-001 -2.7460e-001 30563 98048,97996,98238
 5.5000e+000 98287 -1.6157e-001  4.2282e-001 -4.5208e-003 30563 98048,98238,98074
 5.5000e+000 98336 -3.4661e-001 -6.5111e-002 -3.9018e-002 30563 98074,98238,98310
 5.5000e+000 98359 -3.6050e-001 -1.5946e-001 -3.1041e-002 30563 98074,98310,97918
 5.5000e+000 98607 -7.4632e-001  2.1091e-001 -6.9181e-003 30073 98630,98460,98408
 5.5000e+000 98584 -1.1009e+000  1.8174e-001 -6.3843e-002 30073 98630,98408,98382
 5.5000e+000 98561 -3.1420e-001  3.6728e-001 -1.9877e-001 30073 98382,98512,98486
 5.5000e+000 98538 -5.4620e-001  1.1838e-001  1.6207e-001 30073 98408,98460,98434
 5.5000e+000 98656 -5.6447e-001  9.3196e-002 -7.7248e-002 30073 98486,98460,98630
 5.5000e+000 98679 -8.0210e-001  1.5651e-001 -1.2939e-001 30073 98486,98630,98382
 5.5000e+000 99157  2.9280e-001 -1.8417e-001  2.0736e-001 29669 99180,98837,98811
 5.5000e+000 99134  3.2687e-001 -3.2237e-002  2.3107e-001 29669 99324,99180,98811
 5.5000e+000 99111  4.9652e-001  4.8632e-001 -2.9738e-001 29669 99252,98863,98837
 5.5000e+000 99088  2.2814e-001 -3.3372e-001  3.2684e-001 29669 99324,98811,98993
 5.5000e+000 99065 -7.4646e-001  7.5543e-001  1.4304e-001 29669 98863,98941,98915
 5.5000e+000 99042 -2.1222e-001  6.6987e-001  2.9603e-001 29669 98863,98915,98889
 5.5000e+000 99019 -9.5588e-003 -3.7363e-001  6.5820e-001 29669 98785,98993,98811
 5.5000e+000 99206  3.3657e-001 -1.4892e-001 -7.2874e-002 29669 99252,98837,99180
 5.5000e+000 99229 -7.7921e-002  2.5341e-001  1.5205e-001 29669 98941,99180,98967
 5.5000e+000 99278  1.2119e-001  9.7425e-001 -2.1769e-001 29669 98941,98863,99252
 5.5000e+000 99301  2.2695e-001  6.8440e-001  1.7277e-002 29669 98941,99252,99180
 5.5000e+000 99350  1.8136e-001  3.4376e-001  1.7896e-001 29669 98967,99180,99324
 5.5000e+000 99373  1.7507e-001  1.1546e-001  2.2603e-001 29669 98967,99324,98993
 5.5000e+000 99958  3.6991e-001  6.4461e-001  1.5719e-001 29051 99981,99765,99739
 5.5000e+000 99935 -3.0356e-002  6.8575e-002 -1.7358e-002 29051 99981,99739,99661
 5.5000e+000 99912  4.8097e-001 -4.4817e-001 -3.2675e-001 29051 99765,99817,99791
 5.5000e+000 99889 -8.2910e-001 -4.5670e-001  5.1405e-001 29051 99635,99817,99661
 5.5000e+000 99866 -1.0056e+000 -9.7671e-003  6.9095e-001 29051 99661,99739,99687
 5.5000e+000 99843 -1.2334e+000  3.0072e-001  3.5844e-001 29051 99687,99739,99713
 5.5000e+000 100007  5.9798e-001  7.8646e-002  2.0979e-001 29051 99817,99765,99981
 5.5000e+000 100030  4.1449e-001 -1.8385e-001  1.2919e-001 29051 99817,99981,99661
 5.5000e+000 100278  9.1773e-001  6.1529e-001  9.2344e-002 28525 100445,100301,100131
 5.5000e+000 100255  3.3423e-001  5.0318e-001  1.7155e-002 28525 100373,100301,100079
 5.5000e+000 100232  3.0996e-001  7.6274e-002  8.0135e-002 28525 100373,100079,100053
 5.5000e+000 100209  7.2089e-001  8.4835e-001 -1.2437e-001 28525 100445,100131,100105
 5.5000e+000 100327  1.7323e+000  3.1003e-001  3.6518e-002 28525 100517,100301,100157
 5.5000e+000 100350  6.1046e-001  3.9436e-001 -3.1220e-001 28525 100157,100301,100183
 5.5000e+000 100399  3.0141e-001  6.0035e-002  2.3449e-001 28525 100183,100301,100373
 5.5000e+000 100422  3.7526e-001 -2.4358e-001  2.9236e-001 28525 100183,100373,100053
 5.5000e+000 100471  6.5397e-001  3.6027e-001 -1.2356e-001 28525 100079,100301,100445
 5.5000e+000 100494  1.7785e-001  3.4122e-001 -3.8759e-001 28525 100079,100445,100105
 5.5000e+000 100543  1.3644e+000  2.5187e-001 -7.3948e-002 28525 100131,100301,100517
 5.5000e+000 101209 -1.4853e+000  3.7027e-001  4.4373e-002 28185 100938,101016,100990
 5.5000e+000 101186 -1.6109e+000  1.7288e-002 -1.6561e-001 28185 100912,101016,100938
 5.5000e+000 101163 -5.0480e-001  3.7204e-001 -4.5203e-002 28185 100912,101068,101016
 5.5000e+000 101140 -2.0106e+000 -4.2863e-001 -4.4533e-001 28185 100886,101068,100912
 5.5000e+000 101117 -5.6862e-001  1.5444e-001 -4.2164e-002 28185 101016,101068,101042
 5.5000e+000 101094 -3.9551e+000 -4.5750e-001  9.4859e-002 28185 100938,100990,100964
 5.5000e+000 101408  1.3183e-001  5.3209e-002 -2.5592e-001 27781 101503,101431,101310
 5.5000e+000 101385 -2.2285e-001  5.3841e-001 -5.2359e-001 27781 101431,101258,101232
 5.5000e+000 101362  2.8095e-001 -9.7715e-003 -3.2391e-001 27781 101503,101310,101284
 5.5000e+000 101457  7.8195e-001  4.3880e-001 -4.2439e-001 27781 101336,101310,101431
 5.5000e+000 101480  2.4168e-001  8.1723e-001 -7.5524e-001 27781 101575,101431,101232
 5.5000e+000 101529  3.6174e-001  1.7522e-001 -4.7597e-001 27781 101258,101431,101503
 5.5000e+000 101552  1.8098e-001 -2.8372e-001 -2.9604e-001 27781 101705,101503,101284
 5.5000e+000 101601  3.1129e-001  8.6585e-001 -8.0448e-001 27781 101336,101431,101575
 5.5000e+000 101731 -4.4683e-002 -5.1907e-003 -4.4399e-001 27781 101258,101503,101705
 5.5000e+000 102237 -7.7758e-001 -2.2961e-001  5.7045e-002 27419 102476,102260,101992
 5.5000e+000 102214 -5.4203e-001 -3.5264e-001 -4.2080e-002 27419 102260,101940,101914
 5.5000e+000 102191 -8.2720e-001 -4.0367e-001  1.1272e-001 27419 102404,102332,102096
 5.5000e+000 102168 -7.2585e-001 -3.5459e-001  2.1876e-002 27419 102404,102096,102044
 5.5000e+000 102145 -7.2442e-001 -2.6987e-001  8.8039e-002 27419 102476,101992,101966
 5.5000e+000 102122 -4.7147e-001 -4.3811e-001  7.6858e-003 27419 102044,102096,102070
 5.5000e+000 102286 -1.0137e+000 -4.3237e-001  1.6498e-001 27419 102018,101992,102260
 5.5000e+000 102309 -7.8431e-001 -3.1506e-001  1.4986e-002 27419 102332,102018,102260
 5.5000e+000 102358 -8.5256e-001 -7.3251e-001  2.4201e-001 27419 101914,102096,102332
 5.5000e+000 102381 -7.3254e-001 -4.8409e-001  4.8186e-002 27419 101914,102332,102260
 5.5000e+000 102430 -6.3064e-001 -3.8908e-001 -1.1505e-002 27419 102018,102332,102404
 5.5000e+000 102453 -5.4671e-001 -3.0748e-001 -1.1228e-001 27419 102018,102404,102044
 5.5000e+000 102502 -6.6211e-001 -2.9414e-001  8.8389e-002 27419 101940,102260,102476
 5.5000e+000 102525 -1.8688e-001 -9.2431e-002  5.6859e-002 27419 101940,102476,101966
 5.5000e+000 103031 -1.2707e+000  1.1100e+000  8.6958e-001 26715 102708,102786,102760
 5.5000e+000 103008 -1.8047e-001 -3.6751e-001  1.4244e-001 26715 102708,102890,102786
 5.5000e+000 102985  1.0297e+000 -6.3564e-001  8.6895e-002 26715 102838,102890,102864
 5.5000e+000 102962  2.8769e-001  9.5487e-001  1.1381e-001 26715 102786,102890,102838
 5.5000e+000 102939  1.4240e+000  1.5129e+000  6.9914e-001 26715 102786,102838,102812
 5.5000e+000 102916 -2.0063e+000 -6.0873e-002  3.5798e-001 26715 102708,102760,102734
 5.5000e+000 103279  1.8942e-004  3.2712e-002 -9.6009e-002 26303 103302,103158,103080
 5.5000e+000 103256  1.2470e-001 -6.0225e-002 -9.8018e-002 26303 103302,103080,103054
 5.5000e+000 103233  2.7084e-001  1.6672e-001 -4.0522e-002 26303 103080,103158,103106
 5.5000e+000 103210 -3.6666e-001 -1.0105e-002 -5.5150e-002 26303 103106,103158,103132
 5.5000e+000 103328 -2.0878e-001 -6.3967e-002 -5.2920e-002 26303 103184,103158,103302
 5.5000e+000 103351  2.7023e-002 -7.2774e-002 -7.5355e-002 26303 103184,103302,103054
 5.5000e+000 103501 -9.6270e-001 -1.3009e-001  5.7746e-002 25849 103374,103426,103400
 5.5000e+000 103478 -8.5531e-001 -4.0000e-001  4.7475e-003 25849 103374,103452,103426
 5.5000e+000 104090 -8.8783e-002  2.0028e-001  1.1905e-001 25445 103793,103871,103819
 5.5000e+000 104067  1.8963e-001  9.8335e-002  1.3110e-003 25445 103793,103949,103871
 5.5000e+000 104044  2.6382e-001  2.8272e-001  4.8871e-003 25445 103871,103949,103923
 5.5000e+000 104021 -7.5761e-002  2.7737e-001 -1.0346e-002 25445 103819,103871,103845
 5.5000e+000 103998  1.2012e-001  1.7602e-001  2.0096e-001 25445 103767,103949,103793
 5.5000e+000 103975  3.8581e-001  1.9930e-001 -6.8639e-003 25445 103871,103923,103897
 5.5000e+000 104419 -3.6955e-001 -9.8130e-002 -1.2376e-001 25083 104220,104298,104272
 5.5000e+000 104396 -6.9853e-001 -4.1834e-001  6.0020e-003 25083 104220,104324,104298
 5.5000e+000 104373 -2.8291e-001 -1.8493e-001 -2.7029e-002 25083 104220,104272,104246
 5.5000e+000 104350 -6.9479e-001 -3.5026e-001  2.6875e-002 25083 104194,104324,104220
 5.5000e+000 105102  4.3461e-002 -1.7132e-001 -1.1742e-001 24793 104785,104863,104837
 5.5000e+000 105079 -2.0160e-002 -4.6082e-001 -2.8452e-001 24793 104759,104863,104785
 5.5000e+000 105056 -9.6350e-002 -7.4263e-002 -2.9840e-001 24793 104759,104915,104863
 5.5000e+000 105033 -1.9281e-001 -9.9697e-002 -2.2796e-001 24793 104733,104915,104759
 5.5000e+000 105010  6.2098e-002 -1.8980e-002 -2.4000e-001 24793 104863,104915,104889
 5.5000e+000 104987 -3.2511e-001 -1.7323e-002 -3.2289e-001 24793 104681,104915,104733
 5.5000e+000 104964 -4.4817e-002 -2.8079e-001 -1.5936e-001 24793 104785,104837,104811
 5.5000e+000 104941 -2.0412e-001  2.6977e-001 -3.5257e-001 24793 104681,104733,104707
 5.5000e+000 105252  8.7259e-001  1.1034e+000 -8.5023e-002 24389 105477,105275,105177
 5.5000e+000 105229  8.5935e-001  1.1717e+000 -1.1522e-001 24389 105347,105275,105151
 5.5000e+000 105301  9.3325e-001  1.0087e+000 -1.1776e-001 24389 105203,105177,105275
 5.5000e+000 105324  9.6226e-001  1.0589e+000 -9.3529e-002 24389 105203,105275,105125
 5.5000e+000 105373  8.6482e-001  7.7578e-001 -3.8918e-002 24389 105125,105275,105347
 5.5000e+000 105503  1.0447e+000  1.3667e+000  1.4347e-002 24389 105151,105275,105477
 5.5000e+000 106088 -5.8560e-001  5.4232e-001  6.9267e-001 23735 105791,105921,105895
 5.5000e+000 106065 -2.0280e+000 -3.1079e-002  6.8972e-001 23735 105765,105921,105791
 5.5000e+000 106042 -3.7021e-001  6.5045e-001  3.7155e-001 23735 105765,105947,105921
 5.5000e+000 106019 -2.3282e+000  6.2897e-002  9.3048e-001 23735 105817,105895,105869
 5.5000e+000 105996 -1.4375e+000  3.0240e-001  8.2867e-001 23735 105791,105895,105817
 5.5000e+000 105973 -1.1387e+000  2.4768e-001  7.5253e-001 23735 105817,105869,105843
 5.5000e+000 106417  6.8563e-001  2.0544e+000 -4.5032e-001 23295 106218,106296,106270
 5.5000e+000 106394  2.2956e-001  6.7361e-001 -3.2590e-001 23295 106218,106322,106296
 5.5000e+000 106371  2.3619e-002  4.7475e-001 -4.1122e-001 23295 106218,106270,106244
 5.5000e+000 106348  4.5998e-001  7.7193e-001 -1.3262e-001 23295 106192,106322,106218
 5.5000e+000 106746  1.3659e-001  7.2326e-001  1.2912e-001 23005 106521,106599,106547
 5.5000e+000 106723  5.9375e-001  8.2114e-001  1.3820e-002 23005 106521,106651,106599
 5.5000e+000 106700  3.8964e-001  7.2935e-001  3.5962e-002 23005 106547,106599,106573
 5.5000e+000 106677  7.5278e-001  7.9805e-001  3.9644e-001 23005 106599,106651,106625
 5.5000e+000 107331 -3.5775e-001  2.0450e-001 -2.7344e-001 22601 107060,107190,107138
 5.5000e+000 107308 -1.1720e+000 -5.7147e-002 -5.8238e-001 22601 107034,107190,107060
 5.5000e+000 107285 -1.6959e+000 -4.1735e-001 -5.4743e-001 22601 107060,107138,107112
 5.5000e+000 107262 -1.8252e+000 -3.4568e-001 -6.3220e-001 22601 107008,107190,107034
 5.5000e+000 107239 -1.8362e-001  9.8470e-001 -1.1312e+000 22601 107060,107112,107086
 5.5000e+000 107216 -5.7760e-001  2.8439e-001 -1.2852e-001 22601 107138,107190,107164
 5.5000e+000 107807 -5.6382e-001  1.1631e-001 -1.0401e-001 22031 107974,107902,107617
 5.5000e+000 107784 -6.9747e-001  3.8095e-001 -2.5882e-001 22031 107830,107565,107513
 5.5000e+000 107761 -4.5936e-001  6.8871e-002 -2.9082e-001 22031 108046,107830,107513
 5.5000e+000 107738 -4.3620e-001  3.3400e-001  2.1839e-002 22031 107974,107617,107591
 5.5000e+000 107715 -5.0053e-001 -7.1791e-002 -2.5171e-001 22031 108046,107513,107461
 5.5000e+000 107692 -1.7101e+000  6.0394e-001 -4.6939e-001 22031 107513,107565,107539
 5.5000e+000 107669 -2.7422e-001  2.1097e-001 -3.8088e-001 22031 107461,107513,107487
 5.5000e+000 107856 -8.2238e-001  2.4561e-001 -1.7615e-001 22031 107902,107565,107830
 5.5000e+000 107879 -5.4960e-001 -1.1745e-001 -1.8168e-002 22031 107643,107830,107435
 5.5000e+000 107928 -1.1190e+000  4.9776e-001 -4.9658e-001 22031 107643,107617,107902
 5.5000e+000 107951 -7.8826e-001  2.2354e-001  2.7862e-002 22031 107643,107902,107830
 5.5000e+000 108000 -7.2651e-001  4.2490e-001 -1.2683e-001 22031 107565,107902,107974
 5.5000e+000 108023 -6.9958e-001  3.5429e-001 -9.5722e-002 22031 107565,107974,107591
 5.5000e+000 108072 -4.1716e-001 -1.1276e-001 -9.6449e-002 22031 107435,107830,108046
 5.5000e+000 108095 -5.0671e-001 -3.3604e-001 -5.6343e-002 22031 107435,108046,107461
 5.5000e+000 108196  3.9782e-002  2.6118e-002 -1.8516e-001 21783 108118,108170,108144
 5.5000e+000 108655  1.6142e-001  9.2119e-001  5.4337e-001 21379 108407,108485,108459
 5.5000e+000 108632  1.8441e+000 -4.0593e-002  7.6193e-001 21379 108407,108511,108485
 5.5000e+000 108609  1.8894e+000 -2.6831e-001  4.7893e-001 21379 108381,108511,108407
 5.5000e+000 108586  8.2652e-001  5.2000e-001 -6.2514e-001 21379 108381,108537,108511
 5.5000e+000 108563  4.8908e-001  1.2565e-001  2.4751e-001 21379 108407,108459,108433
 5.5000e+000 109082 -6.9070e-002  6.9728e-001  1.8183e-001 20974 109105,108863,108811
 5.5000e+000 109059  3.4167e-001  9.2404e-001 -1.3445e-001 20974 109105,108811,108759
 5.5000e+000 109036 -9.5510e-002  1.5455e+000 -1.6736e-001 20974 109177,108889,108863
 5.5000e+000 109013  7.6323e-001  1.3122e+000 -1.3543e-001 20974 108811,108863,108837
 5.5000e+000 108990 -3.7823e-001  4.7729e-004 -6.9965e-002 20974 108759,108941,108915
 5.5000e+000 108967  1.3938e-001 -2.4013e-001  4.0285e-002 20974 108759,108811,108785
 5.5000e+000 109131  1.7402e-001  1.1896e+000  4.5876e-002 20974 109177,108863,109105
 5.5000e+000 109154  6.5474e-003  1.0415e-002 -3.4919e-002 20974 108915,109105,108759
 5.5000e+000 109203 -2.3810e-001  1.2553e+000  1.6593e-001 20974 108915,108889,109177
 5.5000e+000 109226 -1.9050e-001  5.0824e-001  3.6379e-001 20974 108915,109177,109105
 5.5000e+000 109496 -8.2144e-001  1.1777e-001 -6.7935e-002 20470 109271,109375,109297
 5.5000e+000 109473 -7.6467e-001  2.3402e-001 -1.2604e-001 20470 109271,109401,109375
 5.5000e+000 109450 -9.7009e-001 -9.9479e-002 -1.4308e-001 20470 109297,109375,109349
 5.5000e+000 109427 -1.3304e+000 -8.3819e-001  2.6241e-001 20470 109297,109349,109323
 5.5000e+000 109955  2.2226e-001  1.7471e+000  9.8870e-001 20123 110050,109733,109707
 5.5000e+000 109932 -7.2370e-001  8.2649e-001  5.3099e-001 20123 110050,109707,109681
 5.5000e+000 109909  2.0230e-001  5.0906e-001  6.3879e-001 20123 109978,109759,109733
 5.5000e+000 109886 -1.6908e-001  3.3180e-001  5.6437e-001 20123 110122,109978,109733
 5.5000e+000 109863  3.1063e-001  2.6894e-001  2.8280e-001 20123 109785,109837,109811
 5.5000e+000 110004  1.5082e-001  4.7343e-001  4.4004e-001 20123 109785,109759,109978
 5.5000e+000 110027  8.4259e-003  3.4706e-001  3.0690e-001 20123 109785,109978,109837
 5.5000e+000 110076 -3.5647e-001  6.1004e-001  4.4722e-001 20123 110122,109733,110050
 5.5000e+000 110099 -3.1292e-001  4.9662e-001  9.4104e-002 20123 109837,110050,109681
 5.5000e+000 110148  1.9288e-001  7.3036e-001  4.0301e-001 20123 109837,109978,110122
 5.5000e+000 110171  2.0089e-002  9.6782e-001  2.8094e-001 20123 109837,110122,110050
 5.5000e+000 110500  1.1643e+000  3.6286e-001 -2.7494e-001 19511 110301,110379,110353
 5.5000e+000 110477  1.6877e+000  9.6681e-001 -4.9972e-001 19511 110301,110405,110379
 5.5000e+000 110454  4.3370e-001  3.5518e-001 -2.7556e-001 19511 110275,110405,110301
 5.5000e+000 110431  1.0040e+000  4.9823e-001  4.7769e-001 19511 110301,110353,110327
 5.5000e+000 110957  2.7430e-001  1.2102e+000 -7.4139e-001 19107 110683,110735,110709
 5.5000e+000 110934  1.3212e-001 -2.5075e-001 -1.0270e+000 19107 110683,110813,110735
 5.5000e+000 110911  4.5854e-001  6.8816e-001 -9.5206e-001 19107 110735,110813,110761
 5.5000e+000 110888 -7.4033e-001 -7.0710e-001 -8.3629e-001 19107 110683,110839,110813
 5.5000e+000 110865  1.9795e-001  8.9239e-002 -9.2154e-001 19107 110761,110813,110787
 5.5000e+000 111335 -2.3487e-001 -3.1462e-001 -1.5866e-001 18653 111087,111165,111139
 5.5000e+000 111312 -8.0561e-002 -1.2893e-001 -2.3002e-001 18653 111087,111217,111165
 5.5000e+000 111289 -2.0223e-001 -2.0065e-001 -9.5818e-002 18653 111061,111217,111087
 5.5000e+000 111266 -1.0784e-001 -9.7931e-002 -9.2707e-002 18653 111087,111139,111113
 5.5000e+000 111243 -9.4957e-002 -2.0737e-001 -1.6866e-001 18653 111165,111217,111191
 5.5000e+000 111735 -1.1452e+000 -3.7282e-001 -5.7492e-002 18213 111461,111513,111487
 5.5000e+000 111712 -1.2910e+000 -8.1004e-001  1.2525e-002 18213 111461,111617,111513
 5.5000e+000 111689 -1.2356e+000 -7.2568e-001 -1.7729e-001 18213 111513,111617,111591
 5.5000e+000 111666 -5.6596e-001 -3.2963e-001  6.4539e-002 18213 111513,111591,111539
 5.5000e+000 111643 -3.2974e-001 -3.7900e-001 -8.4932e-004 18213 111539,111591,111565
 5.5000e+000 111885  7.0009e-001 -3.9912e-001  2.5330e-001 17659 111784,111836,111810
 5.5000e+000 111862  1.5903e+000  4.4956e-001  6.1836e-001 17659 111758,111836,111784
 5.5000e+000 112287 -4.6809e-002  7.1399e-001 -3.7597e-001 17411 112065,112169,112143
 5.5000e+000 112264 -2.0410e+000  4.1232e-002  2.5956e-001 17411 112039,112169,112065
 5.5000e+000 112241 -2.2529e+000  1.7695e-001 -3.7536e-001 17411 112013,112169,112039
 5.5000e+000 112218  3.4089e+000  1.0640e+000 -6.9175e-001 17411 112091,112143,112117
 5.5000e+000 112195 -1.2125e-001 -1.4139e-001  2.7195e-001 17411 112065,112143,112091
 5.5000e+000 112508 -8.1722e-001  4.9861e-001  9.1249e-002 17007 112384,112436,112410
 5.5000e+000 112485 -6.2982e-001  6.7713e-001  1.6828e-001 17007 112332,112436,112384
 5.5000e+000 112462 -8.0645e-001  3.3221e-001  1.0586e-001 17007 112332,112384,112358
 5.5000e+000 112658 -2.0316e+000 -4.3696e-001  3.1863e-001 16553 112557,112609,112583
 5.5000e+000 112635 -1.9953e+000 -3.0230e-001  3.6962e-001 16553 112531,112609,112557
 5.5000e+000 112761 -4.4600e-001  1.7488e+000 -3.0015e-001 16355 112683,112735,112709
 5.5000e+000 112913 -1.2866e+000  6.5248e-001  7.4649e-002 15949 112786,112838,112812
 5.5000e+000 112890 -6.4168e-001  1.7576e+000 -2.3295e-001 15949 112786,112864,112838
 5.5000e+000 113065  1.7246e-001 -1.3526e-001 -7.2675e-002 15609 112938,112990,112964
 5.5000e+000 113042  6.0851e-001  6.8347e-002  9.8608e-003 15609 112938,113016,112990
 5.5000e+000 113420  7.6390e-001  7.1225e-001  2.5694e-001 15284 113247,113325,113299
 5.5000e+000 113397  7.1931e-001  6.0297e-001  1.5659e-001 15284 113195,113325,113247
 5.5000e+000 113374  5.8133e-001  5.7481e-001  1.0556e-001 15284 113195,113247,113221
 5.5000e+000 113351  7.6107e-001  1.2121e+000  3.0844e-001 15284 113247,113299,113273
 5.5000e+000 113521  4.0972e-001 -4.2746e-001  2.7405e-001 202 113443,113495,113469
 6.0000e+000 65564 -9.8164e-002  5.5757e-002  3.6328e-002 65155 65414,65466,65440
 6.0000e+000 65541 -1.5555e-002  9.6683e-002 -2.1903e-002 65155 65414,65492,65466
 6.0000e+000 65518  2.0645e-002  1.2286e-001 -5.3009e-002 65155 65388,65492,65414
 6.0000e+000 65883 -2.3847e-001  7.6656e-001 -3.5733e-002 64957 65635,65739,65713
 6.0000e+000 65860 -7.3079e-002  1.5461e+000 -2.6297e-002 64957 65635,65765,65739
 6.0000e+000 65837  1.3201e-001  1.6324e+000 -3.4046e-002 64957 65609,65765,65635
 6.0000e+000 65814 -1.5925e-001  1.1158e+000 -4.0102e-001 64957 65635,65713,65687
 6.0000e+000 65791 -6.3366e-002  1.3749e+000 -2.5707e-001 64957 65635,65687,65661
 6.0000e+000 65984 -2.8039e-001  2.7671e-001  1.9552e-001 64781 65906,65958,65932
 6.0000e+000 66232  3.6019e-001  4.4844e-001 -4.0380e-001 64469 66007,66059,66033
 6.0000e+000 66209 -2.7941e-001 -7.0718e-002 -6.3040e-001 64469 66007,66085,66059
 6.0000e+000 66186  8.8575e-002  8.9049e-001 -1.9580e-001 64469 66007,66137,66085
 6.0000e+000 66163 -5.7372e-001  3.6127e-002 -9.7404e-001 64469 66085,66137,66111
 6.0000e+000 66504  1.2146e-002  1.5358e+000 -9.5618e-002 64271 66279,66383,66305
 6.0000e+000 66481 -1.8017e-001  1.5607e+000  5.7302e-002 64271 66279,66409,66383
 6.0000e+000 66458 -2.7613e-001  1.9619e+000 -1.2292e-001 64271 66305,66357,66331
 6.0000e+000 66435  6.1716e-002  1.9361e+000 -1.1654e-001 64271 66305,66383,66357
 6.0000e+000 66705 -4.4020e-002  1.5757e+000 -2.3974e-001 64073 66728,66581,66555
 6.0000e+000 66682  2.1067e-003  1.6030e+000 -2.2593e-001 64073 66728,66555,66529
 6.0000e+000 66659 -6.6235e-001  2.0415e+000  5.8754e-001 64073 66581,66633,66607
 6.0000e+000 66754 -8.9639e-002  1.6083e+000 -2.5184e-001 64073 66633,66581,66728
 6.0000e+000 66777 -5.5507e-002  1.6315e+000 -2.3677e-001 64073 66633,66728,66529
 6.0000e+000 66951  2.3573e-001 -2.8316e-002  3.0346e-001 63783 66824,66876,66850
 6.0000e+000 66928 -8.3691e-001  6.3641e-001 -1.0553e-001 63783 66824,66902,66876
 6.0000e+000 67201  6.0769e-001  1.7718e+000 -1.1198e-001 63585 66976,67080,67054
 6.0000e+000 67178  2.7918e-001  1.6402e+000 -1.9632e-001 63585 66976,67106,67080
 6.0000e+000 67155  3.1350e-001  8.4585e-001 -1.3987e-002 63585 66976,67054,67028
 6.0000e+000 67132  4.6284e-001  1.0858e+000  2.9662e-001 63585 66976,67028,67002
 6.0000e+000 67654 -1.6828e-001  1.0949e+000  4.3774e-002 63295 67357,67487,67383
 6.0000e+000 67631 -2.0835e-001  1.5428e+000 -3.1530e-001 63295 67331,67487,67357
 6.0000e+000 67608  8.0298e-002  2.0051e+000  7.9036e-002 63295 67331,67513,67487
 6.0000e+000 67585 -2.3830e-002  2.0954e+000 -7.9187e-002 63295 67435,67487,67461
 6.0000e+000 67562  8.3718e-002  2.0226e+000  4.4068e-002 63295 67383,67487,67435
 6.0000e+000 67539  8.7698e-004  1.5649e+000 -7.7524e-002 63295 67383,67435,67409
 6.0000e+000 67853 -2.9610e-002  1.3160e+000 -3.2136e-002 62891 67876,67703,67677
 6.0000e+000 67830  5.3299e-002  1.7127e+000 -7.3994e-003 62891 67876,67677,67781
 6.0000e+000 67807 -2.1883e-001  1.0566e+000 -1.2471e-001 62891 67948,67729,67703
 6.0000e+000 67902 -3.8874e-002  1.2316e+000 -2.2075e-001 62891 67948,67703,67876
 6.0000e+000 67925  3.4086e-001  1.3898e+000 -2.4809e-001 62891 67755,67876,67781
 6.0000e+000 67974  6.3904e-002  8.4606e-001 -7.9309e-002 62891 67755,67729,67948
 6.0000e+000 67997  1.1341e-001  9.2546e-001 -1.3894e-001 62891 67755,67948,67876
 6.0000e+000 68218  1.9931e-002 -5.1652e-002 -3.5504e-002 62693 68042,68120,68068
 6.0000e+000 68195 -1.7780e-003 -4.1668e-002  8.1166e-003 62693 68042,68146,68120
 6.0000e+000 68172 -8.1677e-002  5.3450e-002 -2.6304e-002 62693 68068,68120,68094
 6.0000e+000 68468  5.5990e-002 -9.4984e-004 -1.6000e-002 62289 68491,68295,68269
 6.0000e+000 68445  9.7429e-003 -1.5566e-002 -2.6292e-002 62289 68563,68491,68269
 6.0000e+000 68422  4.8557e-003  1.6733e-002 -1.1514e-003 62289 68563,68269,68243
 6.0000e+000 68399 -7.9323e-002 -9.8657e-002 -8.2959e-002 62289 68295,68347,68321
 6.0000e+000 68517  3.1812e-002 -2.7753e-003 -3.3387e-002 62289 68347,68295,68491
 6.0000e+000 68540 -3.5515e-002  4.6365e-003 -4.9117e-002 62289 68347,68491,68373
 6.0000e+000 68589  3.0049e-002  4.8326e-002 -2.7891e-002 62289 68373,68491,68563
 6.0000e+000 68612  1.1522e-002  5.8859e-002 -1.7035e-003 62289 68373,68563,68243
 6.0000e+000 68911  5.3847e-002  1.2022e+000 -4.6444e-002 62091 69222,68934,68741
 6.0000e+000 68888 -2.8860e-001  1.3199e+000 -5.5932e-002 62091 69006,68934,68689
 6.0000e+000 68865 -4.5785e-001  1.1328e+000 -2.3708e-001 62091 69006,68689,68663
 6.0000e+000 68842  2.3881e-001  1.5907e+000  2.5439e-001 62091 69078,68793,68767
 6.0000e+000 68819  6.7044e-002  1.2152e+000 -1.0892e-001 62091 69222,68741,68715
 6.0000e+000 68960  2.6871e-001  1.4172e+000 -1.3470e-001 62091 68767,68741,68934
 6.0000e+000 68983  1.1355e-001  1.6858e+000  6.1160e-002 62091 69078,68767,68934
 6.0000e+000 69032 -2.1741e-001  1.5038e+000 -1.3021e-002 62091 69150,69006,68637
 6.0000e+000 69055 -2.2988e-001  1.4237e+000 -7.2311e-002 62091 68637,69006,68663
 6.0000e+000 69104  1.5270e-001  1.3890e+000  7.2236e-003 62091 68637,68793,69078
 6.0000e+000 69127 -1.9336e-001  1.4853e+000 -2.6062e-002 62091 69150,68637,69078
 6.0000e+000 69176 -1.1371e-001  1.3309e+000  3.7752e-003 62091 68934,69006,69150
 6.0000e+000 69199  2.4043e-002  1.4431e+000 -5.5901e-002 62091 68934,69150,69078
 6.0000e+000 69248  2.5704e-002  1.1301e+000 -5.1931e-002 62091 68689,68934,69222
 6.0000e+000 69271  3.5004e-002  1.1107e+000 -9.4755e-002 62091 68689,69222,68715
 6.0000e+000 69521 -2.3390e-001  7.7432e-002 -1.2529e-002 61893 69544,69348,69296
 6.0000e+000 69498 -7.5759e-002  1.0974e-001  1.2276e-002 61893 69544,69296,69400
 6.0000e+000 69475  2.2650e-002  1.1069e-001 -7.2882e-003 61893 69296,69426,69400
 6.0000e+000 69452  1.6948e-002 -3.9808e-002 -1.9209e-001 61893 69296,69348,69322
 6.0000e+000 69570 -1.5087e-001  2.8974e-003  1.1189e-001 61893 69374,69348,69544
 6.0000e+000 69593  1.2909e-001  1.0272e-001  1.2826e-001 61893 69374,69544,69400
 6.0000e+000 70046 -1.1135e-001  1.2689e+000 -2.8974e-002 61467 69749,69905,69879
 6.0000e+000 70023 -1.3681e-001  1.0456e+000 -3.0167e-001 61467 69723,69905,69749
 6.0000e+000 70000 -1.7895e-001  1.1532e+000 -4.9940e-004 61467 70069,69827,69775
 6.0000e+000 69977  1.6850e-001  1.9538e+000 -2.7673e-001 61467 70069,69775,69749
 6.0000e+000 69954  2.5545e-002  5.5870e-001 -1.3688e-003 61467 70141,69853,69827
 6.0000e+000 69931 -3.1838e-001  1.2409e+000  3.8717e-001 61467 69775,69827,69801
 6.0000e+000 70095 -8.4070e-002  7.2107e-001  1.0337e-001 61467 70141,69827,70069
 6.0000e+000 70118 -1.2676e-001  1.1624e+000 -8.2151e-003 61467 69879,70069,69749
 6.0000e+000 70167 -9.7220e-002  8.0802e-001 -9.4403e-003 61467 69879,69853,70141
 6.0000e+000 70190 -3.4232e-002  1.1930e+000  9.9251e-002 61467 69879,70141,70069
 6.0000e+000 70291  1.6831e-001  2.1094e+000  2.1949e-001 61013 70213,70265,70239
 6.0000e+000 70441 -1.0389e-001  9.6993e-002  6.5683e-002 60651 70340,70392,70366
 6.0000e+000 70418 -1.2531e-001  1.2758e-001  3.9143e-002 60651 70314,70392,70340
 6.0000e+000 70642 -9.6309e-002  1.1436e+000  3.1456e-001 60311 70665,70492,70466
 6.0000e+000 70619  7.7690e-002  1.5509e+000  3.0818e-001 60311 70665,70466,70570
 6.0000e+000 70596 -3.5077e-001  3.9631e-001  4.1562e-002 60311 70492,70544,70518
 6.0000e+000 70691 -4.1291e-003  7.4605e-001 -1.1572e-001 60311 70544,70492,70665
 6.0000e+000 70714  2.6637e-001  1.3737e+000 -1.3511e-001 60311 70544,70665,70570
 6.0000e+000 70964 -2.8174e-001  8.9781e-001  4.9618e-002 59907 70987,70765,70739
 6.0000e+000 70941 -5.9086e-002  1.4053e+000 -5.1385e-002 59907 71059,70987,70739
 6.0000e+000 70918  8.9445e-002  2.1340e+000 -1.3516e-001 59907 71059,70739,70869
 6.0000e+000 70895  2.6208e-002  1.4301e+000 -1.0027e-001 59907 70817,70869,70843
 6.0000e+000 71013 -1.0304e-001  9.3516e-001 -2.3538e-001 59907 70791,70765,70987
 6.0000e+000 71036 -3.9915e-002  9.3922e-001 -2.0483e-001 59907 70791,70987,70817
 6.0000e+000 71085  1.0452e-001  9.1851e-001 -1.6643e-001 59907 70817,70987,71059
 6.0000e+000 71108 -3.7956e-002  1.2376e+000 -1.2051e-001 59907 70817,71059,70869
 6.0000e+000 71441  5.1876e-001  7.1429e-001 -1.0942e+000 59417 71464,71242,71216
 6.0000e+000 71418  8.8505e-001  1.0133e+000  1.2097e-001 59417 71464,71216,71320
 6.0000e+000 71395  4.6385e-001  1.2026e+000  2.7843e-001 59417 71216,71346,71320
 6.0000e+000 71372 -1.4550e+000  2.0595e-001 -1.4796e-001 59417 71268,71320,71294
 6.0000e+000 71490 -2.9680e-001  3.9175e-001 -1.3002e+000 59417 71268,71242,71464
 6.0000e+000 71513 -8.5323e-001  4.0115e-001 -8.5927e-003 59417 71268,71464,71320
 6.0000e+000 71712  1.7201e-002  1.2279e+000 -1.8481e-001 58913 71562,71614,71588
 6.0000e+000 71689  9.2177e-001  1.0920e+000 -5.5699e-001 58913 71536,71614,71562
 6.0000e+000 71666  6.5997e-001  8.7707e-001 -4.6209e-001 58913 71536,71640,71614
 6.0000e+000 72171  6.7208e-001  1.5044e+000 -3.4706e-001 58409 72194,72027,72001
 6.0000e+000 72148  5.0180e-001  8.0756e-001 -4.1049e-001 58409 72194,72001,71949
 6.0000e+000 72125  1.6986e-001  1.1391e+000 -3.8259e-001 58409 71923,72053,71949
 6.0000e+000 72102  7.0575e-002  5.4325e-001 -2.6660e-001 58409 71949,72001,71975
 6.0000e+000 72079  3.8041e-001  1.1900e+000 -4.0413e-001 58409 71897,72053,71923
 6.0000e+000 72220  5.7528e-001  1.6153e+000 -6.4776e-004 58409 72053,72027,72194
 6.0000e+000 72243  5.4522e-001  1.2748e+000 -1.2653e-001 58409 72053,72194,71949
 6.0000e+000 72491 -1.9940e+000 -8.2620e-001 -1.2945e+000 57855 72514,72318,72292
 6.0000e+000 72468  1.1187e+000  4.4748e-001 -1.4173e+000 57855 72514,72292,72266
 6.0000e+000 72445 -1.1389e+000  1.3307e-001  3.4317e-002 57855 72318,72396,72370
 6.0000e+000 72422 -3.0518e+000  9.7494e-001 -9.6372e-001 57855 72318,72370,72344
 6.0000e+000 72540 -2.2858e+000 -3.6763e-001 -8.3782e-001 57855 72396,72318,72514
 6.0000e+000 72563 -1.9889e+000 -3.4647e-001 -8.6508e-001 57855 72396,72514,72266
 6.0000e+000 72811  1.0666e+000  2.1610e-001 -6.3997e-001 57401 72612,72690,72638
 6.0000e+000 72788  1.6182e-001 -1.5133e-001  5.2397e-002 57401 72586,72690,72612
 6.0000e+000 72765 -6.0485e-001 -9.0258e-001 -1.1247e+000 57401 72638,72690,72664
 6.0000e+000 72742  2.4368e-001  9.6320e-001 -2.3245e-001 57401 72586,72716,72690
 6.0000e+000 73144  1.1858e-001  7.3298e-001 -1.8080e-001 57004 72919,72997,72945
 6.0000e+000 73121  1.8428e-001  1.5013e+000 -3.8621e-001 57004 72919,73049,72997
 6.0000e+000 73098  9.4647e-002  9.8647e-001 -3.5950e-001 57004 72945,72997,72971
 6.0000e+000 73075  2.8341e-001  1.8346e+000 -4.5192e-001 57004 72997,73049,73023
 6.0000e+000 73650 -1.2824e+000  1.5883e+000 -1.1045e+000 56592 73673,73379,73353
 6.0000e+000 73627  1.6123e+000  2.1477e+000 -1.7428e+000 56592 73673,73353,73327
 6.0000e+000 73604  1.1719e-001  1.4410e+000 -4.7461e-001 56592 73745,73509,73483
 6.0000e+000 73581 -2.3380e+000 -5.5040e-001 -3.5534e-001 56592 73379,73457,73405
 6.0000e+000 73558  3.6670e-001  3.1813e-001  1.2548e-001 56592 73379,73483,73457
 6.0000e+000 73535  2.1994e+000  5.0955e-001 -1.1794e-001 56592 73405,73457,73431
 6.0000e+000 73699 -1.0363e+000  1.0928e+000  2.5698e-001 56592 73483,73379,73673
 6.0000e+000 73722 -4.8443e-002  1.7287e+000 -5.6581e-001 56592 73745,73483,73673
 6.0000e+000 73771 -3.7710e-002  1.1318e+000 -5.2983e-001 56592 73327,73509,73745
 6.0000e+000 73794 -2.6804e-001  1.3457e+000 -6.6091e-001 56592 73327,73745,73673
 6.0000e+000 74123  1.2491e+000  8.8160e-001 -1.8777e-001 56152 74146,74002,73924
 6.0000e+000 74100  1.0640e+000  6.8626e-001 -3.3399e-002 56152 74146,73924,73898
 6.0000e+000 74077  1.4354e+000  1.1323e+000 -2.8394e-001 56152 73924,74002,73976
 6.0000e+000 74054  1.0619e+000  2.7777e-001  1.6548e-001 56152 73924,73976,73950
 6.0000e+000 74172  1.6511e+000  1.1680e+000 -3.8872e-001 56152 74028,74002,74146
 6.0000e+000 74195  1.2710e+000  7.8644e-001 -1.8879e-001 56152 74028,74146,73898
 6.0000e+000 74345 -1.1414e+000  4.6187e-002  4.6116e-001 55634 74218,74270,74244
 6.0000e+000 74322 -9.5913e-002  1.5787e-001  1.7481e-001 55634 74218,74296,74270
 6.0000e+000 74823  4.3160e-001 -1.2736e+000  4.9816e-001 55016 74918,74846,74581
 6.0000e+000 74800 -1.0807e-001  7.8800e-002  2.7497e-001 55016 74846,74477,74633
 6.0000e+000 74777 -4.1062e-001 -2.2091e+000  8.6273e-001 55016 74918,74581,74555
 6.0000e+000 74754 -8.1054e-001 -1.2502e+000  9.1296e-001 55016 74990,74503,74477
 6.0000e+000 74731 -1.3794e+000 -1.5333e-001  6.7330e-001 55016 74451,74633,74477
 6.0000e+000 74708 -1.4629e+000  9.3620e-001  2.7144e-001 55016 74451,74659,74633
 6.0000e+000 74685 -1.8671e+000 -2.4063e+000  1.7433e+000 55016 74503,74555,74529
 6.0000e+000 74872  4.0407e-001 -1.4202e+000  3.7554e-001 55016 74607,74581,74846
 6.0000e+000 74895 -8.1852e-002 -1.1041e+000  2.9294e-001 55016 74607,74846,74633
 6.0000e+000 74944 -8.0334e-001 -1.1912e+000  7.4016e-001 55016 74477,74846,74918
 6.0000e+000 74967 -8.7929e-001 -1.2494e+000  8.1458e-001 55016 74990,74477,74918
 6.0000e+000 75016 -5.7135e-001 -1.1405e+000  1.0204e+000 55016 74555,74503,74990
 6.0000e+000 75039 -6.6644e-001 -1.2069e+000  9.0455e-001 55016 74555,74990,74918
 6.0000e+000 75287 -1.9771e+000 -3.3604e+000 -5.2713e-002 54726 75310,75140,75114
 6.0000e+000 75264 -2.4828e+000 -2.1365e+000 -3.6175e-001 54726 75310,75114,75088
 6.0000e+000 75241 -2.4993e+000 -1.6256e+000 -1.3721e+000 54726 75088,75192,75166
 6.0000e+000 75218 -4.0302e+000  5.4886e-002 -1.1691e+000 54726 75062,75192,75088
 6.0000e+000 75336 -1.3507e+000 -2.6656e+000 -7.8279e-001 54726 75166,75140,75310
 6.0000e+000 75359 -2.3485e+000 -1.4518e+000 -7.9159e-001 54726 75166,75310,75088
 6.0000e+000 75946 -1.6873e-001  2.0506e-002  1.5657e-001 54322 75969,75701,75649
 6.0000e+000 75923 -5.8490e-001 -2.6838e-001  2.8505e-001 54322 75969,75649,75623
 6.0000e+000 75900 -3.3830e-001 -1.8143e-001 -6.2858e-002 54322 76041,75753,75701
 6.0000e+000 75877 -1.8995e-001  6.3472e-001  3.2015e-003 54322 75623,75805,75779
 6.0000e+000 75854 -4.3630e-001 -1.7337e-001 -1.8596e-001 54322 75701,75753,75727
 6.0000e+000 75831 -2.0813e-001 -1.6758e-001 -9.0244e-003 54322 75649,75701,75675
 6.0000e+000 75995 -4.6574e-001 -1.0212e-001  5.2006e-002 54322 76041,75701,75969
 6.0000e+000 76018 -4.4202e-001  1.0754e-001  1.4475e-001 54322 75779,75969,75623
 6.0000e+000 76067 -2.8275e-001  3.0144e-002 -1.0724e-001 54322 75779,75753,76041
 6.0000e+000 76090 -3.5989e-001  1.8559e-001  1.0472e-002 54322 75779,76041,75969
 6.0000e+000 76468 -7.6724e-002  1.6153e-001 -3.0826e-002 53868 76491,76272,76220
 6.0000e+000 76445 -7.0650e-002  1.8016e-001 -4.7512e-002 53868 76491,76220,76324
 6.0000e+000 76422  2.8029e-002  1.0250e-001 -1.0131e-001 53868 76220,76272,76246
 6.0000e+000 76399 -9.8412e-002  5.0532e-001  1.0635e-001 53868 76194,76324,76220
 6.0000e+000 76376 -5.8836e-001  3.0549e-001  1.0609e-002 53868 76194,76350,76324
 6.0000e+000 76517 -7.8512e-002  1.3425e-001 -1.8524e-002 53868 76298,76272,76491
 6.0000e+000 76540 -6.7992e-002  1.5856e-001 -3.5555e-002 53868 76298,76491,76324
 6.0000e+000 76690 -5.4321e-002  2.2212e-001 -3.9853e-002 53356 76589,76641,76615
 6.0000e+000 76667  5.4464e-002  6.9832e-001  9.4726e-003 53356 76563,76641,76589
 6.0000e+000 76938 -5.1006e-001  2.2696e-001 -6.8256e-001 53009 77105,76961,76765
 6.0000e+000 76915  3.2501e-002  4.6589e-001 -3.7236e-001 53009 76961,76713,76843
 6.0000e+000 76892 -3.1754e-001  3.7131e-001 -1.7341e-001 53009 77033,76817,76791
 6.0000e+000 76869 -1.1173e+000 -1.8035e-001 -1.2769e+000 53009 77105,76765,76739
 6.0000e+000 76987 -1.7619e-001  9.4137e-001 -4.9118e-001 53009 76791,76765,76961
 6.0000e+000 77010 -3.6753e-001  4.0300e-001 -4.0067e-001 53009 77033,76791,76961
 6.0000e+000 77059  2.6781e-002  5.2001e-001 -1.8626e-001 53009 76843,76817,77033
 6.0000e+000 77082 -4.1960e-002  5.4128e-001 -3.9565e-001 53009 76843,77033,76961
 6.0000e+000 77131  1.4518e-001  6.3541e-001 -4.2355e-001 53009 76713,76961,77105
 6.0000e+000 77154  4.5251e-002  5.8973e-001 -9.2188e-001 53009 76713,77105,76739
 6.0000e+000 77355  1.5468e+000 -2.0127e+000  8.7157e-001 52390 77378,77257,77231
 6.0000e+000 77332  1.1087e+000 -1.5087e+000  5.7818e-001 52390 77378,77231,77179
 6.0000e+000 77309  1.3424e+000 -1.7682e+000  5.5960e-002 52390 77179,77231,77205
 6.0000e+000 77404  1.9926e+000 -1.6948e+000  7.2993e-001 52390 77283,77257,77378
 6.0000e+000 77427  1.5423e+000 -1.1603e+000  4.2758e-001 52390 77283,77378,77179
 6.0000e+000 77677 -1.9665e+000  2.2266e+000 -1.8852e+000 51986 77700,77504,77478
 6.0000e+000 77654  1.3952e-001  3.1700e+000 -2.1961e+000 51986 77700,77478,77452
 6.0000e+000 77631 -8.9190e-002  1.4281e+000 -5.8264e-001 51986 77772,77556,77530
 6.0000e+000 77608 -1.9471e-001  1.3507e+000 -7.5384e-001 51986 77452,77582,77556
 6.0000e+000 77726 -4.9651e-001  2.2835e+000 -7.7754e-001 51986 77530,77504,77700
 6.0000e+000 77749  9.9388e-002  1.7846e+000 -8.8402e-001 51986 77772,77530,77700
 6.0000e+000 77798  3.2254e-001  1.6852e+000 -9.2787e-001 51986 77452,77556,77772
 6.0000e+000 77821  5.3877e-001  1.7824e+000 -1.1858e+000 51986 77452,77772,77700
 6.0000e+000 78282  5.3869e-001  6.8950e-001 -1.4562e-001 51738 78008,78138,78060
 6.0000e+000 78259  1.9499e+000  1.8592e+000 -1.7537e+000 51738 78008,78164,78138
 6.0000e+000 78236  3.1498e-001  3.3102e-002  4.5642e-002 51738 78086,78138,78112
 6.0000e+000 78213  1.8062e-001  4.2483e-001 -2.6247e-001 51738 78060,78138,78086
 6.0000e+000 78190  7.8849e-001 -5.0873e-001 -3.6178e-001 51738 78008,78060,78034
 6.0000e+000 78432 -1.7037e-001 -1.3898e-001  4.5187e-003 51148 78305,78357,78331
 6.0000e+000 78409 -1.4802e-001  6.7376e-002 -2.9578e-002 51148 78305,78383,78357
 6.0000e+000 78891 -2.9868e-001 -2.3921e-001  1.3532e-001 50808 78914,78695,78669
 6.0000e+000 78868 -2.2917e-001 -1.0814e-001  5.8550e-002 50808 78914,78669,78643
 6.0000e+000 78845 -6.0409e-002 -1.5639e-002  3.2170e-002 50808 78643,78773,78747
 6.0000e+000 78822 -5.7003e-002 -6.0766e-002  3.5129e-002 50808 78617,78773,78643
 6.0000e+000 78799 -1.3888e-001  8.4252e-002  1.7742e-001 50808 78695,78747,78721
 6.0000e+000 78940 -1.4803e-001 -1.1528e-001  6.8108e-002 50808 78747,78695,78914
 6.0000e+000 78963 -2.1497e-001 -7.7492e-002  1.7595e-002 50808 78747,78914,78643
 6.0000e+000 79260 -1.9216e-001 -2.6327e-001 -1.8411e-001 50468 79283,79090,79012
 6.0000e+000 79237 -1.9316e-001 -1.6568e-001 -1.7159e-001 50468 79283,79012,78986
 6.0000e+000 79214 -3.7128e-001 -3.3988e-001 -1.8388e-001 50468 79012,79090,79038
 6.0000e+000 79191 -1.1943e-001 -2.2994e-002 -2.2363e-001 50468 78986,79142,79116
 6.0000e+000 79168 -2.3092e-001 -3.4777e-001 -2.4899e-001 50468 79038,79090,79064
 6.0000e+000 79309 -2.3334e-001 -1.9656e-001 -2.1179e-001 50468 79116,79090,79283
 6.0000e+000 79332 -2.1772e-001 -7.7036e-002 -1.9082e-001 50468 79116,79283,78986
 6.0000e+000 79889  1.4618e+000  1.9159e+000 -8.0626e-001 50064 79569,79725,79699
 6.0000e+000 79866  2.9759e-001  1.2890e+000 -1.5844e+000 50064 79543,79725,79569
 6.0000e+000 79843  1.4659e+000  9.4802e-001 -7.4967e-001 50064 79621,79699,79673
 6.0000e+000 79820  1.6032e+000  1.2536e+000 -9.4245e-001 50064 79595,79699,79621
 6.0000e+000 79797  9.9021e-001  1.5089e+000 -1.1672e+000 50064 79569,79699,79595
 6.0000e+000 79774  1.1448e+000  2.8482e+000 -3.7874e-001 50064 79517,79725,79543
 6.0000e+000 79751  6.9047e-001  9.8649e-001 -8.2595e-001 50064 79621,79673,79647
 6.0000e+000 80169  1.5301e+000  2.0953e+000 -9.5867e-001 49724 80019,80097,80071
 6.0000e+000 80146  1.2561e+000  3.2475e+000 -1.2497e+000 49724 79993,80097,80019
 6.0000e+000 80123  9.6276e-001  1.9233e+000 -1.1237e+000 49724 80019,80071,80045
 6.0000e+000 80626 -1.0718e+000 -4.4574e-001 -2.4716e-001 49277 80352,80482,80378
 6.0000e+000 80603 -7.0659e-001 -3.4377e-001  6.9534e-002 49277 80352,80508,80482
 6.0000e+000 80580 -8.4298e-001 -3.3261e-001 -1.7593e-001 49277 80378,80482,80456
 6.0000e+000 80557 -1.0578e+000 -8.0589e-001 -1.7634e-001 49277 80378,80430,80404
 6.0000e+000 80534 -1.4126e+000 -5.6352e-001 -1.2828e-001 49277 80378,80456,80430
 6.0000e+000 81230 -1.9887e+000 -1.0652e+000  7.7556e-001 48716 81253,80835,80809
 6.0000e+000 81207 -1.2667e+000 -2.5501e-002 -3.7418e-001 48716 81397,81253,80809
 6.0000e+000 81184 -1.0755e+000  1.1019e+000 -4.9504e-001 48716 81325,80913,80887
 6.0000e+000 81161 -8.5009e-001 -8.5759e-001 -3.0491e-001 48716 81397,80809,81017
 6.0000e+000 81138 -1.6498e+000  6.9279e-001 -8.2844e-001 48716 81469,80965,80913
 6.0000e+000 81115 -7.9993e-001  1.7386e-002  9.8300e-001 48716 80835,80887,80861
 6.0000e+000 81092  3.6409e-001 -1.6315e+000  1.7462e+000 48716 80809,81043,81017
 6.0000e+000 81069 -1.7814e+000 -8.3258e-001 -1.8668e+000 48716 80913,80965,80939
 6.0000e+000 81279  5.4677e-001  4.3047e-001  1.0759e-001 48716 80887,80835,81253
 6.0000e+000 81302 -1.6109e+000  8.1952e-001 -6.6408e-001 48716 81325,80887,81253
 6.0000e+000 81351 -1.2602e+000  7.8814e-001 -6.7183e-001 48716 81469,80913,81325
 6.0000e+000 81374 -1.4729e+000  1.3896e+000 -6.1822e-001 48716 80991,81325,81253
 6.0000e+000 81423 -1.1997e+000  1.0987e+000  3.4707e-002 48716 80991,81253,81397
 6.0000e+000 81446 -9.3488e-001  6.3911e-002  1.2338e-001 48716 80991,81397,81017
 6.0000e+000 81495 -2.3453e+000  9.5806e-001 -9.4215e-001 48716 80991,80965,81469
 6.0000e+000 81518 -2.0451e+000  9.6808e-001 -8.0349e-001 48716 80991,81469,81325
 6.0000e+000 81717 -9.6555e-002 -6.9688e-003 -6.9104e-002 48262 81740,81567,81541
 6.0000e+000 81694  9.8594e-003  5.4728e-002 -9.6754e-002 48262 81740,81541,81645
 6.0000e+000 81671 -1.0476e-001 -2.2979e-001 -6.1573e-002 48262 81567,81619,81593
 6.0000e+000 81766 -3.6636e-002 -6.0155e-002  5.2619e-003 48262 81619,81567,81740
 6.0000e+000 81789  6.0888e-002 -1.0022e-002 -1.8293e-002 48262 81619,81740,81645
 6.0000e+000 81939  1.5460e+000  2.7113e+000 -5.0415e-001 47957 82034,81962,81864
 6.0000e+000 81916  4.5970e-001  1.9995e+000 -7.0719e-001 47957 82166,81962,81838
 6.0000e+000 81988  1.8752e+000  2.3943e+000  3.4672e-001 47957 82294,81962,81890
 6.0000e+000 82011  1.4379e+000  2.1408e+000  3.2725e-002 47957 81890,81962,81812
 6.0000e+000 82060  1.5181e+000  2.9702e+000 -2.9209e-001 47957 81838,81962,82034
 6.0000e+000 82192  2.6249e-002  1.9264e+000  4.5959e-001 47957 81812,81962,82166
 6.0000e+000 82320  2.5621e+000  2.2847e+000  3.1708e-002 47957 81864,81962,82294
 6.0000e+000 82549 -2.1421e-001 -1.6950e-001 -1.3351e-001 47617 82448,82500,82474
 6.0000e+000 82526  3.2967e-002  3.5084e-001 -3.7970e-002 47617 82422,82500,82448
 6.0000e+000 82902  7.2639e-001  2.3167e-001 -1.2335e-001 47255 82729,82807,82755
 6.0000e+000 82879  1.0745e+000  6.0309e-001  4.6485e-002 47255 82703,82807,82729
 6.0000e+000 82856  5.5576e-001  1.5515e-001  4.4060e-002 47255 82755,82807,82781
 6.0000e+000 82833  1.2770e+000  6.8977e-001  6.6864e-002 47255 82677,82807,82703
 6.0000e+000 83182  1.4797e-001 -8.3108e-001  3.7738e-001 46680 83032,83084,83058
 6.0000e+000 83159  5.5100e-001 -4.8362e-001  5.9751e-001 46680 83205,83084,83032
 6.0000e+000 83136 -4.4899e-001  1.6838e-002  4.7370e-001 46680 83006,83110,83084
 6.0000e+000 83231  1.0010e+000 -4.9352e-002  8.2823e-001 46680 83006,83084,83205
 6.0000e+000 83737 -1.8158e+000 -5.5768e-001  3.2890e-001 46290 83832,83760,83492
 6.0000e+000 83714 -1.8204e+000 -2.6954e-001  2.7376e-001 46290 83760,83440,83414
 6.0000e+000 83691 -1.4019e+000 -8.1682e-001  2.5338e-001 46290 83832,83492,83466
 6.0000e+000 83668 -1.4960e+000 -1.3971e+000  4.8178e-001 46290 83492,83570,83544
 6.0000e+000 83645 -2.3683e+000 -7.6949e-001  5.9183e-002 46290 83414,83596,83570
 6.0000e+000 83622 -1.3562e+000 -1.0067e+000  7.4294e-001 46290 83492,83544,83518
 6.0000e+000 83786 -1.7286e+000 -5.1119e-001  2.5231e-001 46290 83570,83492,83760
 6.0000e+000 83809 -1.8157e+000 -6.7653e-001  7.6525e-002 46290 83570,83760,83414
 6.0000e+000 83858 -1.2891e+000 -2.3320e-001  4.8217e-001 46290 83440,83760,83832
 6.0000e+000 83881 -5.7970e-001 -4.6176e-001  3.3042e-001 46290 83440,83832,83466
 6.0000e+000 84161  7.7229e-003 -5.4255e-001  1.3594e-002 45829 84011,84063,84037
 6.0000e+000 84138 -2.4281e-001 -5.2325e-001 -7.7685e-002 45829 84011,84089,84063
 6.0000e+000 84115 -3.0474e-002 -4.2794e-001  7.5199e-003 45829 83985,84089,84011
 6.0000e+000 84311  1.2038e+000  1.4675e+000  1.1666e-001 45631 84184,84236,84210
 6.0000e+000 84288  6.9669e-001  1.2099e-002  2.0629e-003 45631 84184,84262,84236
 6.0000e+000 84657 -1.9934e-001 -2.9402e-001 -7.0624e-002 45155 84680,84490,84412
 6.0000e+000 84634 -2.4853e-001 -1.9826e-001 -3.4233e-002 45155 84680,84412,84360
 6.0000e+000 84611 -3.3405e-001 -3.9065e-001  4.3680e-002 45155 84412,84490,84438
 6.0000e+000 84588 -3.6551e-002 -9.0508e-003 -6.6547e-002 45155 84334,84516,84360
 6.0000e+000 84565 -2.0405e-001 -6.8389e-002 -3.4605e-001 45155 84360,84412,84386
 6.0000e+000 84542 -2.9435e-001 -4.2725e-001  1.7578e-002 45155 84438,84490,84464
 6.0000e+000 84706 -2.0381e-001 -2.0213e-001 -9.0419e-002 45155 84516,84490,84680
 6.0000e+000 84729 -2.4419e-001 -9.7781e-002 -6.8239e-002 45155 84516,84680,84360
 6.0000e+000 85077 -7.7864e-002 -4.6039e-001 -2.3737e-001 44508 85100,84754,84910
 6.0000e+000 85054 -1.6672e-001  2.0336e-002 -8.7490e-002 44508 84754,84936,84910
 6.0000e+000 85031 -4.8199e-001 -8.2718e-001  8.6378e-002 44508 85100,84910,84884
 6.0000e+000 85008 -3.7754e-001 -5.0061e-002 -4.3316e-001 44508 84780,84884,84832
 6.0000e+000 84985 -4.2465e-001 -1.6009e-001 -4.3037e-001 44508 84780,84832,84806
 6.0000e+000 84962 -1.1241e+000 -8.2820e-001 -6.0815e-002 44508 84832,84884,84858
 6.0000e+000 85126 -4.0832e-001  7.4437e-002 -5.3344e-001 44508 84780,84754,85100
 6.0000e+000 85149 -7.1490e-001 -2.8625e-001 -2.3869e-001 44508 84780,85100,84884
 6.0000e+000 85482  8.9190e-002 -1.1422e-001 -1.0855e-001 44104 85335,85387,85361
 6.0000e+000 85459  3.4059e-002 -3.8935e-001 -5.1601e-002 44104 85309,85387,85335
 6.0000e+000 85436 -2.2687e-002 -2.7842e-001 -1.5129e-001 44104 85257,85387,85309
 6.0000e+000 85413 -1.1614e-001 -1.5681e-001 -2.2197e-002 44104 85257,85309,85283
 6.0000e+000 85811 -2.7787e-001 -3.4527e-001 -1.5555e-001 43600 85586,85664,85612
 6.0000e+000 85788 -2.3682e-001 -8.0672e-002 -1.0970e-001 43600 85586,85690,85664
 6.0000e+000 85765 -1.2224e-001  1.3397e-001 -2.1200e-001 43600 85586,85716,85690
 6.0000e+000 85742 -3.1056e-001 -2.8585e-001 -2.7675e-001 43600 85612,85664,85638
 6.0000e+000 86010  2.2685e-001  6.0320e-002 -2.1171e-001 43224 85886,85938,85912
 6.0000e+000 85987  2.4215e-001  3.6417e-002 -1.8101e-001 43224 85834,85938,85886
 6.0000e+000 85964  1.9816e-001 -7.1989e-001 -1.3562e-001 43224 85834,85886,85860
 6.0000e+000 86420  2.5575e+000  1.0507e+000 -3.0423e-002 42820 86195,86299,86221
 6.0000e+000 86397  2.4342e+000  2.1618e+000 -8.4662e-001 42820 86195,86325,86299
 6.0000e+000 86374  1.6504e+000  1.2716e+000  3.8976e-001 42820 86221,86299,86273
 6.0000e+000 86351  1.2112e+000  9.2811e-001 -6.5873e-002 42820 86221,86273,86247
 6.0000e+000 86749  4.8357e-001 -5.1033e-001 -1.5510e-001 42223 86550,86602,86576
 6.0000e+000 86726  2.1393e+000 -1.1514e+000  1.4227e-001 42223 86550,86628,86602
 6.0000e+000 86703  5.6554e-001 -1.6082e+000  9.1470e-001 42223 86524,86628,86550
 6.0000e+000 86680  1.5439e+000  5.1872e-001  6.2859e-001 42223 86524,86654,86628
 6.0000e+000 87078  7.1342e-001 -2.6414e-001  2.6282e-001 41883 87173,87101,86905
 6.0000e+000 87055  5.1998e-001  8.1802e-001  9.9741e-002 41883 87101,86879,86853
 6.0000e+000 87032  1.2365e-001  1.4037e-001 -7.0065e-002 41883 86853,86983,86931
 6.0000e+000 87009  1.6053e-001  3.9730e-001 -1.9224e-001 41883 86931,86983,86957
 6.0000e+000 87127  1.1075e+000  3.6440e-001 -1.8942e-001 41883 86931,86905,87101
 6.0000e+000 87150  1.3437e-001 -6.6645e-002 -7.5128e-002 41883 86931,87101,86853
 6.0000e+000 87199  2.4304e-001  1.1315e-001  3.5509e-001 41883 86879,87101,87173
 6.0000e+000 87558 -1.5566e-001  7.9453e-001 -2.5365e-001 41471 87382,87460,87408
 6.0000e+000 87535 -1.2539e+000  6.7144e-001 -2.2873e-001 41471 87382,87486,87460
 6.0000e+000 87512  2.2321e-001  8.5461e-002 -5.6839e-002 41471 87408,87460,87434
 6.0000e+000 87806  1.3755e-001  9.8159e-002 -4.6023e-001 41017 87829,87607,87581
 6.0000e+000 87783  1.2292e-001 -2.1744e-001 -1.0394e-001 41017 87829,87581,87685
 6.0000e+000 87760  4.5618e-001 -3.3874e-002 -2.1537e-001 41017 87581,87711,87685
 6.0000e+000 87737  2.7533e-001 -7.8541e-001 -2.8196e-002 41017 87633,87685,87659
 6.0000e+000 87855 -8.3450e-002 -8.3965e-002 -2.4583e-001 41017 87633,87607,87829
 6.0000e+000 87878 -1.7714e-001 -4.4104e-001  1.2042e-001 41017 87633,87829,87685
 6.0000e+000 88258  1.9284e-002  1.0940e-002 -8.8453e-003 40613 88281,88036,88010
 6.0000e+000 88235 -9.5824e-004  1.4923e-002 -6.9523e-004 40613 88281,88010,88088
 6.0000e+000 88212 -4.1836e-003  7.2659e-003  4.2835e-003 40613 87984,88088,88010
 6.0000e+000 88189 -3.4241e-003  7.2113e-003  1.1547e-002 40613 87984,88114,88088
 6.0000e+000 88166 -4.0001e-003  3.6862e-002  1.3573e-003 40613 87984,88140,88114
 6.0000e+000 88307  3.0862e-003  6.1359e-003 -9.0646e-003 40613 88062,88036,88281
 6.0000e+000 88330 -2.2594e-002  6.3944e-003  4.3297e-004 40613 88062,88281,88088
 6.0000e+000 88649 -1.4845e-002  7.2034e-004  4.8767e-003 40095 88375,88505,88401
 6.0000e+000 88626 -1.6909e-002 -5.4755e-003  7.7989e-003 40095 88375,88531,88505
 6.0000e+000 88603 -7.2976e-002 -9.5379e-003  3.6646e-003 40095 88401,88505,88479
 6.0000e+000 88580 -6.6604e-002  4.6328e-001  2.4781e-001 40095 88427,88479,88453
 6.0000e+000 88557 -3.6539e-002  3.8515e-002 -1.2404e-002 40095 88401,88479,88427
 6.0000e+000 89078  7.5708e-001 -1.3375e+000 -6.7229e-001 39897 89101,88833,88807
 6.0000e+000 89055  8.6208e-002 -1.6300e+000 -7.7583e-001 39897 89101,88807,88911
 6.0000e+000 89032 -7.3834e-001 -1.2704e+000 -1.3720e+000 39897 88781,88911,88807
 6.0000e+000 89009 -1.3108e+000 -1.7061e+000 -1.6748e+000 39897 88781,88937,88911
 6.0000e+000 88986  2.7602e+000  3.0222e-001 -5.0163e-001 39897 88833,88885,88859
 6.0000e+000 88963 -1.8998e+000 -1.5047e+000 -2.0296e+000 39897 88755,88937,88781
 6.0000e+000 89127  1.3653e+000 -1.7603e+000 -1.2868e+000 39897 88885,88833,89101
 6.0000e+000 89150  3.1918e-001 -2.2739e+000 -1.5000e+000 39897 88885,89101,88911
 6.0000e+000 89300 -1.6315e+000 -1.5932e+000  6.1486e-001 39607 89453,89323,89199
 6.0000e+000 89277 -2.4139e+000 -1.0094e+000  4.7931e-001 39607 89525,89453,89199
 6.0000e+000 89349 -1.1801e+000 -1.4713e+000 -2.1884e-002 39607 89225,89199,89323
 6.0000e+000 89479 -1.2366e+000 -6.8760e-001  4.1991e-001 39607 89251,89323,89453
 6.0000e+000 89502 -1.2732e+000 -1.1942e-001  1.0862e+000 39607 89251,89453,89173
 6.0000e+000 89551 -1.0477e+000 -6.7341e-001  6.4887e-001 39607 89173,89453,89525
 6.0000e+000 90264 -1.1162e+000 -1.7828e+000 -4.0378e-001 39039 89996,90074,90048
 6.0000e+000 90241 -6.7012e-001 -8.6115e-001 -2.4829e-001 39039 89918,90074,89996
 6.0000e+000 90218 -1.0804e+000 -1.0536e+000 -3.3354e-002 39039 89918,89996,89944
 6.0000e+000 90195 -1.3687e+000 -9.7511e-001  8.3029e-003 39039 89892,90074,89918
 6.0000e+000 90172 -2.0262e-001 -1.7062e+000 -4.5131e-001 39039 89996,90048,90022
 6.0000e+000 90149 -1.9685e+000  7.2201e-001 -1.0488e-001 39039 89892,90100,90074
 6.0000e+000 90126 -1.2447e+000 -1.1187e+000 -1.3260e-001 39039 89944,89996,89970
 6.0000e+000 90770 -4.0270e-001 -4.7762e-001 -7.5287e-002 38635 90473,90603,90577
 6.0000e+000 90747 -2.5578e-001 -4.4824e-001 -1.0051e-002 38635 90447,90603,90473
 6.0000e+000 90724 -3.8210e-001 -6.4182e-001 -8.0158e-002 38635 90499,90577,90551
 6.0000e+000 90701 -3.7817e-001 -6.4670e-001 -6.9399e-002 38635 90473,90577,90499
 6.0000e+000 90678 -2.9461e-001 -7.9134e-001 -9.0969e-002 38635 90499,90551,90525
 6.0000e+000 90655 -3.7782e-001 -3.5191e-001  2.9017e-002 38635 90447,90629,90603
 6.0000e+000 90871 -1.1924e-001 -3.1037e-001 -1.5090e-001 38231 90793,90845,90819
 6.0000e+000 91458  2.1546e-001 -2.1943e-001 -1.0310e-001 37534 91161,91317,91291
 6.0000e+000 91435  5.7069e-002  4.9031e-003  5.7960e-002 37534 91135,91317,91161
 6.0000e+000 91412 -2.0233e-001 -9.7548e-001 -4.9380e-001 37534 91187,91291,91239
 6.0000e+000 91389  4.1736e-002 -1.0022e+000  4.5369e-002 37534 91161,91291,91187
 6.0000e+000 91366  7.0323e-002 -5.8569e-001 -3.4584e-001 37534 91239,91291,91265
 6.0000e+000 91343  7.3709e-001 -9.6757e-001 -8.9731e-001 37534 91187,91239,91213
 6.0000e+000 91915 -6.5120e-001 -6.7065e-001  1.7876e-002 37080 91938,91745,91667
 6.0000e+000 91892 -6.3167e-001 -5.7657e-001  1.4422e-001 37080 91938,91667,91797
 6.0000e+000 91869 -8.6535e-001  1.7379e-001 -1.5429e-001 37080 91641,91797,91667
 6.0000e+000 91846 -7.9735e-001 -7.4192e-001  8.3971e-002 37080 91667,91719,91693
 6.0000e+000 91823 -7.6832e-001 -6.9622e-001  3.0580e-002 37080 91667,91745,91719
 6.0000e+000 91964 -5.6294e-001 -4.5891e-001  1.6633e-002 37080 91771,91745,91938
 6.0000e+000 91987 -6.0738e-001 -5.0671e-001  1.4872e-001 37080 91771,91938,91797
 6.0000e+000 92235 -4.5401e-001 -5.1801e-001 -3.3215e-002 36397 92036,92088,92062
 6.0000e+000 92212 -3.3268e-001 -3.8509e-001 -8.4966e-002 36397 92036,92114,92088
 6.0000e+000 92189 -1.8274e-001 -2.7254e-001 -4.3559e-003 36397 92036,92140,92114
 6.0000e+000 92166 -2.7487e-001 -1.9435e-001  2.8346e-003 36397 92010,92140,92036
 6.0000e+000 92694 -1.8422e-001 -6.0334e-003  3.3979e-002 36057 92446,92498,92472
 6.0000e+000 92671 -8.6455e-002  1.9491e-001  6.6105e-002 36057 92446,92550,92498
 6.0000e+000 92648  1.1328e-001 -2.0949e-002  2.6034e-002 36057 92446,92576,92550
 6.0000e+000 92625 -3.2844e-002 -1.0220e-001  6.3613e-002 36057 92420,92576,92446
 6.0000e+000 92602 -1.1903e-001 -7.2712e-002 -2.2287e-001 36057 92498,92550,92524
 6.0000e+000 93023 -4.9911e-001 -4.3090e-001 -1.1483e-001 35717 92876,92928,92902
 6.0000e+000 93000 -4.4525e-001 -4.6382e-001 -1.2714e-001 35717 92824,92928,92876
 6.0000e+000 92977 -2.1225e-001 -4.3708e-001 -7.5889e-002 35717 92798,92928,92824
 6.0000e+000 92954 -3.7501e-001 -5.5181e-001 -4.9139e-001 35717 92824,92876,92850
 6.0000e+000 93499  1.7140e-001 -6.4720e-001  2.9701e-001 35405 93522,93309,93257
 6.0000e+000 93476  3.5139e-001 -3.9973e-001  2.1843e-001 35405 93666,93522,93257
 6.0000e+000 93453  2.0099e-001 -2.1418e+000  2.8973e-001 35405 93594,93127,93335
 6.0000e+000 93430  4.0143e-002 -3.2129e-001  3.4672e-002 35405 93666,93257,93231
 6.0000e+000 93407 -7.4964e-001 -2.6750e+000 -6.5225e-001 35405 93127,93179,93153
 6.0000e+000 93384 -1.0711e+000  1.3986e-001  4.0448e-001 35405 93179,93231,93205
 6.0000e+000 93361  5.2546e-001  6.3332e-001  1.6325e-001 35405 93257,93309,93283
 6.0000e+000 93548  8.4862e-001 -1.6882e-001  8.1523e-001 35405 93335,93309,93522
 6.0000e+000 93571  3.8953e-001 -1.0941e+000  4.8679e-001 35405 93594,93335,93522
 6.0000e+000 93620  1.8246e-001 -1.0098e+000  1.7610e-001 35405 93179,93127,93594
 6.0000e+000 93643 -4.6463e-002 -5.5755e-001  1.6999e-001 35405 93738,93594,93522
 6.0000e+000 93692  5.1308e-002 -5.7013e-001  9.7593e-002 35405 93738,93522,93666
 6.0000e+000 93715 -1.6168e-001 -5.7271e-001 -8.0169e-002 35405 93179,93666,93231
 6.0000e+000 93764 -9.1520e-002 -6.4706e-001  2.1719e-001 35405 93179,93594,93738
 6.0000e+000 93787 -5.0532e-002 -6.8432e-001  1.5106e-001 35405 93179,93738,93666
 6.0000e+000 94372  5.2902e-001 -1.1566e-002 -3.9378e-002 34951 94395,94127,94075
 6.0000e+000 94349  9.9980e-001 -6.9150e-002  1.1842e-001 34951 94395,94075,94231
 6.0000e+000 94326  4.0064e-002 -4.8407e-001  5.0747e-002 34951 94049,94231,94075
 6.0000e+000 94303 -3.9776e-001 -4.9690e-001  5.5508e-001 34951 94075,94127,94101
 6.0000e+000 94280  1.2409e+000  1.9985e-001  4.1078e-001 34951 94127,94205,94153
 6.0000e+000 94257  1.4335e+000  2.6682e-001  6.3152e-001 34951 94153,94205,94179
 6.0000e+000 94421  9.0825e-001 -1.4369e-001  2.4584e-001 34951 94205,94127,94395
 6.0000e+000 94444  1.7743e+000  4.5662e-002  3.7838e-001 34951 94205,94395,94231
 6.0000e+000 94692 -1.8814e-002  5.5716e-002  1.6909e-002 34397 94715,94519,94467
 6.0000e+000 94669 -1.2604e-002  2.2647e-002  7.5400e-003 34397 94715,94467,94597
 6.0000e+000 94646  1.6301e-002  1.0106e-001  4.3603e-002 34397 94545,94597,94571
 6.0000e+000 94623 -3.8218e-002  2.0737e-002 -7.2897e-003 34397 94467,94519,94493
 6.0000e+000 94741  1.1695e-002  1.6571e-001  3.5732e-002 34397 94545,94519,94715
 6.0000e+000 94764 -3.2017e-002  5.8447e-002  2.0959e-002 34397 94545,94715,94597
 6.0000e+000 94985 -7.4028e-002  1.4524e-001 -2.5584e-002 33985 94835,94913,94887
 6.0000e+000 94962  1.5099e-001  6.9665e-001 -4.7975e-002 33985 94809,94913,94835
 6.0000e+000 94939  4.9077e-002  1.6426e-001 -4.1214e-002 33985 94835,94887,94861
 6.0000e+000 95186 -2.7571e-001 -4.3920e-001 -3.1033e-001 33645 95281,95209,95036
 6.0000e+000 95163  3.1703e-002 -6.5634e-001  4.7564e-002 33645 95209,95010,95088
 6.0000e+000 95140  2.8303e-001 -2.7335e-001 -7.1572e-002 33645 95010,95114,95088
 6.0000e+000 95235 -5.7617e-001 -4.9850e-001 -2.1278e-001 33645 95062,95036,95209
 6.0000e+000 95258 -4.0822e-001 -8.2716e-001  2.5644e-001 33645 95413,95209,95088
 6.0000e+000 95307 -1.2699e-001 -3.0222e-001 -3.6727e-001 33645 95010,95209,95281
 6.0000e+000 95439 -3.5141e-001 -6.7428e-001  2.0716e-001 33645 95062,95209,95413
 6.0000e+000 95766 -4.4212e-001  2.3061e-001 -5.9508e-001 33141 95789,95593,95567
 6.0000e+000 95743 -1.0611e-001 -5.2160e-002 -2.1074e-001 33141 95861,95789,95567
 6.0000e+000 95720 -1.4269e-001  2.9668e-002 -5.6834e-002 33141 95861,95567,95671
 6.0000e+000 95697 -1.4396e-001 -3.8343e-002 -7.8939e-002 33141 95541,95671,95567
 6.0000e+000 95815 -1.4824e-001  9.5579e-001 -5.2707e-001 33141 95619,95593,95789
 6.0000e+000 95838 -2.8223e-002  3.2233e-001 -2.2211e-001 33141 95619,95789,95645
 6.0000e+000 95887  1.7026e-002  2.2143e-001 -2.3641e-001 33141 95645,95789,95861
 6.0000e+000 95910 -3.3905e-002  2.9677e-001 -6.2179e-002 33141 95645,95861,95671
 6.0000e+000 96060 -5.4816e-001 -2.7067e-001 -3.2866e-001 32487 95959,96011,95985
 6.0000e+000 96037 -1.4602e-001 -2.2057e-001 -7.7553e-002 32487 95933,96011,95959
 6.0000e+000 96570 -2.2654e-001 -1.0294e-001  9.3067e-002 32033 96665,96593,96377
 6.0000e+000 96547 -3.8599e-001  1.7752e-001 -2.8285e-001 32033 96737,96593,96325
 6.0000e+000 96524 -2.6171e-001 -1.9611e-001  2.6545e-002 32033 96665,96377,96351
 6.0000e+000 96501 -3.8872e-001  3.4675e-001 -2.2806e-001 32033 96737,96325,96299
 6.0000e+000 96478 -3.3702e-001  2.7008e-001 -2.2538e-001 32033 96247,96429,96299
 6.0000e+000 96455 -7.1842e-001 -7.8308e-001 -2.0426e-001 32033 96247,96299,96273
 6.0000e+000 96619  5.9359e-002  6.9090e-002  4.1245e-002 32033 96809,96593,96403
 6.0000e+000 96642  2.8660e-001  6.7448e-001 -6.1454e-001 32033 96403,96593,96429
 6.0000e+000 96691 -6.6497e-002 -3.2650e-001 -1.7805e-002 32033 96325,96593,96665
 6.0000e+000 96714 -2.0327e-001 -4.9811e-001 -1.0873e-001 32033 96325,96665,96351
 6.0000e+000 96763 -4.2720e-001  7.9694e-002 -3.5937e-001 32033 96429,96593,96737
 6.0000e+000 96786 -4.2626e-001  1.9837e-001 -2.8618e-001 32033 96429,96737,96299
 6.0000e+000 96835  1.3274e-002  2.8524e-002  2.3019e-002 32033 96377,96593,96809
 6.0000e+000 97064 -8.8026e-003  1.3075e-002  3.3169e-002 31671 97087,96989,96963
 6.0000e+000 97041 -1.7370e-002  2.6575e-002 -1.4513e-002 31671 97087,96963,96937
 6.0000e+000 97113 -3.2822e-002  2.0280e-002  1.6570e-002 31671 97159,97087,97015
 6.0000e+000 97136 -3.1815e-002 -1.4052e-002 -4.6754e-003 31671 97015,97087,96937
 6.0000e+000 97185 -3.6369e-002 -4.9397e-002  2.8184e-002 31671 96989,97087,97159
 6.0000e+000 97563  6.6290e-004  1.4365e-001  1.3968e-002 31117 97586,97367,97341
 6.0000e+000 97540  3.3261e-002  1.0228e-001 -2.7224e-002 31117 97658,97586,97341
 6.0000e+000 97517  6.7856e-002  8.2256e-002 -1.3243e-002 31117 97658,97341,97315
 6.0000e+000 97494 -3.3374e-002  7.9428e-002  1.7766e-002 31117 97289,97445,97315
 6.0000e+000 97471 -4.5599e-002  4.3797e-002 -1.0626e-002 31117 97367,97419,97393
 6.0000e+000 97612 -1.5729e-002  7.1412e-003  3.5984e-002 31117 97419,97367,97586
 6.0000e+000 97635 -3.1067e-002  7.0434e-002 -5.2802e-002 31117 97419,97586,97445
 6.0000e+000 97684 -2.1300e-002  8.9210e-002 -2.0708e-002 31117 97445,97586,97658
 6.0000e+000 97707  1.7699e-002  7.2350e-002 -6.5232e-003 31117 97445,97658,97315
 6.0000e+000 98215 -2.0699e-001  3.6035e-002 -2.8195e-001 30563 98238,97996,97944
 6.0000e+000 98192 -3.2832e-001  1.0681e-001 -2.6859e-001 30563 98310,98238,97944
 6.0000e+000 98169 -4.5365e-001 -2.2407e-001 -2.8051e-001 30563 98310,97944,97918
 6.0000e+000 98146 -1.7767e-001  2.0746e-002  4.2287e-002 30563 97892,98074,97918
 6.0000e+000 98123 -1.1418e-001  4.2494e-001 -2.8030e-001 30563 97996,98048,98022
 6.0000e+000 98100 -2.8421e-001  1.5845e-001 -5.1067e-001 30563 97944,97996,97970
 6.0000e+000 98264 -2.0231e-001  1.1912e-001 -2.7758e-001 30563 98048,97996,98238
 6.0000e+000 98287 -1.6281e-001  4.2762e-001 -7.7013e-003 30563 98048,98238,98074
 6.0000e+000 98336 -3.4886e-001 -6.0551e-002 -4.0096e-002 30563 98074,98238,98310
 6.0000e+000 98359 -3.6049e-001 -1.5596e-001 -3.0236e-002 30563 98074,98310,97918
 6.0000e+000 98607 -7.5178e-001  2.2182e-001 -7.2527e-003 30073 98630,98460,98408
 6.0000e+000 98584 -1.1082e+000  1.9204e-001 -6.4583e-002 30073 98630,98408,98382
 6.0000e+000 98561 -3.1720e-001  3.7823e-001 -2.0094e-001 30073 98382,98512,98486
 6.0000e+000 98538 -5.4967e-001  1.2869e-001  1.6307e-001 30073 98408,98460,98434
 6.0000e+000 98656 -5.6896e-001  1.0311e-001 -7.7952e-002 30073 98486,98460,98630
 6.0000e+000 98679 -8.0775e-001  1.6630e-001 -1.3042e-001 30073 98486,98630,98382
 6.0000e+000 99157  2.8261e-001 -1.9509e-001  2.1640e-001 29669 99180,98837,98811
 6.0000e+000 99134  3.3119e-001 -3.5778e-002  2.2624e-001 29669 99324,99180,98811
 6.0000e+000 99111  5.1856e-001  5.0625e-001 -3.1183e-001 29669 99252,98863,98837
 6.0000e+000 99088  2.2841e-001 -3.4643e-001  3.2505e-001 29669 99324,98811,98993
 6.0000e+000 99065 -7.4814e-001  7.9901e-001  1.5216e-001 29669 98863,98941,98915
 6.0000e+000 99042 -1.6313e-001  7.0376e-001  3.2080e-001 29669 98863,98915,98889
 6.0000e+000 99019 -1.3340e-002 -3.8627e-001  6.6619e-001 29669 98785,98993,98811
 6.0000e+000 99206  3.4767e-001 -1.4978e-001 -7.9537e-002 29669 99252,98837,99180
 6.0000e+000 99229 -6.5737e-002  2.7007e-001  1.3878e-001 29669 98941,99180,98967
 6.0000e+000 99278  1.2403e-001  1.0113e+000 -2.3015e-001 29669 98941,98863,99252
 6.0000e+000 99301  2.2722e-001  7.1141e-001  1.1772e-002 29669 98941,99252,99180
 6.0000e+000 99350  1.8007e-001  3.5169e-001  1.7206e-001 29669 98967,99180,99324
 6.0000e+000 99373  1.7296e-001  1.1676e-001  2.2063e-001 29669 98967,99324,98993
 6.0000e+000 99958  3.7175e-001  6.8699e-001  1.6663e-001 29051 99981,99765,99739
 6.0000e+000 99935 -4.2308e-002  7.2632e-002 -1.3011e-002 29051 99981,99739,99661
 6.0000e+000 99912  4.9109e-001 -4.4683e-001 -3.4410e-001 29051 99765,99817,99791
 6.0000e+000 99889 -8.9114e-001 -4.8249e-001  5.5043e-001 29051 99635,99817,99661
 6.0000e+000 99866 -1.0697e+000 -8.9863e-003  7.3345e-001 29051 99661,99739,99687
 6.0000e+000 99843 -1.3022e+000  3.2452e-001  3.7961e-001 29051 99687,99739,99713
 6.0000e+000 100007  6.0467e-001  8.6821e-002  2.2435e-001 29051 99817,99765,99981
 6.0000e+000 100030  4.1974e-001 -1.9614e-001  1.4249e-001 29051 99817,99981,99661
 6.0000e+000 100278  9.4337e-001  6.4915e-001  8.7321e-002 28525 100445,100301,100131
 6.0000e+000 100255  3.5424e-001  5.2162e-001  1.2824e-002 28525 100373,100301,100079
 6.0000e+000 100232  3.3058e-001  8.3265e-002  7.8412e-002 28525 100373,100079,100053
 6.0000e+000 100209  7.4841e-001  8.8331e-001 -1.2984e-001 28525 100445,100131,100105
 6.0000e+000 100327  1.7708e+000  3.3062e-001  3.0073e-002 28525 100517,100301,100157
 6.0000e+000 100350  6.3134e-001  3.9989e-001 -3.2563e-001 28525 100157,100301,100183
 6.0000e+000 100399  3.1836e-001  6.6978e-002  2.3571e-001 28525 100183,100301,100373
 6.0000e+000 100422  3.9558e-001 -2.4487e-001  2.9588e-001 28525 100183,100373,100053
 6.0000e+000 100471  6.8224e-001  3.8855e-001 -1.2261e-001 28525 100079,100301,100445
 6.0000e+000 100494  2.1391e-001  3.7336e-001 -3.8795e-001 28525 100079,100445,100105
 6.0000e+000 100543  1.3876e+000  2.6443e-001 -7.7341e-002 28525 100131,100301,100517
 6.0000e+000 101209 -1.4833e+000  3.9044e-001  4.5086e-002 28185 100938,101016,100990
 6.0000e+000 101186 -1.6151e+000  2.5492e-002 -1.7174e-001 28185 100912,101016,100938
 6.0000e+000 101163 -5.0041e-001  3.8308e-001 -5.0514e-002 28185 100912,101068,101016
 6.0000e+000 101140 -2.0266e+000 -4.3480e-001 -4.5799e-001 28185 100886,101068,100912
 6.0000e+000 101117 -5.6291e-001  1.5809e-001 -5.0073e-002 28185 101016,101068,101042
 6.0000e+000 101094 -3.9810e+000 -4.5001e-001  9.9153e-002 28185 100938,100990,100964
 6.0000e+000 101408  1.3945e-001  6.3652e-002 -2.5856e-001 27781 101503,101431,101310
 6.0000e+000 101385 -2.1384e-001  5.5254e-001 -5.2462e-001 27781 101431,101258,101232
 6.0000e+000 101362  2.8967e-001  1.1377e-003 -3.2641e-001 27781 101503,101310,101284
 6.0000e+000 101457  7.8893e-001  4.5020e-001 -4.2820e-001 27781 101336,101310,101431
 6.0000e+000 101480  2.4832e-001  8.3111e-001 -7.5827e-001 27781 101575,101431,101232
 6.0000e+000 101529  3.6926e-001  1.8768e-001 -4.7763e-001 27781 101258,101431,101503
 6.0000e+000 101552  1.8822e-001 -2.7497e-001 -2.9789e-001 27781 101705,101503,101284
 6.0000e+000 101601  3.1775e-001  8.7594e-001 -8.0843e-001 27781 101336,101431,101575
 6.0000e+000 101731 -3.4683e-002  7.9566e-003 -4.4466e-001 27781 101258,101503,101705
 6.0000e+000 102237 -7.8417e-001 -2.2425e-001  5.7926e-002 27419 102476,102260,101992
 6.0000e+000 102214 -5.4569e-001 -3.4733e-001 -4.2920e-002 27419 102260,101940,101914
 6.0000e+000 102191 -8.3375e-001 -3.9905e-001  1.1388e-001 27419 102404,102332,102096
 6.0000e+000 102168 -7.3110e-001 -3.4949e-001  2.1816e-002 27419 102404,102096,102044
 6.0000e+000 102145 -7.2977e-001 -2.6538e-001  8.9601e-002 27419 102476,101992,101966
 6.0000e+000 102122 -4.7189e-001 -4.3711e-001  8.0150e-003 27419 102044,102096,102070
 6.0000e+000 102286 -1.0240e+000 -4.2944e-001  1.6761e-001 27419 102018,101992,102260
 6.0000e+000 102309 -7.9037e-001 -3.1001e-001  1.5311e-002 27419 102332,102018,102260
 6.0000e+000 102358 -8.5938e-001 -7.3051e-001  2.4410e-001 27419 101914,102096,102332
 6.0000e+000 102381 -7.3864e-001 -4.7997e-001  4.8529e-002 27419 101914,102332,102260
 6.0000e+000 102430 -6.3459e-001 -3.8412e-001 -1.1685e-002 27419 102018,102332,102404
 6.0000e+000 102453 -5.4967e-001 -3.0172e-001 -1.1381e-001 27419 102018,102404,102044
 6.0000e+000 102502 -6.6732e-001 -2.8760e-001  8.9820e-002 27419 101940,102260,102476
 6.0000e+000 102525 -1.8765e-001 -8.5272e-002  5.9704e-002 27419 101940,102476,101966
 6.0000e+000 103031 -1.3282e+000  1.1869e+000  9.0784e-001 26715 102708,102786,102760
 6.0000e+000 103008 -2.0078e-001 -3.8538e-001  1.5219e-001 26715 102708,102890,102786
 6.0000e+000 102985  1.0615e+000 -6.6805e-001  9.3836e-002 26715 102838,102890,102864
 6.0000e+000 102962  2.9524e-001  1.0296e+000  1.1519e-001 26715 102786,102890,102838
 6.0000e+000 102939  1.4666e+000  1.6049e+000  7.1889e-001 26715 102786,102838,102812
 6.0000e+000 102916 -2.1076e+000 -6.8640e-002  3.7736e-001 26715 102708,102760,102734
 6.0000e+000 103279  9.6431e-003  4.3770e-002 -1.0757e-001 26303 103302,103158,103080
 6.0000e+000 103256  1.4907e-001 -6.4368e-002 -1.1079e-001 26303 103302,103080,103054
 6.0000e+000 103233  3.1530e-001  1.9596e-001 -4.2804e-002 26303 103080,103158,103106
 6.0000e+000 103210 -4.0551e-001 -3.0554e-003 -5.8715e-002 26303 103106,103158,103132
 6.0000e+000 103328 -2.2510e-001 -6.8325e-002 -5.7694e-002 26303 103184,103158,103302
 6.0000e+000 103351  3.9425e-002 -8.1634e-002 -8.4733e-002 26303 103184,103302,103054
 6.0000e+000 103501 -9.7555e-001 -1.1587e-001  5.9124e-002 25849 103374,103426,103400
 6.0000e+000 103478 -8.6574e-001 -3.9938e-001  4.8221e-003 25849 103374,103452,103426
 6.0000e+000 104090 -8.9026e-002  2.0871e-001  1.2080e-001 25445 103793,103871,103819
 6.0000e+000 104067  1.9361e-001  1.0448e-001  1.2711e-003 25445 103793,103949,103871
 6.0000e+000 104044  2.6645e-001  2.9105e-001  1.3295e-003 25445 103871,103949,103923
 6.0000e+000 104021 -6.8246e-002  2.8726e-001 -5.6601e-003 25445 103819,103871,103845
 6.0000e+000 103998  1.1853e-001  1.8033e-001  2.0168e-001 25445 103767,103949,103793
 6.0000e+000 103975  3.9153e-001  2.0599e-001 -1.0578e-002 25445 103871,103923,103897
 6.0000e+000 104419 -3.6990e-001 -9.1155e-002 -1.2517e-001 25083 104220,104298,104272
 6.0000e+000 104396 -7.0429e-001 -4.1546e-001  6.4771e-003 25083 104220,104324,104298
 6.0000e+000 104373 -2.8060e-001 -1.8078e-001 -2.5424e-002 25083 104220,104272,104246
 6.0000e+000 104350 -7.0076e-001 -3.4626e-001  2.7662e-002 25083 104194,104324,104220
 6.0000e+000 105102  4.8022e-002 -1.6666e-001 -1.2178e-001 24793 104785,104863,104837
 6.0000e+000 105079 -1.4907e-002 -4.5356e-001 -2.8773e-001 24793 104759,104863,104785
 6.0000e+000 105056 -9.3685e-002 -6.9422e-002 -3.0270e-001 24793 104759,104915,104863
 6.0000e+000 105033 -1.9171e-001 -8.9414e-002 -2.2983e-001 24793 104733,104915,104759
 6.0000e+000 105010  6.1788e-002 -1.5322e-002 -2.4469e-001 24793 104863,104915,104889
 6.0000e+000 104987 -3.2396e-001 -1.2897e-002 -3.2395e-001 24793 104681,104915,104733
 6.0000e+000 104964 -3.9770e-002 -2.7746e-001 -1.6322e-001 24793 104785,104837,104811
 6.0000e+000 104941 -1.9969e-001  2.7555e-001 -3.5609e-001 24793 104681,104733,104707
 6.0000e+000 105252  8.8114e-001  1.1439e+000 -8.8062e-002 24389 105477,105275,105177
 6.0000e+000 105229  8.7917e-001  1.2093e+000 -1.2540e-001 24389 105347,105275,105151
 6.0000e+000 105301  9.4757e-001  1.0417e+000 -1.2387e-001 24389 105203,105177,105275
 6.0000e+000 105324  9.5644e-001  1.0580e+000 -1.1595e-001 24389 105203,105275,105125
 6.0000e+000 105373  8.7276e-001  7.9112e-001 -4.2323e-002 24389 105125,105275,105347
 6.0000e+000 105503  1.0688e+000  1.4253e+000  2.3116e-002 24389 105151,105275,105477
 6.0000e+000 106088 -5.8273e-001  5.5413e-001  7.0368e-001 23735 105791,105921,105895
 6.0000e+000 106065 -2.0379e+000 -2.7695e-002  6.9489e-001 23735 105765,105921,105791
 6.0000e+000 106042 -3.6537e-001  6.5738e-001  3.7488e-001 23735 105765,105947,105921
 6.0000e+000 106019 -2.3434e+000  7.4296e-002  9.4408e-001 23735 105817,105895,105869
 6.0000e+000 105996 -1.4426e+000  3.1534e-001  8.3974e-001 23735 105791,105895,105817
 6.0000e+000 105973 -1.1320e+000  2.6569e-001  7.6187e-001 23735 105817,105869,105843
 6.0000e+000 106417  6.9759e-001  2.0840e+000 -4.5812e-001 23295 106218,106296,106270
 6.0000e+000 106394  2.3295e-001  6.8808e-001 -3.3021e-001 23295 106218,106322,106296
 6.0000e+000 106371  3.0295e-002  4.8909e-001 -4.1343e-001 23295 106218,106270,106244
 6.0000e+000 106348  4.6557e-001  7.8734e-001 -1.3628e-001 23295 106192,106322,106218
 6.0000e+000 106746  1.5004e-001  7.4298e-001  1.2693e-001 23005 106521,106599,106547
 6.0000e+000 106723  6.0644e-001  8.2698e-001  1.4403e-002 23005 106521,106651,106599
 6.0000e+000 106700  3.9784e-001  7.5785e-001  4.5683e-002 23005 106547,106599,106573
 6.0000e+000 106677  7.6743e-001  8.0612e-001  3.9941e-001 23005 106599,106651,106625
 6.0000e+000 107331 -3.8211e-001  2.1377e-001 -2.8655e-001 22601 107060,107190,107138
 6.0000e+000 107308 -1.2334e+000 -5.3674e-002 -6.0682e-001 22601 107034,107190,107060
 6.0000e+000 107285 -1.7837e+000 -4.3721e-001 -5.8258e-001 22601 107060,107138,107112
 6.0000e+000 107262 -1.8990e+000 -3.5135e-001 -6.6450e-001 22601 107008,107190,107034
 6.0000e+000 107239 -1.9876e-001  1.0848e+000 -1.2100e+000 22601 107060,107112,107086
 6.0000e+000 107216 -6.0036e-001  2.7158e-001 -1.4377e-001 22601 107138,107190,107164
 6.0000e+000 107807 -5.6718e-001  1.2465e-001 -1.0568e-001 22031 107974,107902,107617
 6.0000e+000 107784 -7.0388e-001  3.9081e-001 -2.6226e-001 22031 107830,107565,107513
 6.0000e+000 107761 -4.6156e-001  7.6985e-002 -2.9396e-001 22031 108046,107830,107513
 6.0000e+000 107738 -4.3791e-001  3.4490e-001  2.2178e-002 22031 107974,107617,107591
 6.0000e+000 107715 -5.0285e-001 -6.5316e-002 -2.5353e-001 22031 108046,107513,107461
 6.0000e+000 107692 -1.7329e+000  6.1807e-001 -4.7661e-001 22031 107513,107565,107539
 6.0000e+000 107669 -2.7526e-001  2.1395e-001 -3.8502e-001 22031 107461,107513,107487
 6.0000e+000 107856 -8.2976e-001  2.5563e-001 -1.7852e-001 22031 107902,107565,107830
 6.0000e+000 107879 -5.5450e-001 -1.1242e-001 -1.8356e-002 22031 107643,107830,107435
 6.0000e+000 107928 -1.1315e+000  5.1299e-001 -5.0482e-001 22031 107643,107617,107902
 6.0000e+000 107951 -7.9573e-001  2.3301e-001  2.8358e-002 22031 107643,107902,107830
 6.0000e+000 108000 -7.3281e-001  4.3684e-001 -1.2856e-001 22031 107565,107902,107974
 6.0000e+000 108023 -7.0530e-001  3.6520e-001 -9.6862e-002 22031 107565,107974,107591
 6.0000e+000 108072 -4.2033e-001 -1.0699e-001 -9.7583e-002 22031 107435,107830,108046
 6.0000e+000 108095 -5.1078e-001 -3.3285e-001 -5.6057e-002 22031 107435,108046,107461
 6.0000e+000 108196  6.2879e-002  4.5760e-002 -2.1203e-001 21783 108118,108170,108144
 6.0000e+000 108655  1.6550e-001  9.4030e-001  5.5397e-001 21379 108407,108485,108459
 6.0000e+000 108632  1.8766e+000 -3.8412e-002  7.7644e-001 21379 108407,108511,108485
 6.0000e+000 108609  1.9274e+000 -2.6238e-001  4.9553e-001 21379 108381,108511,108407
 6.0000e+000 108586  8.3108e-001  5.3079e-001 -6.2388e-001 21379 108381,108537,108511
 6.0000e+000 108563  4.9879e-001  1.2702e-001  2.5254e-001 21379 108407,108459,108433
 6.0000e+000 109082 -7.2177e-002  7.8711e-001  2.0056e-001 20974 109105,108863,108811
 6.0000e+000 109059  3.9154e-001  1.0434e+000 -1.5844e-001 20974 109105,108811,108759
 6.0000e+000 109036 -1.0082e-001  1.6960e+000 -1.6962e-001 20974 109177,108889,108863
 6.0000e+000 109013  8.3492e-001  1.4127e+000 -1.4061e-001 20974 108811,108863,108837
 6.0000e+000 108990 -4.0986e-001  1.0196e-002 -6.3960e-002 20974 108759,108941,108915
 6.0000e+000 108967  1.7110e-001 -2.6005e-001  4.3089e-002 20974 108759,108811,108785
 6.0000e+000 109131  1.8889e-001  1.3185e+000  5.8955e-002 20974 109177,108863,109105
 6.0000e+000 109154  1.4919e-002  5.0534e-002 -4.2742e-002 20974 108915,109105,108759
 6.0000e+000 109203 -2.5989e-001  1.3867e+000  1.8194e-001 20974 108915,108889,109177
 6.0000e+000 109226 -2.0404e-001  5.9699e-001  3.9540e-001 20974 108915,109177,109105
 6.0000e+000 109496 -8.2764e-001  1.2652e-001 -6.8541e-002 20470 109271,109375,109297
 6.0000e+000 109473 -7.7068e-001  2.4474e-001 -1.2768e-001 20470 109271,109401,109375
 6.0000e+000 109450 -9.7869e-001 -9.4907e-002 -1.4505e-001 20470 109297,109375,109349
 6.0000e+000 109427 -1.3438e+000 -8.4429e-001  2.6633e-001 20470 109297,109349,109323
 6.0000e+000 109955  2.2926e-001  1.7792e+000  9.9924e-001 20123 110050,109733,109707
 6.0000e+000 109932 -7.2577e-001  8.4283e-001  5.3281e-001 20123 110050,109707,109681
 6.0000e+000 109909  2.1097e-001  5.2889e-001  6.4921e-001 20123 109978,109759,109733
 6.0000e+000 109886 -1.6824e-001  3.4099e-001  5.6997e-001 20123 110122,109978,109733
 6.0000e+000 109863  3.1916e-001  2.7514e-001  2.8259e-001 20123 109785,109837,109811
 6.0000e+000 110004  1.5495e-001  4.8447e-001  4.4603e-001 20123 109785,109759,109978
 6.0000e+000 110027  1.1070e-002  3.5456e-001  3.0722e-001 20123 109785,109978,109837
 6.0000e+000 110076 -3.5862e-001  6.2341e-001  4.5097e-001 20123 110122,109733,110050
 6.0000e+000 110099 -3.1213e-001  5.0366e-001  9.1078e-002 20123 109837,110050,109681
 6.0000e+000 110148  1.9941e-001  7.4548e-001  4.0619e-001 20123 109837,109978,110122
 6.0000e+000 110171  2.3906e-002  9.8657e-001  2.8222e-001 20123 109837,110122,110050
 6.0000e+000 110500  1.1953e+000  3.8003e-001 -2.8164e-001 19511 110301,110379,110353
 6.0000e+000 110477  1.7107e+000  9.8437e-001 -5.0335e-001 19511 110301,110405,110379
 6.0000e+000 110454  4.4419e-001  3.6861e-001 -2.8153e-001 19511 110275,110405,110301
 6.0000e+000 110431  1.0293e+000  5.1854e-001  4.9536e-001 19511 110301,110353,110327
 6.0000e+000 110957  3.1425e-001  1.2344e+000 -7.5991e-001 19107 110683,110735,110709
 6.0000e+000 110934  1.5338e-001 -2.4995e-001 -1.0352e+000 19107 110683,110813,110735
 6.0000e+000 110911  4.6952e-001  6.9722e-001 -9.6850e-001 19107 110735,110813,110761
 6.0000e+000 110888 -7.6032e-001 -7.1070e-001 -8.6481e-001 19107 110683,110839,110813
 6.0000e+000 110865  2.0169e-001  8.2727e-002 -9.3545e-001 19107 110761,110813,110787
 6.0000e+000 111335 -2.3244e-001 -2.9643e-001 -1.6561e-001 18653 111087,111165,111139
 6.0000e+000 111312 -8.6203e-002 -1.2273e-001 -2.3259e-001 18653 111087,111217,111165
 6.0000e+000 111289 -2.0043e-001 -1.8936e-001 -1.1133e-001 18653 111061,111217,111087
 6.0000e+000 111266 -9.9737e-002 -7.1942e-002 -9.5615e-002 18653 111087,111139,111113
 6.0000e+000 111243 -9.9419e-002 -2.0148e-001 -1.6691e-001 18653 111165,111217,111191
 6.0000e+000 111735 -1.1468e+000 -3.6334e-001 -6.2484e-002 18213 111461,111513,111487
 6.0000e+000 111712 -1.3021e+000 -8.0850e-001  1.1527e-002 18213 111461,111617,111513
 6.0000e+000 111689 -1.2474e+000 -7.2677e-001 -1.8237e-001 18213 111513,111617,111591
 6.0000e+000 111666 -5.7332e-001 -3.2620e-001  6.1279e-002 18213 111513,111591,111539
 6.0000e+000 111643 -3.4087e-001 -3.8025e-001 -2.4748e-003 18213 111539,111591,111565
 6.0000e+000 111885  7.2491e-001 -3.9370e-001  2.5909e-001 17659 111784,111836,111810
 6.0000e+000 111862  1.6529e+000  4.8711e-001  6.3805e-001 17659 111758,111836,111784
 6.0000e+000 112287 -4.6592e-002  7.7626e-001 -3.8282e-001 17411 112065,112169,112143
 6.0000e+000 112264 -2.1580e+000  3.3369e-002  2.9402e-001 17411 112039,112169,112065
 6.0000e+000 112241 -2.4000e+000  2.1170e-001 -4.5381e-001 17411 112013,112169,112039
 6.0000e+000 112218  3.4713e+000  1.1269e+000 -6.9296e-001 17411 112091,112143,112117
 6.0000e+000 112195 -1.3182e-001 -1.3910e-001  2.9753e-001 17411 112065,112143,112091
 6.0000e+000 112508 -8.2360e-001  5.1118e-001  9.2543e-002 17007 112384,112436,112410
 6.0000e+000 112485 -6.3377e-001  6.9219e-001  1.7064e-001 17007 112332,112436,112384
 6.0000e+000 112462 -8.1287e-001  3.4232e-001  1.0738e-001 17007 112332,112384,112358
 6.0000e+000 112658 -2.0531e+000 -4.3293e-001  3.1839e-001 16553 112557,112609,112583
 6.0000e+000 112635 -1.9918e+000 -3.0313e-001  3.6898e-001 16553 112531,112609,112557
 6.0000e+000 112761 -4.9929e-001  2.0080e+000 -3.3880e-001 16355 112683,112735,112709
 6.0000e+000 112913 -1.2997e+000  6.6722e-001  7.5708e-002 15949 112786,112838,112812
 6.0000e+000 112890 -6.4555e-001  1.7880e+000 -2.3625e-001 15949 112786,112864,112838
 6.0000e+000 113065  2.0970e-001 -1.2852e-001 -8.0498e-002 15609 112938,112990,112964
 6.0000e+000 113042  6.7455e-001  5.4685e-002 -9.3843e-003 15609 112938,113016,112990
 6.0000e+000 113420  7.7518e-001  7.2714e-001  2.5911e-001 15284 113247,113325,113299
 6.0000e+000 113397  7.3062e-001  6.1794e-001  1.5872e-001 15284 113195,113325,113247
 6.0000e+000 113374  5.9847e-001  5.9141e-001  1.0903e-001 15284 113195,113247,113221
 6.0000e+000 113351  7.7549e-001  1.2364e+000  3.1254e-001 15284 113247,113299,113273
 6.0000e+000 113521  4.8775e-001 -4.3321e-001  3.0746e-001 202 113443,113495,113469
 6.5000e+000 65564 -2.1605e-002 -1.5044e-002 -2.2829e-002 65155 65414,65466,65440
 6.5000e+000 65541 -9.5180e-002  7.2823e-002  5.9126e-002 65155 65414,65492,65466
 6.5000e+000 65518 -5.2348e-002  1.2128e-001 -1.9962e-002 65155 65388,65492,65414
 6.5000e+000 65883 -2.3535e-001  7.5739e-001 -3.5981e-002 64957 65635,65739,65713
 6.5000e+000 65860 -7.1353e-002  1.5297e+000 -2.6724e-002 64957 65635,65765,65739
 6.5000e+000 65837  1.3062e-001  1.6147e+000 -3.4425e-002 64957 65609,65765,65635
 6.5000e+000 65814 -1.5663e-001  1.1037e+000 -3.9732e-001 64957 65635,65713,65687
 6.5000e+000 65791 -6.3086e-002  1.3613e+000 -2.5399e-001 64957 65635,65687,65661
 6.5000e+000 65984 -2.7637e-001  2.9620e-001  1.9524e-001 64781 65906,65958,65932
 6.5000e+000 66232  3.6683e-001  4.5434e-001 -4.1076e-001 64469 66007,66059,66033
 6.5000e+000 66209 -2.8295e-001 -7.4499e-002 -6.4134e-001 64469 66007,66085,66059
 6.5000e+000 66186  8.8257e-002  8.9553e-001 -2.0121e-001 64469 66007,66137,66085
 6.5000e+000 66163 -5.7644e-001  3.2099e-002 -9.7607e-001 64469 66085,66137,66111
 6.5000e+000 66504  1.2092e-002  1.5175e+000 -9.4770e-002 64271 66279,66383,66305
 6.5000e+000 66481 -1.7841e-001  1.5424e+000  5.7267e-002 64271 66279,66409,66383
 6.5000e+000 66458 -2.7269e-001  1.9377e+000 -1.2176e-001 64271 66305,66357,66331
 6.5000e+000 66435  6.0309e-002  1.9133e+000 -1.1511e-001 64271 66305,66383,66357
 6.5000e+000 66705 -3.1957e-002  1.5642e+000 -2.3897e-001 64073 66728,66581,66555
 6.5000e+000 66682  1.6976e-002  1.5947e+000 -2.2392e-001 64073 66728,66555,66529
 6.5000e+000 66659 -6.4979e-001  2.0327e+000  5.8159e-001 64073 66581,66633,66607
 6.5000e+000 66754 -8.1655e-002  1.6001e+000 -2.5228e-001 64073 66633,66581,66728
 6.5000e+000 66777 -4.5050e-002  1.6267e+000 -2.3613e-001 64073 66633,66728,66529
 6.5000e+000 66951  2.3433e-001 -2.6212e-002  3.0071e-001 63783 66824,66876,66850
 6.5000e+000 66928 -8.3141e-001  6.3427e-001 -1.0564e-001 63783 66824,66902,66876
 6.5000e+000 67201  6.0512e-001  1.7565e+000 -1.1172e-001 63585 66976,67080,67054
 6.5000e+000 67178  2.7815e-001  1.6254e+000 -1.9545e-001 63585 66976,67106,67080
 6.5000e+000 67155  3.1792e-001  8.3619e-001 -1.7049e-002 63585 66976,67054,67028
 6.5000e+000 67132  4.6599e-001  1.0732e+000  2.9346e-001 63585 66976,67028,67002
 6.5000e+000 67654 -1.6647e-001  1.0812e+000  4.3200e-002 63295 67357,67487,67383
 6.5000e+000 67631 -2.0622e-001  1.5241e+000 -3.1199e-001 63295 67331,67487,67357
 6.5000e+000 67608  7.9230e-002  1.9815e+000  7.8260e-002 63295 67331,67513,67487
 6.5000e+000 67585 -2.3693e-002  2.0708e+000 -7.8473e-002 63295 67435,67487,67461
 6.5000e+000 67562  8.2496e-002  1.9986e+000  4.3662e-002 63295 67383,67487,67435
 6.5000e+000 67539  7.6455e-004  1.5455e+000 -7.6661e-002 63295 67383,67435,67409
 6.5000e+000 67853 -2.9154e-002  1.2996e+000 -3.2088e-002 62891 67876,67703,67677
 6.5000e+000 67830  5.2771e-002  1.6931e+000 -7.3137e-003 62891 67876,67677,67781
 6.5000e+000 67807 -2.1838e-001  1.0425e+000 -1.2468e-001 62891 67948,67729,67703
 6.5000e+000 67902 -3.9193e-002  1.2156e+000 -2.1933e-001 62891 67948,67703,67876
 6.5000e+000 67925  3.3771e-001  1.3730e+000 -2.4590e-001 62891 67755,67876,67781
 6.5000e+000 67974  6.2741e-002  8.3477e-001 -7.9321e-002 62891 67755,67729,67948
 6.5000e+000 67997  1.1261e-001  9.1313e-001 -1.3786e-001 62891 67755,67948,67876
 6.5000e+000 68218  2.5505e-002 -5.1870e-002 -3.4848e-002 62693 68042,68120,68068
 6.5000e+000 68195 -1.9241e-003 -4.6585e-002  3.4385e-003 62693 68042,68146,68120
 6.5000e+000 68172 -7.2512e-002  4.2416e-002 -2.4886e-002 62693 68068,68120,68094
 6.5000e+000 68468  8.4764e-002 -8.4868e-005 -1.1706e-002 62289 68491,68295,68269
 6.5000e+000 68445  2.4772e-002 -1.6881e-002 -3.0156e-002 62289 68563,68491,68269
 6.5000e+000 68422  1.9161e-002  1.5530e-002 -4.7898e-003 62289 68563,68269,68243
 6.5000e+000 68399 -8.1681e-002 -1.2580e-001 -9.6442e-002 62289 68295,68347,68321
 6.5000e+000 68517  4.9419e-002 -9.8658e-003 -3.5780e-002 62289 68347,68295,68491
 6.5000e+000 68540 -3.2353e-002  1.0337e-003 -5.6182e-002 62289 68347,68491,68373
 6.5000e+000 68589  4.5749e-002  4.7258e-002 -3.2242e-002 62289 68373,68491,68563
 6.5000e+000 68612  2.6555e-002  5.7755e-002 -5.7292e-003 62289 68373,68563,68243
 6.5000e+000 68911  5.2783e-002  1.1858e+000 -4.6087e-002 62091 69222,68934,68741
 6.5000e+000 68888 -2.8611e-001  1.3027e+000 -5.5687e-002 62091 69006,68934,68689
 6.5000e+000 68865 -4.5382e-001  1.1175e+000 -2.3529e-001 62091 69006,68689,68663
 6.5000e+000 68842  2.3567e-001  1.5711e+000  2.5128e-001 62091 69078,68793,68767
 6.5000e+000 68819  6.5308e-002  1.1984e+000 -1.0752e-001 62091 69222,68741,68715
 6.5000e+000 68960  2.6558e-001  1.3990e+000 -1.3359e-001 62091 68767,68741,68934
 6.5000e+000 68983  1.1202e-001  1.6651e+000  6.0383e-002 62091 69078,68767,68934
 6.5000e+000 69032 -2.1539e-001  1.4853e+000 -1.3143e-002 62091 69150,69006,68637
 6.5000e+000 69055 -2.2780e-001  1.4058e+000 -7.1995e-002 62091 68637,69006,68663
 6.5000e+000 69104  1.5118e-001  1.3732e+000  6.4224e-003 62091 68637,68793,69078
 6.5000e+000 69127 -1.9169e-001  1.4672e+000 -2.5992e-002 62091 69150,68637,69078
 6.5000e+000 69176 -1.1281e-001  1.3137e+000  3.4123e-003 62091 68934,69006,69150
 6.5000e+000 69199  2.3581e-002  1.4251e+000 -5.5675e-002 62091 68934,69150,69078
 6.5000e+000 69248  2.5142e-002  1.1148e+000 -5.1712e-002 62091 68689,68934,69222
 6.5000e+000 69271  3.4294e-002  1.0958e+000 -9.3802e-002 62091 68689,69222,68715
 6.5000e+000 69521 -2.2013e-001  6.1828e-002 -2.4002e-002 61893 69544,69348,69296
 6.5000e+000 69498 -7.3945e-002  8.6725e-002  4.3504e-003 61893 69544,69296,69400
 6.5000e+000 69475  2.1105e-002  9.1959e-002 -1.1235e-002 61893 69296,69426,69400
 6.5000e+000 69452  4.8471e-002 -7.6067e-002 -2.1800e-001 61893 69296,69348,69322
 6.5000e+000 69570 -1.4314e-001 -9.3214e-004  8.8815e-002 61893 69374,69348,69544
 6.5000e+000 69593  1.1421e-001  8.6906e-002  1.1031e-001 61893 69374,69544,69400
 6.5000e+000 70046 -1.1036e-001  1.2526e+000 -2.8664e-002 61467 69749,69905,69879
 6.5000e+000 70023 -1.3544e-001  1.0322e+000 -2.9784e-001 61467 69723,69905,69749
 6.5000e+000 70000 -1.7707e-001  1.1379e+000 -7.4519e-004 61467 70069,69827,69775
 6.5000e+000 69977  1.6635e-001  1.9291e+000 -2.7374e-001 61467 70069,69775,69749
 6.5000e+000 69954  2.4897e-002  5.5016e-001 -1.5963e-003 61467 70141,69853,69827
 6.5000e+000 69931 -3.1507e-001  1.2235e+000  3.8194e-001 61467 69775,69827,69801
 6.5000e+000 70095 -8.3300e-002  7.1067e-001  1.0192e-001 61467 70141,69827,70069
 6.5000e+000 70118 -1.2535e-001  1.1471e+000 -8.1755e-003 61467 69879,70069,69749
 6.5000e+000 70167 -9.6667e-002  7.9668e-001 -9.5320e-003 61467 69879,69853,70141
 6.5000e+000 70190 -3.4207e-002  1.1772e+000  9.7943e-002 61467 69879,70141,70069
 6.5000e+000 70291  1.6592e-001  2.0829e+000  2.1674e-001 61013 70213,70265,70239
 6.5000e+000 70441 -2.4469e-001  8.3329e-003  8.0956e-002 60651 70340,70392,70366
 6.5000e+000 70418 -3.2085e-001  1.0848e-001 -1.1380e-002 60651 70314,70392,70340
 6.5000e+000 70642 -9.1708e-002  1.1312e+000  3.0845e-001 60311 70665,70492,70466
 6.5000e+000 70619  8.0522e-002  1.5353e+000  3.0383e-001 60311 70665,70466,70570
 6.5000e+000 70596 -3.3840e-001  3.8979e-001  3.7981e-002 60311 70492,70544,70518
 6.5000e+000 70691 -2.0408e-003  7.3647e-001 -1.1815e-001 60311 70544,70492,70665
 6.5000e+000 70714  2.6596e-001  1.3589e+000 -1.3559e-001 60311 70544,70665,70570
 6.5000e+000 70964 -2.7611e-001  8.8901e-001  4.5982e-002 59907 70987,70765,70739
 6.5000e+000 70941 -5.6128e-002  1.3906e+000 -5.2678e-002 59907 71059,70987,70739
 6.5000e+000 70918  9.0786e-002  2.1124e+000 -1.3557e-001 59907 71059,70739,70869
 6.5000e+000 70895  2.7607e-002  1.4156e+000 -1.0004e-001 59907 70817,70869,70843
 6.5000e+000 71013 -1.0267e-001  9.2453e-001 -2.3599e-001 59907 70791,70765,70987
 6.5000e+000 71036 -3.7709e-002  9.2848e-001 -2.0454e-001 59907 70791,70987,70817
 6.5000e+000 71085  1.0575e-001  9.0831e-001 -1.6668e-001 59907 70817,70987,71059
 6.5000e+000 71108 -3.5530e-002  1.2245e+000 -1.2113e-001 59907 70817,71059,70869
 6.5000e+000 71441  5.0419e-001  7.0191e-001 -1.1380e+000 59417 71464,71242,71216
 6.5000e+000 71418  8.8349e-001  1.0139e+000  1.1524e-001 59417 71464,71216,71320
 6.5000e+000 71395  4.4913e-001  1.2115e+000  2.7753e-001 59417 71216,71346,71320
 6.5000e+000 71372 -1.5453e+000  1.8296e-001 -1.6891e-001 59417 71268,71320,71294
 6.5000e+000 71490 -3.3738e-001  3.6954e-001 -1.3543e+000 59417 71268,71242,71464
 6.5000e+000 71513 -9.0864e-001  3.8526e-001 -2.2524e-002 59417 71268,71464,71320
 6.5000e+000 71712  1.4000e-002  1.2117e+000 -1.9116e-001 58913 71562,71614,71588
 6.5000e+000 71689  9.2476e-001  1.0809e+000 -5.6058e-001 58913 71536,71614,71562
 6.5000e+000 71666  6.5510e-001  8.5967e-001 -4.6293e-001 58913 71536,71640,71614
 6.5000e+000 72171  6.9275e-001  1.5766e+000 -3.3939e-001 58409 72194,72027,72001
 6.5000e+000 72148  5.3334e-001  8.7276e-001 -4.1613e-001 58409 72194,72001,71949
 6.5000e+000 72125  1.9263e-001  1.1863e+000 -3.9667e-001 58409 71923,72053,71949
 6.5000e+000 72102  5.7377e-002  5.8454e-001 -2.6238e-001 58409 71949,72001,71975
 6.5000e+000 72079  4.4036e-001  1.2483e+000 -4.1985e-001 58409 71897,72053,71923
 6.5000e+000 72220  6.1167e-001  1.6946e+000  8.4812e-003 58409 72053,72027,72194
 6.5000e+000 72243  5.8820e-001  1.3456e+000 -1.3010e-001 58409 72053,72194,71949
 6.5000e+000 72491 -1.9713e+000 -8.3304e-001 -1.2971e+000 57855 72514,72318,72292
 6.5000e+000 72468  1.1408e+000  4.4200e-001 -1.4222e+000 57855 72514,72292,72266
 6.5000e+000 72445 -1.1199e+000  1.3010e-001  2.6827e-002 57855 72318,72396,72370
 6.5000e+000 72422 -3.0224e+000  9.6273e-001 -9.6558e-001 57855 72318,72370,72344
 6.5000e+000 72540 -2.2631e+000 -3.7547e-001 -8.4078e-001 57855 72396,72318,72514
 6.5000e+000 72563 -1.9665e+000 -3.5562e-001 -8.6884e-001 57855 72396,72514,72266
 6.5000e+000 72811  1.0612e+000  2.1436e-001 -6.4063e-001 57401 72612,72690,72638
 6.5000e+000 72788  1.7066e-001 -1.4712e-001  4.6786e-002 57401 72586,72690,72612
 6.5000e+000 72765 -5.9675e-001 -8.9784e-001 -1.1228e+000 57401 72638,72690,72664
 6.5000e+000 72742  2.4593e-001  9.5726e-001 -2.3454e-001 57401 72586,72716,72690
 6.5000e+000 73144  1.1737e-001  7.2179e-001 -1.8008e-001 57004 72919,72997,72945
 6.5000e+000 73121  1.8167e-001  1.4823e+000 -3.8331e-001 57004 72919,73049,72997
 6.5000e+000 73098  9.2362e-002  9.7366e-001 -3.5785e-001 57004 72945,72997,72971
 6.5000e+000 73075  2.8028e-001  1.8137e+000 -4.4855e-001 57004 72997,73049,73023
 6.5000e+000 73650 -1.3198e+000  1.7009e+000 -1.1658e+000 56592 73673,73379,73353
 6.5000e+000 73627  1.7976e+000  2.2892e+000 -1.8711e+000 56592 73673,73353,73327
 6.5000e+000 73604  1.0588e-001  1.5263e+000 -5.2603e-001 56592 73745,73509,73483
 6.5000e+000 73581 -2.3854e+000 -5.6139e-001 -3.5866e-001 56592 73379,73457,73405
 6.5000e+000 73558  3.7275e-001  3.2749e-001  1.2498e-001 56592 73379,73483,73457
 6.5000e+000 73535  2.2459e+000  5.3261e-001 -1.0970e-001 56592 73405,73457,73431
 6.5000e+000 73699 -1.0664e+000  1.1614e+000  2.7262e-001 56592 73483,73379,73673
 6.5000e+000 73722 -4.9426e-002  1.8290e+000 -6.2320e-001 56592 73745,73483,73673
 6.5000e+000 73771 -3.1233e-002  1.1750e+000 -5.6047e-001 56592 73327,73509,73745
 6.5000e+000 73794 -2.3501e-001  1.4130e+000 -7.0269e-001 56592 73327,73745,73673
 6.5000e+000 74123  1.2470e+000  8.7393e-001 -2.0154e-001 56152 74146,74002,73924
 6.5000e+000 74100  1.0778e+000  6.7924e-001 -4.1004e-002 56152 74146,73924,73898
 6.5000e+000 74077  1.4467e+000  1.1399e+000 -3.0377e-001 56152 73924,74002,73976
 6.5000e+000 74054  1.0606e+000  2.5625e-001  1.4765e-001 56152 73924,73976,73950
 6.5000e+000 74172  1.6323e+000  1.1724e+000 -3.9216e-001 56152 74028,74002,74146
 6.5000e+000 74195  1.2765e+000  7.8824e-001 -1.8661e-001 56152 74028,74146,73898
 6.5000e+000 74345 -8.4082e-001  2.7813e-001  4.4717e-001 55634 74218,74270,74244
 6.5000e+000 74322  1.1822e-001  4.3341e-001  1.7687e-001 55634 74218,74296,74270
 6.5000e+000 74823  4.4251e-001 -1.2751e+000  4.9366e-001 55016 74918,74846,74581
 6.5000e+000 74800 -9.6180e-002  1.3162e-001  2.7581e-001 55016 74846,74477,74633
 6.5000e+000 74777 -4.0927e-001 -2.2087e+000  8.5903e-001 55016 74918,74581,74555
 6.5000e+000 74754 -8.2110e-001 -1.2597e+000  9.2253e-001 55016 74990,74503,74477
 6.5000e+000 74731 -1.4289e+000 -1.0162e-001  7.0885e-001 55016 74451,74633,74477
 6.5000e+000 74708 -1.5084e+000  9.8958e-001  3.0616e-001 55016 74451,74659,74633
 6.5000e+000 74685 -1.8870e+000 -2.3998e+000  1.7333e+000 55016 74503,74555,74529
 6.5000e+000 74872  4.1749e-001 -1.4075e+000  3.8342e-001 55016 74607,74581,74846
 6.5000e+000 74895 -6.0696e-002 -1.0849e+000  2.9807e-001 55016 74607,74846,74633
 6.5000e+000 74944 -7.9975e-001 -1.1702e+000  7.5177e-001 55016 74477,74846,74918
 6.5000e+000 74967 -8.8605e-001 -1.2542e+000  8.2702e-001 55016 74990,74477,74918
 6.5000e+000 75016 -5.9463e-001 -1.1569e+000  1.0083e+000 55016 74555,74503,74990
 6.5000e+000 75039 -6.7977e-001 -1.2045e+000  8.9681e-001 55016 74555,74990,74918
 6.5000e+000 75287 -1.9562e+000 -3.3356e+000 -5.2846e-002 54726 75310,75140,75114
 6.5000e+000 75264 -2.4618e+000 -2.1143e+000 -3.6172e-001 54726 75310,75114,75088
 6.5000e+000 75241 -2.4572e+000 -1.5964e+000 -1.3696e+000 54726 75088,75192,75166
 6.5000e+000 75218 -3.9779e+000  6.7553e-002 -1.1694e+000 54726 75062,75192,75088
 6.5000e+000 75336 -1.3291e+000 -2.6418e+000 -7.8074e-001 54726 75166,75140,75310
 6.5000e+000 75359 -2.3269e+000 -1.4316e+000 -7.9017e-001 54726 75166,75310,75088
 6.5000e+000 75946 -1.6829e-001  1.6493e-002  1.5393e-001 54322 75969,75701,75649
 6.5000e+000 75923 -5.8010e-001 -2.6966e-001  2.8125e-001 54322 75969,75649,75623
 6.5000e+000 75900 -3.3616e-001 -1.8332e-001 -6.3173e-002 54322 76041,75753,75701
 6.5000e+000 75877 -1.8895e-001  6.2433e-001  2.4475e-003 54322 75623,75805,75779
 6.5000e+000 75854 -4.3285e-001 -1.7533e-001 -1.8473e-001 54322 75701,75753,75727
 6.5000e+000 75831 -2.0701e-001 -1.6870e-001 -9.3831e-003 54322 75649,75701,75675
 6.5000e+000 75995 -4.6217e-001 -1.0482e-001  5.0471e-002 54322 76041,75701,75969
 6.5000e+000 76018 -4.3851e-001  1.0275e-001  1.4254e-001 54322 75779,75969,75623
 6.5000e+000 76067 -2.8140e-001  2.6062e-002 -1.0703e-001 54322 75779,75753,76041
 6.5000e+000 76090 -3.5758e-001  1.7993e-001  9.4457e-003 54322 75779,76041,75969
 6.5000e+000 76468 -7.6983e-002  1.5699e-001 -3.1891e-002 53868 76491,76272,76220
 6.5000e+000 76445 -7.0634e-002  1.7479e-001 -4.7656e-002 53868 76491,76220,76324
 6.5000e+000 76422  2.7550e-002  9.7335e-002 -1.0231e-001 53868 76220,76272,76246
 6.5000e+000 76399 -9.7423e-002  4.9708e-001  1.0483e-001 53868 76194,76324,76220
 6.5000e+000 76376 -5.8143e-001  2.9963e-001  1.0735e-002 53868 76194,76350,76324
 6.5000e+000 76517 -7.8425e-002  1.3101e-001 -1.9802e-002 53868 76298,76272,76491
 6.5000e+000 76540 -6.7810e-002  1.5420e-001 -3.5921e-002 53868 76298,76491,76324
 6.5000e+000 76690 -5.4414e-002  2.1774e-001 -3.9556e-002 53356 76589,76641,76615
 6.5000e+000 76667  5.2352e-002  6.8721e-001  8.8658e-003 53356 76563,76641,76589
 6.5000e+000 76938 -5.0781e-001  2.2344e-001 -6.7909e-001 53009 77105,76961,76765
 6.5000e+000 76915  3.3550e-002  4.6104e-001 -3.7176e-001 53009 76961,76713,76843
 6.5000e+000 76892 -3.1525e-001  3.6515e-001 -1.7213e-001 53009 77033,76817,76791
 6.5000e+000 76869 -1.1125e+000 -1.7991e-001 -1.2719e+000 53009 77105,76765,76739
 6.5000e+000 76987 -1.7462e-001  9.3222e-001 -4.8873e-001 53009 76791,76765,76961
 6.5000e+000 77010 -3.6469e-001  3.9779e-001 -3.9882e-001 53009 77033,76791,76961
 6.5000e+000 77059  2.8294e-002  5.1375e-001 -1.8594e-001 53009 76843,76817,77033
 6.5000e+000 77082 -4.0122e-002  5.3536e-001 -3.9482e-001 53009 76843,77033,76961
 6.5000e+000 77131  1.4653e-001  6.2986e-001 -4.2300e-001 53009 76713,76961,77105
 6.5000e+000 77154  4.7298e-002  5.8537e-001 -9.2016e-001 53009 76713,77105,76739
 6.5000e+000 77355  1.5409e+000 -1.9991e+000  8.7168e-001 52390 77378,77257,77231
 6.5000e+000 77332  1.1035e+000 -1.4811e+000  5.7740e-001 52390 77378,77231,77179
 6.5000e+000 77309  1.3289e+000 -1.7518e+000  6.1223e-002 52390 77179,77231,77205
 6.5000e+000 77404  1.9807e+000 -1.6698e+000  7.2267e-001 52390 77283,77257,77378
 6.5000e+000 77427  1.5342e+000 -1.1160e+000  4.2076e-001 52390 77283,77378,77179
 6.5000e+000 77677 -1.9552e+000  2.2211e+000 -1.8760e+000 51986 77700,77504,77478
 6.5000e+000 77654  1.4492e-001  3.1606e+000 -2.1851e+000 51986 77700,77478,77452
 6.5000e+000 77631 -8.1267e-002  1.4264e+000 -5.7768e-001 51986 77772,77556,77530
 6.5000e+000 77608 -1.8280e-001  1.3542e+000 -7.4913e-001 51986 77452,77582,77556
 6.5000e+000 77726 -4.8929e-001  2.2774e+000 -7.7125e-001 51986 77530,77504,77700
 6.5000e+000 77749  1.0607e-001  1.7804e+000 -8.7781e-001 51986 77772,77530,77700
 6.5000e+000 77798  3.2854e-001  1.6822e+000 -9.2068e-001 51986 77452,77556,77772
 6.5000e+000 77821  5.4378e-001  1.7787e+000 -1.1776e+000 51986 77452,77772,77700
 6.5000e+000 78282  7.5826e-001  7.9326e-001 -1.6725e-001 51738 78008,78138,78060
 6.5000e+000 78259  2.3069e+000  2.0361e+000 -1.8197e+000 51738 78008,78164,78138
 6.5000e+000 78236  4.0234e-001  8.0590e-002 -9.1408e-003 51738 78086,78138,78112
 6.5000e+000 78213  1.4237e-001  2.8654e-001 -3.8501e-001 51738 78060,78138,78086
 6.5000e+000 78190  1.2016e+000 -4.3369e-001 -4.8903e-001 51738 78008,78060,78034
 6.5000e+000 78432 -1.7065e-001 -1.3859e-001  4.3016e-003 51148 78305,78357,78331
 6.5000e+000 78409 -1.4776e-001  6.5028e-002 -2.9567e-002 51148 78305,78383,78357
 6.5000e+000 78891 -2.9574e-001 -2.4067e-001  1.3121e-001 50808 78914,78695,78669
 6.5000e+000 78868 -2.2745e-001 -1.1171e-001  5.6255e-002 50808 78914,78669,78643
 6.5000e+000 78845 -6.1146e-002 -2.0138e-002  3.0341e-002 50808 78643,78773,78747
 6.5000e+000 78822 -5.8473e-002 -6.5683e-002  3.2962e-002 50808 78617,78773,78643
 6.5000e+000 78799 -1.3919e-001  8.1041e-002  1.7394e-001 50808 78695,78747,78721
 6.5000e+000 78940 -1.4872e-001 -1.1895e-001  6.4960e-002 50808 78747,78695,78914
 6.5000e+000 78963 -2.1388e-001 -8.1559e-002  1.5701e-002 50808 78747,78914,78643
 6.5000e+000 79260 -1.9079e-001 -2.6175e-001 -1.8562e-001 50468 79283,79090,79012
 6.5000e+000 79237 -1.8868e-001 -1.6646e-001 -1.7256e-001 50468 79283,79012,78986
 6.5000e+000 79214 -3.7032e-001 -3.3863e-001 -1.8646e-001 50468 79012,79090,79038
 6.5000e+000 79191 -1.1863e-001 -2.5901e-002 -2.2295e-001 50468 78986,79142,79116
 6.5000e+000 79168 -2.3411e-001 -3.4701e-001 -2.5046e-001 50468 79038,79090,79064
 6.5000e+000 79309 -2.3409e-001 -1.9606e-001 -2.1285e-001 50468 79116,79090,79283
 6.5000e+000 79332 -2.1507e-001 -7.8696e-002 -1.9130e-001 50468 79116,79283,78986
 6.5000e+000 79889  1.4611e+000  1.9108e+000 -8.0047e-001 50064 79569,79725,79699
 6.5000e+000 79866  2.8846e-001  1.2785e+000 -1.5841e+000 50064 79543,79725,79569
 6.5000e+000 79843  1.4653e+000  9.4710e-001 -7.4688e-001 50064 79621,79699,79673
 6.5000e+000 79820  1.6004e+000  1.2476e+000 -9.3844e-001 50064 79595,79699,79621
 6.5000e+000 79797  9.7883e-001  1.4964e+000 -1.1667e+000 50064 79569,79699,79595
 6.5000e+000 79774  1.1541e+000  2.8481e+000 -3.7428e-001 50064 79517,79725,79543
 6.5000e+000 79751  6.8980e-001  9.8420e-001 -8.2357e-001 50064 79621,79673,79647
 6.5000e+000 80169  1.5297e+000  2.0871e+000 -9.5294e-001 49724 80019,80097,80071
 6.5000e+000 80146  1.2529e+000  3.2332e+000 -1.2450e+000 49724 79993,80097,80019
 6.5000e+000 80123  9.6461e-001  1.9180e+000 -1.1234e+000 49724 80019,80071,80045
 6.5000e+000 80626 -1.0653e+000 -4.4471e-001 -2.4632e-001 49277 80352,80482,80378
 6.5000e+000 80603 -6.9969e-001 -3.4238e-001  6.9118e-002 49277 80352,80508,80482
 6.5000e+000 80580 -8.3571e-001 -3.3361e-001 -1.7528e-001 49277 80378,80482,80456
 6.5000e+000 80557 -1.0499e+000 -8.0366e-001 -1.7614e-001 49277 80378,80430,80404
 6.5000e+000 80534 -1.4037e+000 -5.6388e-001 -1.2794e-001 49277 80378,80456,80430
 6.5000e+000 81230 -2.0193e+000 -1.0803e+000  7.7583e-001 48716 81253,80835,80809
 6.5000e+000 81207 -1.2914e+000 -3.2921e-002 -3.8490e-001 48716 81397,81253,80809
 6.5000e+000 81184 -1.0873e+000  1.0827e+000 -5.0905e-001 48716 81325,80913,80887
 6.5000e+000 81161 -8.5157e-001 -8.7298e-001 -3.1902e-001 48716 81397,80809,81017
 6.5000e+000 81138 -1.6551e+000  6.7922e-001 -8.4011e-001 48716 81469,80965,80913
 6.5000e+000 81115 -7.9039e-001 -6.9245e-002  9.4646e-001 48716 80835,80887,80861
 6.5000e+000 81092  4.0887e-001 -1.6361e+000  1.7441e+000 48716 80809,81043,81017
 6.5000e+000 81069 -1.8013e+000 -8.6452e-001 -1.8888e+000 48716 80913,80965,80939
 6.5000e+000 81279  5.3032e-001  4.2464e-001  1.0318e-001 48716 80887,80835,81253
 6.5000e+000 81302 -1.6274e+000  8.0159e-001 -6.6914e-001 48716 81325,80887,81253
 6.5000e+000 81351 -1.2698e+000  7.7392e-001 -6.8521e-001 48716 81469,80913,81325
 6.5000e+000 81374 -1.4828e+000  1.3783e+000 -6.2756e-001 48716 80991,81325,81253
 6.5000e+000 81423 -1.1950e+000  1.0926e+000  2.6177e-002 48716 80991,81253,81397
 6.5000e+000 81446 -9.0599e-001  5.0910e-002  1.0980e-001 48716 80991,81397,81017
 6.5000e+000 81495 -2.3422e+000  9.4190e-001 -9.5271e-001 48716 80991,80965,81469
 6.5000e+000 81518 -2.0453e+000  9.5223e-001 -8.1556e-001 48716 80991,81469,81325
 6.5000e+000 81717 -9.9291e-002 -8.6225e-003 -6.9926e-002 48262 81740,81567,81541
 6.5000e+000 81694  6.6121e-003  5.2442e-002 -9.7048e-002 48262 81740,81541,81645
 6.5000e+000 81671 -1.0729e-001 -2.2810e-001 -6.1767e-002 48262 81567,81619,81593
 6.5000e+000 81766 -3.9624e-002 -6.1222e-002  4.0131e-003 48262 81619,81567,81740
 6.5000e+000 81789  5.7532e-002 -1.1467e-002 -1.9014e-002 48262 81619,81740,81645
 6.5000e+000 81939  1.5387e+000  2.7013e+000 -5.0121e-001 47957 82034,81962,81864
 6.5000e+000 81916  4.3740e-001  1.9832e+000 -7.1445e-001 47957 82166,81962,81838
 6.5000e+000 81988  1.8909e+000  2.3859e+000  3.6088e-001 47957 82294,81962,81890
 6.5000e+000 82011  1.4360e+000  2.1287e+000  3.2528e-002 47957 81890,81962,81812
 6.5000e+000 82060  1.5135e+000  2.9598e+000 -2.9380e-001 47957 81838,81962,82034
 6.5000e+000 82192  4.2962e-003  1.9116e+000  4.6543e-001 47957 81812,81962,82166
 6.5000e+000 82320  2.5775e+000  2.2717e+000  4.1579e-002 47957 81864,81962,82294
 6.5000e+000 82549 -2.1596e-001 -1.6799e-001 -1.3304e-001 47617 82448,82500,82474
 6.5000e+000 82526  2.9318e-002  3.4453e-001 -3.7935e-002 47617 82422,82500,82448
 6.5000e+000 82902  6.3221e-001  1.9998e-001 -1.8102e-001 47255 82729,82807,82755
 6.5000e+000 82879  1.2945e+000  9.6286e-001  1.3533e-001 47255 82703,82807,82729
 6.5000e+000 82856  2.6169e-001  9.1860e-002  2.0770e-001 47255 82755,82807,82781
 6.5000e+000 82833  1.6781e+000  1.1272e+000  1.7395e-001 47255 82677,82807,82703
 6.5000e+000 83182  1.5756e-001 -8.2863e-001  3.7835e-001 46680 83032,83084,83058
 6.5000e+000 83159  5.5935e-001 -4.8366e-001  5.9803e-001 46680 83205,83084,83032
 6.5000e+000 83136 -4.3706e-001  1.6911e-002  4.7601e-001 46680 83006,83110,83084
 6.5000e+000 83231  1.0057e+000 -4.9583e-002  8.2926e-001 46680 83006,83084,83205
 6.5000e+000 83737 -1.8058e+000 -5.5676e-001  3.3053e-001 46290 83832,83760,83492
 6.5000e+000 83714 -1.8113e+000 -2.7038e-001  2.7519e-001 46290 83760,83440,83414
 6.5000e+000 83691 -1.3955e+000 -8.1363e-001  2.5566e-001 46290 83832,83492,83466
 6.5000e+000 83668 -1.4838e+000 -1.3928e+000  4.8376e-001 46290 83492,83570,83544
 6.5000e+000 83645 -2.3525e+000 -7.6946e-001  6.2517e-002 46290 83414,83596,83570
 6.5000e+000 83622 -1.3452e+000 -1.0041e+000  7.4387e-001 46290 83492,83544,83518
 6.5000e+000 83786 -1.7184e+000 -5.1091e-001  2.5352e-001 46290 83570,83492,83760
 6.5000e+000 83809 -1.8065e+000 -6.7598e-001  7.8584e-002 46290 83570,83760,83414
 6.5000e+000 83858 -1.2837e+000 -2.3468e-001  4.8259e-001 46290 83440,83760,83832
 6.5000e+000 83881 -5.8093e-001 -4.6186e-001  3.3235e-001 46290 83440,83832,83466
 6.5000e+000 84161  9.9577e-003 -5.4367e-001  1.2836e-002 45829 84011,84063,84037
 6.5000e+000 84138 -2.4041e-001 -5.2231e-001 -8.0294e-002 45829 84011,84089,84063
 6.5000e+000 84115 -3.0430e-002 -4.2789e-001  7.2802e-003 45829 83985,84089,84011
 6.5000e+000 84311  1.1054e+000  1.2562e+000  2.8341e-001 45631 84184,84236,84210
 6.5000e+000 84288  6.6311e-001 -2.9079e-001 -3.5794e-003 45631 84184,84262,84236
 6.5000e+000 84657 -2.0297e-001 -2.8947e-001 -7.1173e-002 45155 84680,84490,84412
 6.5000e+000 84634 -2.5095e-001 -1.9531e-001 -3.5376e-002 45155 84680,84412,84360
 6.5000e+000 84611 -3.3774e-001 -3.8625e-001  4.3491e-002 45155 84412,84490,84438
 6.5000e+000 84588 -3.9770e-002 -7.9447e-003 -6.7080e-002 45155 84334,84516,84360
 6.5000e+000 84565 -2.0738e-001 -6.7512e-002 -3.4776e-001 45155 84360,84412,84386
 6.5000e+000 84542 -2.9839e-001 -4.2483e-001  1.6246e-002 45155 84438,84490,84464
 6.5000e+000 84706 -2.0763e-001 -1.9905e-001 -9.0605e-002 45155 84516,84490,84680
 6.5000e+000 84729 -2.4706e-001 -9.6527e-002 -6.8778e-002 45155 84516,84680,84360
 6.5000e+000 85077 -7.7646e-002 -4.5612e-001 -2.3783e-001 44508 85100,84754,84910
 6.5000e+000 85054 -1.6682e-001  2.1806e-002 -8.8222e-002 44508 84754,84936,84910
 6.5000e+000 85031 -4.7988e-001 -8.2220e-001  8.5955e-002 44508 85100,84910,84884
 6.5000e+000 85008 -3.6999e-001 -4.0225e-002 -4.3454e-001 44508 84780,84884,84832
 6.5000e+000 84985 -4.2086e-001 -1.5645e-001 -4.2752e-001 44508 84780,84832,84806
 6.5000e+000 84962 -1.1211e+000 -8.2439e-001 -5.9215e-002 44508 84832,84884,84858
 6.5000e+000 85126 -4.0655e-001  7.8243e-002 -5.3281e-001 44508 84780,84754,85100
 6.5000e+000 85149 -7.1166e-001 -2.8197e-001 -2.3801e-001 44508 84780,85100,84884
 6.5000e+000 85482  8.3918e-002 -1.1794e-001 -1.0965e-001 44104 85335,85387,85361
 6.5000e+000 85459  3.0268e-002 -3.9351e-001 -5.2982e-002 44104 85309,85387,85335
 6.5000e+000 85436 -2.3426e-002 -2.7958e-001 -1.5054e-001 44104 85257,85387,85309
 6.5000e+000 85413 -1.1836e-001 -1.6407e-001 -2.1946e-002 44104 85257,85309,85283
 6.5000e+000 85811 -2.7989e-001 -3.4106e-001 -1.5773e-001 43600 85586,85664,85612
 6.5000e+000 85788 -2.3651e-001 -7.4677e-002 -1.1358e-001 43600 85586,85690,85664
 6.5000e+000 85765 -1.2559e-001  1.3483e-001 -2.1347e-001 43600 85586,85716,85690
 6.5000e+000 85742 -3.1331e-001 -2.8161e-001 -2.7946e-001 43600 85612,85664,85638
 6.5000e+000 86010  2.2602e-001  6.2893e-002 -2.1615e-001 43224 85886,85938,85912
 6.5000e+000 85987  2.4260e-001  4.0216e-002 -1.8441e-001 43224 85834,85938,85886
 6.5000e+000 85964  1.9796e-001 -7.1530e-001 -1.3879e-001 43224 85834,85886,85860
 6.5000e+000 86420  2.5595e+000  1.0464e+000 -2.4168e-002 42820 86195,86299,86221
 6.5000e+000 86397  2.4355e+000  2.1610e+000 -8.4328e-001 42820 86195,86325,86299
 6.5000e+000 86374  1.6532e+000  1.2733e+000  3.9574e-001 42820 86221,86299,86273
 6.5000e+000 86351  1.2072e+000  9.2485e-001 -6.7070e-002 42820 86221,86273,86247
 6.5000e+000 86749  4.9034e-001 -5.1354e-001 -1.5260e-001 42223 86550,86602,86576
 6.5000e+000 86726  2.1479e+000 -1.1546e+000  1.4480e-001 42223 86550,86628,86602
 6.5000e+000 86703  5.6586e-001 -1.6142e+000  9.1990e-001 42223 86524,86628,86550
 6.5000e+000 86680  1.5481e+000  5.1626e-001  6.3135e-001 42223 86524,86654,86628
 6.5000e+000 87078  7.2821e-001 -2.5570e-001  2.6528e-001 41883 87173,87101,86905
 6.5000e+000 87055  5.2843e-001  8.1556e-001  1.0268e-001 41883 87101,86879,86853
 6.5000e+000 87032  1.3211e-001  1.4365e-001 -6.9590e-002 41883 86853,86983,86931
 6.5000e+000 87009  1.6881e-001  4.0686e-001 -1.9677e-001 41883 86931,86983,86957
 6.5000e+000 87127  1.1239e+000  3.7279e-001 -1.9245e-001 41883 86931,86905,87101
 6.5000e+000 87150  1.4555e-001 -6.2443e-002 -7.5841e-002 41883 86931,87101,86853
 6.5000e+000 87199  2.5261e-001  1.1737e-001  3.5574e-001 41883 86879,87101,87173
 6.5000e+000 87558  1.4582e-002  8.6494e-001 -2.1817e-001 41471 87382,87460,87408
 6.5000e+000 87535 -1.1633e+000  8.3610e-001 -1.3340e-001 41471 87382,87486,87460
 6.5000e+000 87512  2.7997e-001  1.3717e-001 -7.4468e-002 41471 87408,87460,87434
 6.5000e+000 87806  1.3941e-001  1.0642e-001 -4.6033e-001 41017 87829,87607,87581
 6.5000e+000 87783  1.2409e-001 -2.1013e-001 -1.0495e-001 41017 87829,87581,87685
 6.5000e+000 87760  4.5816e-001 -2.8261e-002 -2.1632e-001 41017 87581,87711,87685
 6.5000e+000 87737  2.7657e-001 -7.7535e-001 -2.7216e-002 41017 87633,87685,87659
 6.5000e+000 87855 -8.0751e-002 -7.5704e-002 -2.4512e-001 41017 87633,87607,87829
 6.5000e+000 87878 -1.7496e-001 -4.3368e-001  1.2023e-001 41017 87633,87829,87685
 6.5000e+000 88258  3.7338e-002  2.2380e-002 -1.5925e-002 40613 88281,88036,88010
 6.5000e+000 88235  3.8849e-003  2.9355e-002 -2.4643e-003 40613 88281,88010,88088
 6.5000e+000 88212 -3.9924e-004  7.9043e-002 -3.9609e-002 40613 87984,88088,88010
 6.5000e+000 88189 -1.5098e-002  3.8248e-002 -1.5934e-002 40613 87984,88114,88088
 6.5000e+000 88166  5.6153e-002 -2.3744e-003 -7.9705e-003 40613 87984,88140,88114
 6.5000e+000 88307  8.3625e-003  2.0776e-002 -1.0873e-002 40613 88062,88036,88281
 6.5000e+000 88330 -3.7509e-002  1.5728e-002  6.3634e-003 40613 88062,88281,88088
 6.5000e+000 88649 -2.2127e-002  8.7566e-002  8.5874e-003 40095 88375,88505,88401
 6.5000e+000 88626  4.9476e-003  4.9142e-002  2.9052e-002 40095 88375,88531,88505
 6.5000e+000 88603 -2.0024e-002  8.9065e-002  9.2457e-003 40095 88401,88505,88479
 6.5000e+000 88580 -1.1193e-001  5.2845e-001  2.8353e-001 40095 88427,88479,88453
 6.5000e+000 88557 -1.9277e-002  9.0658e-002  8.8334e-003 40095 88401,88479,88427
 6.5000e+000 89078  7.5497e-001 -1.3449e+000 -6.7043e-001 39897 89101,88833,88807
 6.5000e+000 89055  8.3258e-002 -1.6398e+000 -7.7524e-001 39897 89101,88807,88911
 6.5000e+000 89032 -7.4778e-001 -1.2766e+000 -1.3762e+000 39897 88781,88911,88807
 6.5000e+000 89009 -1.3202e+000 -1.7122e+000 -1.6789e+000 39897 88781,88937,88911
 6.5000e+000 88986  2.7645e+000  3.0099e-001 -4.9862e-001 39897 88833,88885,88859
 6.5000e+000 88963 -1.9155e+000 -1.5234e+000 -2.0362e+000 39897 88755,88937,88781
 6.5000e+000 89127  1.3642e+000 -1.7702e+000 -1.2864e+000 39897 88885,88833,89101
 6.5000e+000 89150  3.1603e-001 -2.2871e+000 -1.5012e+000 39897 88885,89101,88911
 6.5000e+000 89300 -1.6303e+000 -1.5940e+000  6.1564e-001 39607 89453,89323,89199
 6.5000e+000 89277 -2.4155e+000 -1.0118e+000  4.7906e-001 39607 89525,89453,89199
 6.5000e+000 89349 -1.1724e+000 -1.4692e+000 -2.1214e-002 39607 89225,89199,89323
 6.5000e+000 89479 -1.2307e+000 -6.9053e-001  4.1917e-001 39607 89251,89323,89453
 6.5000e+000 89502 -1.2715e+000 -1.2340e-001  1.0859e+000 39607 89251,89453,89173
 6.5000e+000 89551 -1.0475e+000 -6.7674e-001  6.5037e-001 39607 89173,89453,89525
 6.5000e+000 90264 -1.1109e+000 -1.7810e+000 -4.0726e-001 39039 89996,90074,90048
 6.5000e+000 90241 -6.6234e-001 -8.5895e-001 -2.5008e-001 39039 89918,90074,89996
 6.5000e+000 90218 -1.0726e+000 -1.0470e+000 -3.4755e-002 39039 89918,89996,89944
 6.5000e+000 90195 -1.3584e+000 -9.7174e-001  6.8042e-003 39039 89892,90074,89918
 6.5000e+000 90172 -1.9512e-001 -1.7006e+000 -4.5280e-001 39039 89996,90048,90022
 6.5000e+000 90149 -1.9607e+000  7.1659e-001 -1.0440e-001 39039 89892,90100,90074
 6.5000e+000 90126 -1.2329e+000 -1.1106e+000 -1.3058e-001 39039 89944,89996,89970
 6.5000e+000 90770 -4.0535e-001 -4.7278e-001 -7.7207e-002 38635 90473,90603,90577
 6.5000e+000 90747 -2.6307e-001 -4.4642e-001 -9.5345e-003 38635 90447,90603,90473
 6.5000e+000 90724 -3.8861e-001 -6.3895e-001 -7.8687e-002 38635 90499,90577,90551
 6.5000e+000 90701 -3.8145e-001 -6.4060e-001 -7.1220e-002 38635 90473,90577,90499
 6.5000e+000 90678 -2.9713e-001 -7.8272e-001 -9.1308e-002 38635 90499,90551,90525
 6.5000e+000 90655 -3.7988e-001 -3.4878e-001  2.7562e-002 38635 90447,90629,90603
 6.5000e+000 90871 -1.2383e-001 -3.0692e-001 -1.5048e-001 38231 90793,90845,90819
 6.5000e+000 91458  2.2244e-001 -2.1536e-001 -1.0260e-001 37534 91161,91317,91291
 6.5000e+000 91435  6.0302e-002  7.2084e-003  5.7826e-002 37534 91135,91317,91161
 6.5000e+000 91412 -1.9247e-001 -9.6910e-001 -4.9609e-001 37534 91187,91291,91239
 6.5000e+000 91389  4.5903e-002 -9.9914e-001  4.6771e-002 37534 91161,91291,91187
 6.5000e+000 91366  8.0171e-002 -5.7597e-001 -3.4710e-001 37534 91239,91291,91265
 6.5000e+000 91343  7.4536e-001 -9.6032e-001 -8.9894e-001 37534 91187,91239,91213
 6.5000e+000 91915 -6.4941e-001 -6.6294e-001  1.7297e-002 37080 91938,91745,91667
 6.5000e+000 91892 -6.3297e-001 -5.6939e-001  1.4458e-001 37080 91938,91667,91797
 6.5000e+000 91869 -8.6792e-001  1.7803e-001 -1.5431e-001 37080 91641,91797,91667
 6.5000e+000 91846 -7.9908e-001 -7.2896e-001  8.7069e-002 37080 91667,91719,91693
 6.5000e+000 91823 -7.7246e-001 -6.9016e-001  3.0793e-002 37080 91667,91745,91719
 6.5000e+000 91964 -5.5963e-001 -4.5000e-001  1.3333e-002 37080 91771,91745,91938
 6.5000e+000 91987 -6.0711e-001 -4.9938e-001  1.4672e-001 37080 91771,91938,91797
 6.5000e+000 92235 -4.5976e-001 -5.1339e-001 -3.2826e-002 36397 92036,92088,92062
 6.5000e+000 92212 -3.3814e-001 -3.8065e-001 -8.4680e-002 36397 92036,92114,92088
 6.5000e+000 92189 -1.8826e-001 -2.6881e-001 -5.0563e-003 36397 92036,92140,92114
 6.5000e+000 92166 -2.8281e-001 -1.8816e-001  2.4272e-003 36397 92010,92140,92036
 6.5000e+000 92694 -1.8891e-001 -6.3131e-003  3.4943e-002 36057 92446,92498,92472
 6.5000e+000 92671 -8.9269e-002  1.9951e-001  6.6935e-002 36057 92446,92550,92498
 6.5000e+000 92648  1.1558e-001 -1.9141e-002  2.5562e-002 36057 92446,92576,92550
 6.5000e+000 92625 -3.6181e-002 -1.0451e-001  6.6083e-002 36057 92420,92576,92446
 6.5000e+000 92602 -1.2189e-001 -7.3358e-002 -2.2794e-001 36057 92498,92550,92524
 6.5000e+000 93023 -5.0585e-001 -4.2348e-001 -1.1547e-001 35717 92876,92928,92902
 6.5000e+000 93000 -4.5016e-001 -4.5714e-001 -1.2804e-001 35717 92824,92928,92876
 6.5000e+000 92977 -2.2024e-001 -4.3261e-001 -7.5591e-002 35717 92798,92928,92824
 6.5000e+000 92954 -3.7705e-001 -5.4095e-001 -4.9611e-001 35717 92824,92876,92850
 6.5000e+000 93499  1.8250e-001 -6.4548e-001  2.9546e-001 35405 93522,93309,93257
 6.5000e+000 93476  3.5957e-001 -3.9615e-001  2.1806e-001 35405 93666,93522,93257
 6.5000e+000 93453  2.0736e-001 -2.1487e+000  2.9203e-001 35405 93594,93127,93335
 6.5000e+000 93430  4.8963e-002 -3.1608e-001  3.2883e-002 35405 93666,93257,93231
 6.5000e+000 93407 -7.4741e-001 -2.6825e+000 -6.5136e-001 35405 93127,93179,93153
 6.5000e+000 93384 -1.0688e+000  1.4441e-001  4.0946e-001 35405 93179,93231,93205
 6.5000e+000 93361  5.3170e-001  6.2847e-001  1.5871e-001 35405 93257,93309,93283
 6.5000e+000 93548  8.5518e-001 -1.6844e-001  8.1510e-001 35405 93335,93309,93522
 6.5000e+000 93571  3.9521e-001 -1.0971e+000  4.8947e-001 35405 93594,93335,93522
 6.5000e+000 93620  1.8730e-001 -1.0122e+000  1.7839e-001 35405 93179,93127,93594
 6.5000e+000 93643 -4.0288e-002 -5.5712e-001  1.7086e-001 35405 93738,93594,93522
 6.5000e+000 93692  6.1045e-002 -5.6886e-001  9.7714e-002 35405 93738,93522,93666
 6.5000e+000 93715 -1.5117e-001 -5.7049e-001 -7.9410e-002 35405 93179,93666,93231
 6.5000e+000 93764 -8.5767e-002 -6.4689e-001  2.2022e-001 35405 93179,93594,93738
 6.5000e+000 93787 -4.3899e-002 -6.8453e-001  1.5320e-001 35405 93179,93738,93666
 6.5000e+000 94372  5.2776e-001 -1.2471e-002 -3.3976e-002 34951 94395,94127,94075
 6.5000e+000 94349  9.9922e-001 -7.0045e-002  1.2397e-001 34951 94395,94075,94231
 6.5000e+000 94326  2.3090e-002 -4.8844e-001  6.0585e-002 34951 94049,94231,94075
 6.5000e+000 94303 -4.2111e-001 -5.0796e-001  5.7494e-001 34951 94075,94127,94101
 6.5000e+000 94280  1.2507e+000  2.0157e-001  4.1743e-001 34951 94127,94205,94153
 6.5000e+000 94257  1.4396e+000  2.6769e-001  6.3381e-001 34951 94153,94205,94179
 6.5000e+000 94421  9.0763e-001 -1.4492e-001  2.5173e-001 34951 94205,94127,94395
 6.5000e+000 94444  1.7750e+000  4.4825e-002  3.8435e-001 34951 94205,94395,94231
 6.5000e+000 94692  9.2373e-003  9.8487e-002  3.8283e-003 34397 94715,94519,94467
 6.5000e+000 94669  5.7282e-003  7.6167e-002  2.7060e-003 34397 94715,94467,94597
 6.5000e+000 94646 -2.4420e-002  7.1911e-002  7.4249e-003 34397 94545,94597,94571
 6.5000e+000 94623  4.4618e-002  1.9004e-001 -1.5038e-002 34397 94467,94519,94493
 6.5000e+000 94741  1.9152e-002  1.7357e-001  1.3037e-002 34397 94545,94519,94715
 6.5000e+000 94764 -1.0950e-002  1.0282e-001  1.2619e-002 34397 94545,94715,94597
 6.5000e+000 94985 -1.5721e-002  2.6281e-001 -2.4780e-002 33985 94835,94913,94887
 6.5000e+000 94962  2.7374e-001  9.8004e-001 -6.6714e-002 33985 94809,94913,94835
 6.5000e+000 94939  7.5660e-002  2.5809e-001 -2.9989e-002 33985 94835,94887,94861
 6.5000e+000 95186 -2.7453e-001 -4.2872e-001 -3.1022e-001 33645 95281,95209,95036
 6.5000e+000 95163  3.1147e-002 -6.5036e-001  4.8022e-002 33645 95209,95010,95088
 6.5000e+000 95140  2.8546e-001 -2.6932e-001 -7.1655e-002 33645 95010,95114,95088
 6.5000e+000 95235 -5.7387e-001 -4.8455e-001 -2.0763e-001 33645 95062,95036,95209
 6.5000e+000 95258 -4.0424e-001 -8.1920e-001  2.5728e-001 33645 95413,95209,95088
 6.5000e+000 95307 -1.2747e-001 -3.0036e-001 -3.6450e-001 33645 95010,95209,95281
 6.5000e+000 95439 -3.5454e-001 -6.7049e-001  2.1007e-001 33645 95062,95209,95413
 6.5000e+000 95766 -4.4675e-001  2.4354e-001 -6.0038e-001 33141 95789,95593,95567
 6.5000e+000 95743 -1.0925e-001 -4.2935e-002 -2.1195e-001 33141 95861,95789,95567
 6.5000e+000 95720 -1.4644e-001  3.9258e-002 -5.7070e-002 33141 95861,95567,95671
 6.5000e+000 95697 -1.4589e-001 -3.1673e-002 -7.9961e-002 33141 95541,95671,95567
 6.5000e+000 95815 -1.5128e-001  9.7737e-001 -5.3314e-001 33141 95619,95593,95789
 6.5000e+000 95838 -3.1203e-002  3.3609e-001 -2.2446e-001 33141 95619,95789,95645
 6.5000e+000 95887  1.5253e-002  2.3251e-001 -2.3913e-001 33141 95645,95789,95861
 6.5000e+000 95910 -3.7678e-002  3.0761e-001 -6.3886e-002 33141 95645,95861,95671
 6.5000e+000 96060 -5.5682e-001 -2.6003e-001 -3.2936e-001 32487 95959,96011,95985
 6.5000e+000 96037 -1.5536e-001 -2.1041e-001 -7.8618e-002 32487 95933,96011,95959
 6.5000e+000 96570 -2.1963e-001 -9.2761e-002  9.1372e-002 32033 96665,96593,96377
 6.5000e+000 96547 -3.8066e-001  1.9018e-001 -2.8427e-001 32033 96737,96593,96325
 6.5000e+000 96524 -2.5505e-001 -1.8482e-001  2.5795e-002 32033 96665,96377,96351
 6.5000e+000 96501 -3.8040e-001  3.6496e-001 -2.3061e-001 32033 96737,96325,96299
 6.5000e+000 96478 -3.2782e-001  2.7453e-001 -2.2800e-001 32033 96247,96429,96299
 6.5000e+000 96455 -7.0721e-001 -7.7588e-001 -2.0801e-001 32033 96247,96299,96273
 6.5000e+000 96619  6.7895e-002  7.7654e-002  3.8505e-002 32033 96809,96593,96403
 6.5000e+000 96642  2.9395e-001  6.8022e-001 -6.1672e-001 32033 96403,96593,96429
 6.5000e+000 96691 -6.0451e-002 -3.1382e-001 -1.8787e-002 32033 96325,96593,96665
 6.5000e+000 96714 -1.9660e-001 -4.8353e-001 -1.0858e-001 32033 96325,96665,96351
 6.5000e+000 96763 -4.1834e-001  9.0522e-002 -3.6343e-001 32033 96429,96593,96737
 6.5000e+000 96786 -4.1627e-001  2.1156e-001 -2.9058e-001 32033 96429,96737,96299
 6.5000e+000 96835  1.9887e-002  3.8670e-002  2.1154e-002 32033 96377,96593,96809
 6.5000e+000 97064  6.2270e-002  1.3500e-001  3.1612e-003 31671 97087,96989,96963
 6.5000e+000 97041  6.8769e-002  1.4263e-001 -1.0611e-002 31671 97087,96963,96937
 6.5000e+000 97113  1.4977e-002  1.0868e-001  1.7351e-002 31671 97159,97087,97015
 6.5000e+000 97136  4.5672e-002  8.2521e-002 -2.4053e-003 31671 97015,97087,96937
 6.5000e+000 97185  6.8619e-002  1.6294e-001 -4.3297e-003 31671 96989,97087,97159
 6.5000e+000 97563  1.9396e-003  1.3148e-001  1.2695e-002 31117 97586,97367,97341
 6.5000e+000 97540  4.0932e-002  9.1986e-002 -2.8469e-002 31117 97658,97586,97341
 6.5000e+000 97517  7.5643e-002  8.2660e-002 -1.4262e-002 31117 97658,97341,97315
 6.5000e+000 97494 -7.5353e-002  6.7050e-002 -8.0560e-003 31117 97289,97445,97315
 6.5000e+000 97471 -7.2951e-002 -2.2115e-002  1.5593e-002 31117 97367,97419,97393
 6.5000e+000 97612 -4.3676e-002 -1.1820e-002  4.3652e-002 31117 97419,97367,97586
 6.5000e+000 97635 -3.4650e-002  6.9500e-002 -5.6738e-002 31117 97419,97586,97445
 6.5000e+000 97684 -2.1302e-002  9.7206e-002 -2.9218e-002 31117 97445,97586,97658
 6.5000e+000 97707  1.8818e-002  9.2640e-002 -1.4100e-002 31117 97445,97658,97315
 6.5000e+000 98215 -2.0707e-001  4.3689e-002 -2.8255e-001 30563 98238,97996,97944
 6.5000e+000 98192 -3.2498e-001  1.1624e-001 -2.6833e-001 30563 98310,98238,97944
 6.5000e+000 98169 -4.4729e-001 -2.1552e-001 -2.7668e-001 30563 98310,97944,97918
 6.5000e+000 98146 -1.7877e-001  2.5319e-002  4.4693e-002 30563 97892,98074,97918
 6.5000e+000 98123 -1.1792e-001  4.4307e-001 -2.8857e-001 30563 97996,98048,98022
 6.5000e+000 98100 -2.7647e-001  1.7131e-001 -5.1457e-001 30563 97944,97996,97970
 6.5000e+000 98264 -2.0086e-001  1.2748e-001 -2.7898e-001 30563 98048,97996,98238
 6.5000e+000 98287 -1.6496e-001  4.3408e-001 -9.7949e-003 30563 98048,98238,98074
 6.5000e+000 98336 -3.5170e-001 -5.3408e-002 -3.9937e-002 30563 98074,98238,98310
 6.5000e+000 98359 -3.5969e-001 -1.4987e-001 -2.7170e-002 30563 98074,98310,97918
 6.5000e+000 98607 -7.6129e-001  2.3552e-001 -7.5152e-003 30073 98630,98460,98408
 6.5000e+000 98584 -1.1189e+000  2.0562e-001 -6.5043e-002 30073 98630,98408,98382
 6.5000e+000 98561 -3.2438e-001  3.9283e-001 -2.0354e-001 30073 98382,98512,98486
 6.5000e+000 98538 -5.5652e-001  1.4210e-001  1.6407e-001 30073 98408,98460,98434
 6.5000e+000 98656 -5.7785e-001  1.1640e-001 -7.8453e-002 30073 98486,98460,98630
 6.5000e+000 98679 -8.1745e-001  1.7978e-001 -1.3109e-001 30073 98486,98630,98382
 6.5000e+000 99157  2.9144e-001 -1.9920e-001  2.1657e-001 29669 99180,98837,98811
 6.5000e+000 99134  3.4410e-001 -3.5906e-002  2.2332e-001 29669 99324,99180,98811
 6.5000e+000 99111  5.4752e-001  5.1993e-001 -3.2264e-001 29669 99252,98863,98837
 6.5000e+000 99088  2.3837e-001 -3.5357e-001  3.2445e-001 29669 99324,98811,98993
 6.5000e+000 99065 -7.4994e-001  8.2301e-001  1.5633e-001 29669 98863,98941,98915
 6.5000e+000 99042 -1.3232e-001  7.2497e-001  3.3259e-001 29669 98863,98915,98889
 6.5000e+000 99019 -7.1594e-003 -3.9440e-001  6.6890e-001 29669 98785,98993,98811
 6.5000e+000 99206  3.6714e-001 -1.4898e-001 -8.5302e-002 29669 99252,98837,99180
 6.5000e+000 99229 -6.2443e-002  2.7605e-001  1.3520e-001 29669 98941,99180,98967
 6.5000e+000 99278  1.3779e-001  1.0363e+000 -2.3999e-001 29669 98941,98863,99252
 6.5000e+000 99301  2.3655e-001  7.2991e-001  5.8918e-003 29669 98941,99252,99180
 6.5000e+000 99350  1.8890e-001  3.6033e-001  1.6765e-001 29669 98967,99180,99324
 6.5000e+000 99373  1.8123e-001  1.2028e-001  2.1736e-001 29669 98967,99324,98993
 6.5000e+000 99958  3.7224e-001  7.1076e-001  1.7385e-001 29051 99981,99765,99739
 6.5000e+000 99935 -5.1883e-002  7.4279e-002 -9.7971e-003 29051 99981,99739,99661
 6.5000e+000 99912  4.9290e-001 -4.5793e-001 -3.4975e-001 29051 99765,99817,99791
 6.5000e+000 99889 -9.1978e-001 -4.9823e-001  5.6640e-001 29051 99635,99817,99661
 6.5000e+000 99866 -1.1001e+000 -1.0594e-002  7.5148e-001 29051 99661,99739,99687
 6.5000e+000 99843 -1.3467e+000  3.2631e-001  3.9090e-001 29051 99687,99739,99713
 6.5000e+000 100007  6.0967e-001  9.0482e-002  2.3421e-001 29051 99817,99765,99981
 6.5000e+000 100030  4.2212e-001 -2.0388e-001  1.5094e-001 29051 99817,99981,99661
 6.5000e+000 100278  9.6560e-001  6.7240e-001  8.4003e-002 28525 100445,100301,100131
 6.5000e+000 100255  3.7102e-001  5.3248e-001  1.0804e-002 28525 100373,100301,100079
 6.5000e+000 100232  3.4757e-001  8.8013e-002  7.7695e-002 28525 100373,100079,100053
 6.5000e+000 100209  7.7112e-001  9.0934e-001 -1.3517e-001 28525 100445,100131,100105
 6.5000e+000 100327  1.8013e+000  3.4411e-001  2.5722e-002 28525 100517,100301,100157
 6.5000e+000 100350  6.5026e-001  4.0561e-001 -3.3439e-001 28525 100157,100301,100183
 6.5000e+000 100399  3.3379e-001  7.1560e-002  2.3673e-001 28525 100183,100301,100373
 6.5000e+000 100422  4.1269e-001 -2.4466e-001  2.9806e-001 28525 100183,100373,100053
 6.5000e+000 100471  7.0499e-001  4.0475e-001 -1.2198e-001 28525 100079,100301,100445
 6.5000e+000 100494  2.4061e-001  3.9308e-001 -3.9045e-001 28525 100079,100445,100105
 6.5000e+000 100543  1.4059e+000  2.7110e-001 -7.8636e-002 28525 100131,100301,100517
 6.5000e+000 101209 -1.4813e+000  4.0580e-001  4.6783e-002 28185 100938,101016,100990
 6.5000e+000 101186 -1.6153e+000  3.2687e-002 -1.7500e-001 28185 100912,101016,100938
 6.5000e+000 101163 -4.9432e-001  3.9251e-001 -5.3418e-002 28185 100912,101068,101016
 6.5000e+000 101140 -2.0348e+000 -4.3880e-001 -4.6646e-001 28185 100886,101068,100912
 6.5000e+000 101117 -5.5834e-001  1.5893e-001 -5.3639e-002 28185 101016,101068,101042
 6.5000e+000 101094 -3.9899e+000 -4.4075e-001  1.0328e-001 28185 100938,100990,100964
 6.5000e+000 101408  1.4567e-001  7.6421e-002 -2.5957e-001 27781 101503,101431,101310
 6.5000e+000 101385 -2.0555e-001  5.7063e-001 -5.2373e-001 27781 101431,101258,101232
 6.5000e+000 101362  2.9710e-001  1.4096e-002 -3.2749e-001 27781 101503,101310,101284
 6.5000e+000 101457  7.9301e-001  4.6413e-001 -4.3106e-001 27781 101336,101310,101431
 6.5000e+000 101480  2.5562e-001  8.5021e-001 -7.6119e-001 27781 101575,101431,101232
 6.5000e+000 101529  3.7561e-001  2.0321e-001 -4.7763e-001 27781 101258,101431,101503
 6.5000e+000 101552  1.9363e-001 -2.6618e-001 -2.9822e-001 27781 101705,101503,101284
 6.5000e+000 101601  3.2185e-001  8.8675e-001 -8.1081e-001 27781 101336,101431,101575
 6.5000e+000 101731 -2.4731e-002  2.4457e-002 -4.4310e-001 27781 101258,101503,101705
 6.5000e+000 102237 -7.9443e-001 -2.1751e-001  5.9826e-002 27419 102476,102260,101992
 6.5000e+000 102214 -5.5301e-001 -3.4043e-001 -4.2900e-002 27419 102260,101940,101914
 6.5000e+000 102191 -8.4432e-001 -3.9222e-001  1.1602e-001 27419 102404,102332,102096
 6.5000e+000 102168 -7.3966e-001 -3.4204e-001  2.2018e-002 27419 102404,102096,102044
 6.5000e+000 102145 -7.3865e-001 -2.5959e-001  9.2250e-002 27419 102476,101992,101966
 6.5000e+000 102122 -4.7359e-001 -4.3613e-001  8.9340e-003 27419 102044,102096,102070
 6.5000e+000 102286 -1.0391e+000 -4.2575e-001  1.7176e-001 27419 102018,101992,102260
 6.5000e+000 102309 -8.0008e-001 -3.0363e-001  1.6593e-002 27419 102332,102018,102260
 6.5000e+000 102358 -8.7019e-001 -7.2633e-001  2.4723e-001 27419 101914,102096,102332
 6.5000e+000 102381 -7.4840e-001 -4.7340e-001  4.9775e-002 27419 101914,102332,102260
 6.5000e+000 102430 -6.4105e-001 -3.7659e-001 -1.1386e-002 27419 102018,102332,102404
 6.5000e+000 102453 -5.5463e-001 -2.9319e-001 -1.1566e-001 27419 102018,102404,102044
 6.5000e+000 102502 -6.7615e-001 -2.7931e-001  9.2314e-002 27419 101940,102260,102476
 6.5000e+000 102525 -1.9217e-001 -7.6656e-002  6.3945e-002 27419 101940,102476,101966
 6.5000e+000 103031 -1.3953e+000  1.1942e+000  9.4909e-001 26715 102708,102786,102760
 6.5000e+000 103008 -2.1273e-001 -4.0165e-001  1.6079e-001 26715 102708,102890,102786
 6.5000e+000 102985  1.0720e+000 -6.8701e-001  9.9423e-002 26715 102838,102890,102864
 6.5000e+000 102962  2.9259e-001  1.0453e+000  1.2051e-001 26715 102786,102890,102838
 6.5000e+000 102939  1.4845e+000  1.6296e+000  7.2626e-001 26715 102786,102838,102812
 6.5000e+000 102916 -2.1931e+000 -6.5384e-002  3.8618e-001 26715 102708,102760,102734
 6.5000e+000 103279  2.5830e-002  4.6611e-002 -1.1217e-001 26303 103302,103158,103080
 6.5000e+000 103256  1.7445e-001 -6.5857e-002 -1.1494e-001 26303 103302,103080,103054
 6.5000e+000 103233  3.5227e-001  2.1050e-001 -3.9638e-002 26303 103080,103158,103106
 6.5000e+000 103210 -4.1842e-001 -1.9641e-003 -5.6436e-002 26303 103106,103158,103132
 6.5000e+000 103328 -2.3046e-001 -6.2623e-002 -6.3248e-002 26303 103184,103158,103302
 6.5000e+000 103351  5.4808e-002 -7.0993e-002 -8.9146e-002 26303 103184,103302,103054
 6.5000e+000 103501 -9.9682e-001 -9.3715e-002  6.1289e-002 25849 103374,103426,103400
 6.5000e+000 103478 -8.8269e-001 -3.9892e-001  4.6946e-003 25849 103374,103452,103426
 6.5000e+000 104090 -8.8491e-002  2.1632e-001  1.2246e-001 25445 103793,103871,103819
 6.5000e+000 104067  1.9718e-001  1.1025e-001  1.6540e-003 25445 103793,103949,103871
 6.5000e+000 104044  2.6849e-001  2.9890e-001 -2.0333e-003 25445 103871,103949,103923
 6.5000e+000 104021 -6.0707e-002  2.9615e-001 -1.2878e-003 25445 103819,103871,103845
 6.5000e+000 103998  1.1574e-001  1.8394e-001  2.0281e-001 25445 103767,103949,103793
 6.5000e+000 103975  3.9736e-001  2.1138e-001 -1.4267e-002 25445 103871,103923,103897
 6.5000e+000 104419 -3.7166e-001 -8.1984e-002 -1.2667e-001 25083 104220,104298,104272
 6.5000e+000 104396 -7.1378e-001 -4.1167e-001  7.5758e-003 25083 104220,104324,104298
 6.5000e+000 104373 -2.7838e-001 -1.7532e-001 -2.2555e-002 25083 104220,104272,104246
 6.5000e+000 104350 -7.1125e-001 -3.4059e-001  2.9222e-002 25083 104194,104324,104220
 6.5000e+000 105102  5.1320e-002 -1.6179e-001 -1.2504e-001 24793 104785,104863,104837
 6.5000e+000 105079 -1.0783e-002 -4.4523e-001 -2.8918e-001 24793 104759,104863,104785
 6.5000e+000 105056 -9.2489e-002 -6.4554e-002 -3.0541e-001 24793 104759,104915,104863
 6.5000e+000 105033 -1.9186e-001 -7.9136e-002 -2.3029e-001 24793 104733,104915,104759
 6.5000e+000 105010  5.7414e-002 -1.3155e-002 -2.4576e-001 24793 104863,104915,104889
 6.5000e+000 104987 -3.2346e-001 -9.2833e-003 -3.2312e-001 24793 104681,104915,104733
 6.5000e+000 104964 -3.5547e-002 -2.7298e-001 -1.6583e-001 24793 104785,104837,104811
 6.5000e+000 104941 -1.9500e-001  2.8097e-001 -3.5838e-001 24793 104681,104733,104707
 6.5000e+000 105252  8.9760e-001  1.1667e+000 -9.3756e-002 24389 105477,105275,105177
 6.5000e+000 105229  9.0953e-001  1.2370e+000 -1.3768e-001 24389 105347,105275,105151
 6.5000e+000 105301  9.6218e-001  1.0664e+000 -1.2860e-001 24389 105203,105177,105275
 6.5000e+000 105324  9.7062e-001  1.0678e+000 -1.2836e-001 24389 105203,105275,105125
 6.5000e+000 105373  8.9260e-001  8.1114e-001 -5.0943e-002 24389 105125,105275,105347
 6.5000e+000 105503  1.0926e+000  1.4612e+000  2.0736e-002 24389 105151,105275,105477
 6.5000e+000 106088 -5.7790e-001  5.6435e-001  7.1233e-001 23735 105791,105921,105895
 6.5000e+000 106065 -2.0421e+000 -2.3862e-002  6.9861e-001 23735 105765,105921,105791
 6.5000e+000 106042 -3.6326e-001  6.6110e-001  3.7848e-001 23735 105765,105947,105921
 6.5000e+000 106019 -2.3481e+000  8.5910e-002  9.5435e-001 23735 105817,105895,105869
 6.5000e+000 105996 -1.4426e+000  3.2714e-001  8.4811e-001 23735 105791,105895,105817
 6.5000e+000 105973 -1.1192e+000  2.8028e-001  7.6943e-001 23735 105817,105869,105843
 6.5000e+000 106417  7.0970e-001  2.1132e+000 -4.6490e-001 23295 106218,106296,106270
 6.5000e+000 106394  2.3546e-001  7.0179e-001 -3.3294e-001 23295 106218,106322,106296
 6.5000e+000 106371  3.7501e-002  5.0403e-001 -4.1463e-001 23295 106218,106270,106244
 6.5000e+000 106348  4.6998e-001  8.0186e-001 -1.3918e-001 23295 106192,106322,106218
 6.5000e+000 106746  1.7551e-001  7.5875e-001  1.2248e-001 23005 106521,106599,106547
 6.5000e+000 106723  6.2380e-001  8.2922e-001  1.4216e-002 23005 106521,106651,106599
 6.5000e+000 106700  4.1304e-001  7.7683e-001  4.8894e-002 23005 106547,106599,106573
 6.5000e+000 106677  7.8604e-001  8.1041e-001  4.0016e-001 23005 106599,106651,106625
 6.5000e+000 107331 -3.9574e-001  2.3242e-001 -2.9455e-001 22601 107060,107190,107138
 6.5000e+000 107308 -1.3019e+000 -5.3131e-002 -6.3300e-001 22601 107034,107190,107060
 6.5000e+000 107285 -1.8474e+000 -4.3934e-001 -6.0009e-001 22601 107060,107138,107112
 6.5000e+000 107262 -2.0074e+000 -3.5253e-001 -6.6187e-001 22601 107008,107190,107034
 6.5000e+000 107239 -2.1202e-001  1.1432e+000 -1.2506e+000 22601 107060,107112,107086
 6.5000e+000 107216 -6.1771e-001  2.9925e-001 -1.4678e-001 22601 107138,107190,107164
 6.5000e+000 107807 -5.7268e-001  1.3449e-001 -1.0742e-001 22031 107974,107902,107617
 6.5000e+000 107784 -7.1286e-001  4.0128e-001 -2.6570e-001 22031 107830,107565,107513
 6.5000e+000 107761 -4.6508e-001  8.6723e-002 -2.9664e-001 22031 108046,107830,107513
 6.5000e+000 107738 -4.4150e-001  3.5773e-001  2.2707e-002 22031 107974,107617,107591
 6.5000e+000 107715 -5.0633e-001 -5.7658e-002 -2.5411e-001 22031 108046,107513,107461
 6.5000e+000 107692 -1.7600e+000  6.3425e-001 -4.8478e-001 22031 107513,107565,107539
 6.5000e+000 107669 -2.7727e-001  2.1629e-001 -3.8871e-001 22031 107461,107513,107487
 6.5000e+000 107856 -8.3947e-001  2.6767e-001 -1.8062e-001 22031 107902,107565,107830
 6.5000e+000 107879 -5.6205e-001 -1.0595e-001 -1.7437e-002 22031 107643,107830,107435
 6.5000e+000 107928 -1.1495e+000  5.3234e-001 -5.1549e-001 22031 107643,107617,107902
 6.5000e+000 107951 -8.0690e-001  2.4380e-001  2.9766e-002 22031 107643,107902,107830
 6.5000e+000 108000 -7.4158e-001  4.5090e-001 -1.3038e-001 22031 107565,107902,107974
 6.5000e+000 108023 -7.1344e-001  3.7809e-001 -9.8042e-002 22031 107565,107974,107591
 6.5000e+000 108072 -4.2580e-001 -1.0030e-001 -9.7879e-002 22031 107435,107830,108046
 6.5000e+000 108095 -5.1732e-001 -3.2943e-001 -5.4084e-002 22031 107435,108046,107461
 6.5000e+000 108196  1.0600e-001  4.6124e-002 -2.3739e-001 21783 108118,108170,108144
 6.5000e+000 108655  1.6715e-001  9.5442e-001  5.6249e-001 21379 108407,108485,108459
 6.5000e+000 108632  1.9065e+000 -3.6989e-002  7.8742e-001 21379 108407,108511,108485
 6.5000e+000 108609  1.9555e+000 -2.6505e-001  5.0249e-001 21379 108381,108511,108407
 6.5000e+000 108586  8.5194e-001  5.4027e-001 -6.3099e-001 21379 108381,108537,108511
 6.5000e+000 108563  5.0792e-001  1.3024e-001  2.5515e-001 21379 108407,108459,108433
 6.5000e+000 109082 -8.4380e-002  8.0887e-001  2.0756e-001 20974 109105,108863,108811
 6.5000e+000 109059  4.3760e-001  1.0927e+000 -1.6816e-001 20974 109105,108811,108759
 6.5000e+000 109036 -1.0325e-001  1.7923e+000 -1.6917e-001 20974 109177,108889,108863
 6.5000e+000 109013  8.8055e-001  1.4837e+000 -1.5633e-001 20974 108811,108863,108837
 6.5000e+000 108990 -4.2077e-001 -9.5152e-003 -6.3976e-002 20974 108759,108941,108915
 6.5000e+000 108967  1.8248e-001 -3.1876e-001  3.4118e-002 20974 108759,108811,108785
 6.5000e+000 109131  1.9766e-001  1.3920e+000  6.9270e-002 20974 109177,108863,109105
 6.5000e+000 109154  2.2215e-002  2.5126e-002 -3.7428e-002 20974 108915,109105,108759
 6.5000e+000 109203 -2.4315e-001  1.4672e+000  2.1490e-001 20974 108915,108889,109177
 6.5000e+000 109226 -1.9920e-001  6.1481e-001  4.3261e-001 20974 108915,109177,109105
 6.5000e+000 109496 -8.3599e-001  1.3744e-001 -6.8966e-002 20470 109271,109375,109297
 6.5000e+000 109473 -7.7941e-001  2.5819e-001 -1.2948e-001 20470 109271,109401,109375
 6.5000e+000 109450 -9.9054e-001 -8.9987e-002 -1.4745e-001 20470 109297,109375,109349
 6.5000e+000 109427 -1.3617e+000 -8.5295e-001  2.7146e-001 20470 109297,109349,109323
 6.5000e+000 109955  2.3587e-001  1.8109e+000  1.0113e+000 20123 110050,109733,109707
 6.5000e+000 109932 -7.2887e-001  8.5889e-001  5.3630e-001 20123 110050,109707,109681
 6.5000e+000 109909  2.1851e-001  5.4855e-001  6.6123e-001 20123 109978,109759,109733
 6.5000e+000 109886 -1.6817e-001  3.4944e-001  5.7690e-001 20123 110122,109978,109733
 6.5000e+000 109863  3.2462e-001  2.8078e-001  2.8317e-001 20123 109785,109837,109811
 6.5000e+000 110004  1.5771e-001  4.9485e-001  4.5356e-001 20123 109785,109759,109978
 6.5000e+000 110027  1.1958e-002  3.6084e-001  3.0830e-001 20123 109785,109978,109837
 6.5000e+000 110076 -3.6120e-001  6.3630e-001  4.5620e-001 20123 110122,109733,110050
 6.5000e+000 110099 -3.1204e-001  5.1169e-001  8.9762e-002 20123 109837,110050,109681
 6.5000e+000 110148  2.0471e-001  7.6039e-001  4.1055e-001 20123 109837,109978,110122
 6.5000e+000 110171  2.6658e-002  1.0051e+000  2.8476e-001 20123 109837,110122,110050
 6.5000e+000 110500  1.2229e+000  3.9361e-001 -2.8776e-001 19511 110301,110379,110353
 6.5000e+000 110477  1.7326e+000  1.0001e+000 -5.0733e-001 19511 110301,110405,110379
 6.5000e+000 110454  4.5376e-001  3.8043e-001 -2.8802e-001 19511 110275,110405,110301
 6.5000e+000 110431  1.0521e+000  5.3507e-001  5.1039e-001 19511 110301,110353,110327
 6.5000e+000 110957  3.4669e-001  1.2538e+000 -7.7786e-001 19107 110683,110735,110709
 6.5000e+000 110934  1.7440e-001 -2.4666e-001 -1.0474e+000 19107 110683,110813,110735
 6.5000e+000 110911  4.8502e-001  7.0840e-001 -9.8563e-001 19107 110735,110813,110761
 6.5000e+000 110888 -7.6925e-001 -7.1437e-001 -8.8530e-001 19107 110683,110839,110813
 6.5000e+000 110865  2.1219e-001  8.6814e-002 -9.4514e-001 19107 110761,110813,110787
 6.5000e+000 111335 -2.2737e-001 -2.8135e-001 -1.7465e-001 18653 111087,111165,111139
 6.5000e+000 111312 -8.5984e-002 -1.1516e-001 -2.3892e-001 18653 111087,111217,111165
 6.5000e+000 111289 -1.8737e-001 -1.7388e-001 -1.3409e-001 18653 111061,111217,111087
 6.5000e+000 111266 -9.2016e-002 -4.2409e-002 -1.0913e-001 18653 111087,111139,111113
 6.5000e+000 111243 -1.0107e-001 -2.0324e-001 -1.6646e-001 18653 111165,111217,111191
 6.5000e+000 111735 -1.1491e+000 -3.5721e-001 -6.7414e-002 18213 111461,111513,111487
 6.5000e+000 111712 -1.3146e+000 -8.0941e-001  1.0866e-002 18213 111461,111617,111513
 6.5000e+000 111689 -1.2603e+000 -7.2954e-001 -1.8714e-001 18213 111513,111617,111591
 6.5000e+000 111666 -5.8319e-001 -3.2477e-001  5.7866e-002 18213 111513,111591,111539
 6.5000e+000 111643 -3.5558e-001 -3.8390e-001 -3.8894e-003 18213 111539,111591,111565
 6.5000e+000 111885  7.6180e-001 -3.6305e-001  2.6534e-001 17659 111784,111836,111810
 6.5000e+000 111862  1.7022e+000  5.2480e-001  6.4743e-001 17659 111758,111836,111784
 6.5000e+000 112287 -3.8283e-002  8.1120e-001 -3.8244e-001 17411 112065,112169,112143
 6.5000e+000 112264 -2.1848e+000  2.7910e-002  3.0926e-001 17411 112039,112169,112065
 6.5000e+000 112241 -2.4580e+000  2.1184e-001 -5.1815e-001 17411 112013,112169,112039
 6.5000e+000 112218  3.5263e+000  1.1522e+000 -7.0454e-001 17411 112091,112143,112117
 6.5000e+000 112195 -1.3619e-001 -1.4082e-001  3.0348e-001 17411 112065,112143,112091
 6.5000e+000 112508 -8.3243e-001  5.2578e-001  9.4219e-002 17007 112384,112436,112410
 6.5000e+000 112485 -6.3932e-001  7.1030e-001  1.7382e-001 17007 112332,112436,112384
 6.5000e+000 112462 -8.2175e-001  3.5376e-001  1.0944e-001 17007 112332,112384,112358
 6.5000e+000 112658 -2.0639e+000 -4.2249e-001  3.1737e-001 16553 112557,112609,112583
 6.5000e+000 112635 -1.9835e+000 -3.0670e-001  3.6393e-001 16553 112531,112609,112557
 6.5000e+000 112761 -5.6025e-001  2.0676e+000 -3.5810e-001 16355 112683,112735,112709
 6.5000e+000 112913 -1.3169e+000  6.8467e-001  7.7084e-002 15949 112786,112838,112812
 6.5000e+000 112890 -6.5106e-001  1.8258e+000 -2.4036e-001 15949 112786,112864,112838
 6.5000e+000 113065  2.1079e-001 -1.9385e-001 -8.2527e-002 15609 112938,112990,112964
 6.5000e+000 113042  7.1663e-001  6.2277e-002  2.3152e-002 15609 112938,113016,112990
 6.5000e+000 113420  7.8580e-001  7.4305e-001  2.6156e-001 15284 113247,113325,113299
 6.5000e+000 113397  7.4119e-001  6.3373e-001  1.6133e-001 15284 113195,113325,113247
 6.5000e+000 113374  6.1565e-001  6.0970e-001  1.1190e-001 15284 113195,113247,113221
 6.5000e+000 113351  7.9036e-001  1.2633e+000  3.1743e-001 15284 113247,113299,113273
 6.5000e+000 113521  5.3549e-001 -4.2784e-001  3.0200e-001 202 113443,113495,113469
 7.0000e+000 65564 -1.4408e-002 -1.4648e-002 -1.0139e-002 65155 65414,65466,65440
 7.0000e+000 65541 -6.1440e-002  3.5152e-002  4.0753e-002 65155 65414,65492,65466
 7.0000e+000 65518 -7.2913e-002  6.1637e-002 -3.9383e-002 65155 65388,65492,65414
 7.0000e+000 65883 -2.3561e-001  7.5743e-001 -3.6495e-002 64957 65635,65739,65713
 7.0000e+000 65860 -7.1266e-002  1.5305e+000 -2.7348e-002 64957 65635,65765,65739
 7.0000e+000 65837  1.3063e-001  1.6152e+000 -3.4392e-002 64957 65609,65765,65635
 7.0000e+000 65814 -1.5677e-001  1.1038e+000 -3.9733e-001 64957 65635,65713,65687
 7.0000e+000 65791 -6.1816e-002  1.3606e+000 -2.5464e-001 64957 65635,65687,65661
 7.0000e+000 65984 -2.7882e-001  2.9535e-001  1.9618e-001 64781 65906,65958,65932
 7.0000e+000 66232  3.6926e-001  4.5332e-001 -4.1246e-001 64469 66007,66059,66033
 7.0000e+000 66209 -2.7977e-001 -7.2890e-002 -6.4225e-001 64469 66007,66085,66059
 7.0000e+000 66186  9.3111e-002  9.0058e-001 -2.0419e-001 64469 66007,66137,66085
 7.0000e+000 66163 -5.7279e-001  3.1206e-002 -9.7590e-001 64469 66085,66137,66111
 7.0000e+000 66504  1.2025e-002  1.5196e+000 -9.5005e-002 64271 66279,66383,66305
 7.0000e+000 66481 -1.7824e-001  1.5444e+000  5.6684e-002 64271 66279,66409,66383
 7.0000e+000 66458 -2.7319e-001  1.9406e+000 -1.2200e-001 64271 66305,66357,66331
 7.0000e+000 66435  6.0510e-002  1.9158e+000 -1.1546e-001 64271 66305,66383,66357
 7.0000e+000 66705 -3.0287e-002  1.5646e+000 -2.3885e-001 64073 66728,66581,66555
 7.0000e+000 66682  1.7581e-002  1.5948e+000 -2.2404e-001 64073 66728,66555,66529
 7.0000e+000 66659 -6.4805e-001  2.0303e+000  5.8144e-001 64073 66581,66633,66607
 7.0000e+000 66754 -7.9420e-002  1.6001e+000 -2.5202e-001 64073 66633,66581,66728
 7.0000e+000 66777 -4.3520e-002  1.6267e+000 -2.3619e-001 64073 66633,66728,66529
 7.0000e+000 66951  2.3469e-001 -2.6661e-002  2.9985e-001 63783 66824,66876,66850
 7.0000e+000 66928 -8.2904e-001  6.3321e-001 -1.0571e-001 63783 66824,66902,66876
 7.0000e+000 67201  6.0492e-001  1.7542e+000 -1.1144e-001 63585 66976,67080,67054
 7.0000e+000 67178  2.7808e-001  1.6232e+000 -1.9485e-001 63585 66976,67106,67080
 7.0000e+000 67155  3.1742e-001  8.3582e-001 -1.6493e-002 63585 66976,67054,67028
 7.0000e+000 67132  4.6517e-001  1.0721e+000  2.9386e-001 63585 66976,67028,67002
 7.0000e+000 67654 -1.6660e-001  1.0829e+000  4.3080e-002 63295 67357,67487,67383
 7.0000e+000 67631 -2.0645e-001  1.5261e+000 -3.1248e-001 63295 67331,67487,67357
 7.0000e+000 67608  7.9441e-002  1.9842e+000  7.8270e-002 63295 67331,67513,67487
 7.0000e+000 67585 -2.3694e-002  2.0736e+000 -7.8569e-002 63295 67435,67487,67461
 7.0000e+000 67562  8.2573e-002  2.0013e+000  4.3601e-002 63295 67383,67487,67435
 7.0000e+000 67539  7.1775e-004  1.5480e+000 -7.6806e-002 63295 67383,67435,67409
 7.0000e+000 67853 -2.9636e-002  1.3011e+000 -3.2398e-002 62891 67876,67703,67677
 7.0000e+000 67830  5.2809e-002  1.6948e+000 -8.0003e-003 62891 67876,67677,67781
 7.0000e+000 67807 -2.1788e-001  1.0445e+000 -1.2527e-001 62891 67948,67729,67703
 7.0000e+000 67902 -3.8991e-002  1.2172e+000 -2.1981e-001 62891 67948,67703,67876
 7.0000e+000 67925  3.3781e-001  1.3746e+000 -2.4657e-001 62891 67755,67876,67781
 7.0000e+000 67974  6.2775e-002  8.3691e-001 -8.0007e-002 62891 67755,67729,67948
 7.0000e+000 67997  1.1253e-001  9.1517e-001 -1.3848e-001 62891 67755,67948,67876
 7.0000e+000 68218  2.6159e-002 -5.5085e-002 -3.5534e-002 62693 68042,68120,68068
 7.0000e+000 68195  6.2453e-005 -4.7538e-002  6.6359e-003 62693 68042,68146,68120
 7.0000e+000 68172 -7.5094e-002  5.5604e-002 -2.7278e-002 62693 68068,68120,68094
 7.0000e+000 68468  1.2123e-001 -2.5583e-003 -6.6985e-003 62289 68491,68295,68269
 7.0000e+000 68445  3.7483e-002 -2.5042e-002 -3.4733e-002 62289 68563,68491,68269
 7.0000e+000 68422  2.6813e-002  1.1582e-002 -5.2209e-003 62289 68563,68269,68243
 7.0000e+000 68399 -7.9980e-002 -1.3203e-001 -9.0555e-002 62289 68295,68347,68321
 7.0000e+000 68517  7.0179e-002 -2.4472e-002 -4.0004e-002 62289 68347,68295,68491
 7.0000e+000 68540 -2.7324e-002 -5.5937e-003 -6.8341e-002 62289 68347,68491,68373
 7.0000e+000 68589  6.5240e-002  4.7850e-002 -4.0279e-002 62289 68373,68491,68563
 7.0000e+000 68612  3.9963e-002  5.9314e-002 -8.8820e-003 62289 68373,68563,68243
 7.0000e+000 68911  5.2743e-002  1.1882e+000 -4.6593e-002 62091 69222,68934,68741
 7.0000e+000 68888 -2.8641e-001  1.3048e+000 -5.6272e-002 62091 69006,68934,68689
 7.0000e+000 68865 -4.5447e-001  1.1188e+000 -2.3604e-001 62091 69006,68689,68663
 7.0000e+000 68842  2.3594e-001  1.5732e+000  2.5128e-001 62091 69078,68793,68767
 7.0000e+000 68819  6.5243e-002  1.2008e+000 -1.0838e-001 62091 69222,68741,68715
 7.0000e+000 68960  2.6584e-001  1.4012e+000 -1.3405e-001 62091 68767,68741,68934
 7.0000e+000 68983  1.1210e-001  1.6674e+000  6.0044e-002 62091 69078,68767,68934
 7.0000e+000 69032 -2.1574e-001  1.4873e+000 -1.3505e-002 62091 69150,69006,68637
 7.0000e+000 69055 -2.2815e-001  1.4078e+000 -7.2381e-002 62091 68637,69006,68663
 7.0000e+000 69104  1.5118e-001  1.3747e+000  6.2085e-003 62091 68637,68793,69078
 7.0000e+000 69127 -1.9202e-001  1.4691e+000 -2.6368e-002 62091 69150,68637,69078
 7.0000e+000 69176 -1.1303e-001  1.3156e+000  3.0818e-003 62091 68934,69006,69150
 7.0000e+000 69199  2.3500e-002  1.4271e+000 -5.6066e-002 62091 68934,69150,69078
 7.0000e+000 69248  2.4958e-002  1.1168e+000 -5.2293e-002 62091 68689,68934,69222
 7.0000e+000 69271  3.4151e-002  1.0976e+000 -9.4624e-002 62091 68689,69222,68715
 7.0000e+000 69521 -2.1594e-001  6.3909e-002 -2.3268e-002 61893 69544,69348,69296
 7.0000e+000 69498 -7.0386e-002  8.9834e-002  3.7236e-003 61893 69544,69296,69400
 7.0000e+000 69475  3.0005e-002  9.6349e-002 -1.1991e-002 61893 69296,69426,69400
 7.0000e+000 69452  6.6554e-002 -7.3094e-002 -2.2618e-001 61893 69296,69348,69322
 7.0000e+000 69570 -1.3899e-001  2.7355e-004  8.9858e-002 61893 69374,69348,69544
 7.0000e+000 69593  1.1780e-001  8.8839e-002  1.0980e-001 61893 69374,69544,69400
 7.0000e+000 70046 -1.1096e-001  1.2540e+000 -2.8702e-002 61467 69749,69905,69879
 7.0000e+000 70023 -1.3597e-001  1.0334e+000 -2.9825e-001 61467 69723,69905,69749
 7.0000e+000 70000 -1.7780e-001  1.1395e+000 -8.6468e-004 61467 70069,69827,69775
 7.0000e+000 69977  1.6613e-001  1.9313e+000 -2.7413e-001 61467 70069,69775,69749
 7.0000e+000 69954  2.4490e-002  5.5124e-001 -1.6299e-003 61467 70141,69853,69827
 7.0000e+000 69931 -3.1592e-001  1.2257e+000  3.8264e-001 61467 69775,69827,69801
 7.0000e+000 70095 -8.3814e-002  7.1187e-001  1.0197e-001 61467 70141,69827,70069
 7.0000e+000 70118 -1.2585e-001  1.1486e+000 -8.2373e-003 61467 69879,70069,69749
 7.0000e+000 70167 -9.7118e-002  7.9791e-001 -9.5784e-003 61467 69879,69853,70141
 7.0000e+000 70190 -3.4654e-002  1.1787e+000  9.7966e-002 61467 69879,70141,70069
 7.0000e+000 70291  1.6626e-001  2.0864e+000  2.1711e-001 61013 70213,70265,70239
 7.0000e+000 70441 -4.1129e-002  3.5735e-002  2.6523e-002 60651 70340,70392,70366
 7.0000e+000 70418 -9.3931e-002 -6.8379e-003 -7.9512e-003 60651 70314,70392,70340
 7.0000e+000 70642 -9.3132e-002  1.1306e+000  3.0925e-001 60311 70665,70492,70466
 7.0000e+000 70619  7.9420e-002  1.5349e+000  3.0364e-001 60311 70665,70466,70570
 7.0000e+000 70596 -3.3996e-001  3.9276e-001  3.6631e-002 60311 70492,70544,70518
 7.0000e+000 70691 -2.4143e-003  7.3585e-001 -1.1774e-001 60311 70544,70492,70665
 7.0000e+000 70714  2.6594e-001  1.3588e+000 -1.3622e-001 60311 70544,70665,70570
 7.0000e+000 70964 -2.7767e-001  8.8831e-001  4.6640e-002 59907 70987,70765,70739
 7.0000e+000 70941 -5.7097e-002  1.3911e+000 -5.3056e-002 59907 71059,70987,70739
 7.0000e+000 70918  8.9999e-002  2.1131e+000 -1.3603e-001 59907 71059,70739,70869
 7.0000e+000 70895  2.7463e-002  1.4176e+000 -1.0049e-001 59907 70817,70869,70843
 7.0000e+000 71013 -1.0254e-001  9.2437e-001 -2.3669e-001 59907 70791,70765,70987
 7.0000e+000 71036 -3.8416e-002  9.3012e-001 -2.0572e-001 59907 70791,70987,70817
 7.0000e+000 71085  1.0494e-001  9.0878e-001 -1.6706e-001 59907 70817,70987,71059
 7.0000e+000 71108 -3.6271e-002  1.2250e+000 -1.2154e-001 59907 70817,71059,70869
 7.0000e+000 71441  5.1351e-001  7.2045e-001 -1.1467e+000 59417 71464,71242,71216
 7.0000e+000 71418  8.9308e-001  1.0306e+000  1.1188e-001 59417 71464,71216,71320
 7.0000e+000 71395  4.5492e-001  1.2225e+000  2.7585e-001 59417 71216,71346,71320
 7.0000e+000 71372 -1.5442e+000  2.0077e-001 -1.6785e-001 59417 71268,71320,71294
 7.0000e+000 71490 -3.3095e-001  3.8654e-001 -1.3606e+000 59417 71268,71242,71464
 7.0000e+000 71513 -9.0688e-001  3.9710e-001 -2.2872e-002 59417 71268,71464,71320
 7.0000e+000 71712  1.9713e-002  1.2176e+000 -1.9035e-001 58913 71562,71614,71588
 7.0000e+000 71689  9.2626e-001  1.0849e+000 -5.6027e-001 58913 71536,71614,71562
 7.0000e+000 71666  6.5871e-001  8.6419e-001 -4.6282e-001 58913 71536,71640,71614
 7.0000e+000 72171  6.9685e-001  1.6099e+000 -3.3739e-001 58409 72194,72027,72001
 7.0000e+000 72148  5.4865e-001  9.1901e-001 -4.2108e-001 58409 72194,72001,71949
 7.0000e+000 72125  2.1611e-001  1.2486e+000 -4.1070e-001 58409 71923,72053,71949
 7.0000e+000 72102  4.7886e-002  6.0905e-001 -2.4961e-001 58409 71949,72001,71975
 7.0000e+000 72079  4.9885e-001  1.2875e+000 -4.7031e-001 58409 71897,72053,71923
 7.0000e+000 72220  6.2882e-001  1.7301e+000  3.2304e-003 58409 72053,72027,72194
 7.0000e+000 72243  6.1049e-001  1.3846e+000 -1.4035e-001 58409 72053,72194,71949
 7.0000e+000 72491 -1.9683e+000 -8.3033e-001 -1.2973e+000 57855 72514,72318,72292
 7.0000e+000 72468  1.1434e+000  4.4358e-001 -1.4210e+000 57855 72514,72292,72266
 7.0000e+000 72445 -1.1173e+000  1.3347e-001  2.6159e-002 57855 72318,72396,72370
 7.0000e+000 72422 -3.0163e+000  9.6956e-001 -9.6464e-001 57855 72318,72370,72344
 7.0000e+000 72540 -2.2600e+000 -3.7235e-001 -8.4092e-001 57855 72396,72318,72514
 7.0000e+000 72563 -1.9633e+000 -3.5169e-001 -8.6848e-001 57855 72396,72514,72266
 7.0000e+000 72811  1.0628e+000  2.1673e-001 -6.3991e-001 57401 72612,72690,72638
 7.0000e+000 72788  1.6975e-001 -1.4586e-001  4.6402e-002 57401 72586,72690,72612
 7.0000e+000 72765 -5.9445e-001 -8.9434e-001 -1.1215e+000 57401 72638,72690,72664
 7.0000e+000 72742  2.4503e-001  9.5709e-001 -2.3457e-001 57401 72586,72716,72690
 7.0000e+000 73144  1.1707e-001  7.2368e-001 -1.8091e-001 57004 72919,72997,72945
 7.0000e+000 73121  1.8179e-001  1.4845e+000 -3.8427e-001 57004 72919,73049,72997
 7.0000e+000 73098  9.3178e-002  9.7570e-001 -3.5859e-001 57004 72945,72997,72971
 7.0000e+000 73075  2.8040e-001  1.8162e+000 -4.4973e-001 57004 72997,73049,73023
 7.0000e+000 73650 -1.3371e+000  1.8269e+000 -1.2250e+000 56592 73673,73379,73353
 7.0000e+000 73627  1.9690e+000  2.4373e+000 -1.9899e+000 56592 73673,73353,73327
 7.0000e+000 73604  1.2150e-001  1.6314e+000 -5.8017e-001 56592 73745,73509,73483
 7.0000e+000 73581 -2.4482e+000 -5.8379e-001 -3.6839e-001 56592 73379,73457,73405
 7.0000e+000 73558  3.9276e-001  3.3294e-001  1.2735e-001 56592 73379,73483,73457
 7.0000e+000 73535  2.2952e+000  5.3454e-001 -1.1457e-001 56592 73405,73457,73431
 7.0000e+000 73699 -1.0825e+000  1.2283e+000  2.9184e-001 56592 73483,73379,73673
 7.0000e+000 73722 -2.4115e-002  1.9329e+000 -6.7751e-001 56592 73745,73483,73673
 7.0000e+000 73771 -4.1861e-003  1.2714e+000 -6.0468e-001 56592 73327,73509,73745
 7.0000e+000 73794 -1.8985e-001  1.5139e+000 -7.4805e-001 56592 73327,73745,73673
 7.0000e+000 74123  1.2530e+000  8.7914e-001 -1.9880e-001 56152 74146,74002,73924
 7.0000e+000 74100  1.0790e+000  6.8328e-001 -3.8927e-002 56152 74146,73924,73898
 7.0000e+000 74077  1.4499e+000  1.1428e+000 -3.0006e-001 56152 73924,74002,73976
 7.0000e+000 74054  1.0661e+000  2.6447e-001  1.5329e-001 56152 73924,73976,73950
 7.0000e+000 74172  1.6446e+000  1.1762e+000 -3.9305e-001 56152 74028,74002,74146
 7.0000e+000 74195  1.2809e+000  7.9065e-001 -1.8779e-001 56152 74028,74146,73898
 7.0000e+000 74345 -1.0550e+000  1.4099e-001  4.0130e-001 55634 74218,74270,74244
 7.0000e+000 74322 -3.8800e-002  2.3221e-001  1.2546e-001 55634 74218,74296,74270
 7.0000e+000 74823  4.4949e-001 -1.2772e+000  4.9672e-001 55016 74918,74846,74581
 7.0000e+000 74800 -8.7937e-002  1.4951e-001  2.8318e-001 55016 74846,74477,74633
 7.0000e+000 74777 -4.0312e-001 -2.2026e+000  8.6001e-001 55016 74918,74581,74555
 7.0000e+000 74754 -8.1970e-001 -1.2677e+000  9.3291e-001 55016 74990,74503,74477
 7.0000e+000 74731 -1.4385e+000 -9.1037e-002  7.1562e-001 55016 74451,74633,74477
 7.0000e+000 74708 -1.5115e+000  1.0021e+000  3.1188e-001 55016 74451,74659,74633
 7.0000e+000 74685 -1.9016e+000 -2.4221e+000  1.7350e+000 55016 74503,74555,74529
 7.0000e+000 74872  4.3200e-001 -1.3917e+000  3.8658e-001 55016 74607,74581,74846
 7.0000e+000 74895 -5.4698e-002 -1.0769e+000  3.0450e-001 55016 74607,74846,74633
 7.0000e+000 74944 -7.9065e-001 -1.1613e+000  7.6189e-001 55016 74477,74846,74918
 7.0000e+000 74967 -8.8294e-001 -1.2592e+000  8.3820e-001 55016 74990,74477,74918
 7.0000e+000 75016 -6.0007e-001 -1.1687e+000  1.0053e+000 55016 74555,74503,74990
 7.0000e+000 75039 -6.7959e-001 -1.2046e+000  8.9536e-001 55016 74555,74990,74918
 7.0000e+000 75287 -1.9541e+000 -3.3264e+000 -5.5269e-002 54726 75310,75140,75114
 7.0000e+000 75264 -2.4589e+000 -2.1082e+000 -3.6358e-001 54726 75310,75114,75088
 7.0000e+000 75241 -2.4580e+000 -1.5942e+000 -1.3721e+000 54726 75088,75192,75166
 7.0000e+000 75218 -3.9786e+000  6.8422e-002 -1.1722e+000 54726 75062,75192,75088
 7.0000e+000 75336 -1.3276e+000 -2.6341e+000 -7.8105e-001 54726 75166,75140,75310
 7.0000e+000 75359 -2.3239e+000 -1.4274e+000 -7.9075e-001 54726 75166,75310,75088
 7.0000e+000 75946 -1.6839e-001  1.6950e-002  1.5386e-001 54322 75969,75701,75649
 7.0000e+000 75923 -5.8125e-001 -2.6976e-001  2.8140e-001 54322 75969,75649,75623
 7.0000e+000 75900 -3.3680e-001 -1.8338e-001 -6.3741e-002 54322 76041,75753,75701
 7.0000e+000 75877 -1.8895e-001  6.2622e-001  1.8973e-003 54322 75623,75805,75779
 7.0000e+000 75854 -4.3354e-001 -1.7517e-001 -1.8588e-001 54322 75701,75753,75727
 7.0000e+000 75831 -2.0733e-001 -1.6878e-001 -9.4759e-003 54322 75649,75701,75675
 7.0000e+000 75995 -4.6302e-001 -1.0471e-001  5.0132e-002 54322 76041,75701,75969
 7.0000e+000 76018 -4.3938e-001  1.0340e-001  1.4239e-001 54322 75779,75969,75623
 7.0000e+000 76067 -2.8209e-001  2.6478e-002 -1.0766e-001 54322 75779,75753,76041
 7.0000e+000 76090 -3.5831e-001  1.8070e-001  9.0747e-003 54322 75779,76041,75969
 7.0000e+000 76468 -7.7562e-002  1.5769e-001 -3.2243e-002 53868 76491,76272,76220
 7.0000e+000 76445 -7.1504e-002  1.7539e-001 -4.8010e-002 53868 76491,76220,76324
 7.0000e+000 76422  2.7299e-002  9.8646e-002 -1.0279e-001 53868 76220,76272,76246
 7.0000e+000 76399 -9.8524e-002  4.9776e-001  1.0452e-001 53868 76194,76324,76220
 7.0000e+000 76376 -5.8323e-001  3.0004e-001  1.0102e-002 53868 76194,76350,76324
 7.0000e+000 76517 -7.9128e-002  1.3180e-001 -2.0382e-002 53868 76298,76272,76491
 7.0000e+000 76540 -6.8836e-002  1.5489e-001 -3.6488e-002 53868 76298,76491,76324
 7.0000e+000 76690 -5.5106e-002  2.1919e-001 -3.9879e-002 53356 76589,76641,76615
 7.0000e+000 76667  5.2050e-002  6.8851e-001  8.7095e-003 53356 76563,76641,76589
 7.0000e+000 76938 -5.0748e-001  2.2427e-001 -6.7937e-001 53009 77105,76961,76765
 7.0000e+000 76915  3.2662e-002  4.6090e-001 -3.7193e-001 53009 76961,76713,76843
 7.0000e+000 76892 -3.1553e-001  3.6616e-001 -1.7322e-001 53009 77033,76817,76791
 7.0000e+000 76869 -1.1111e+000 -1.7929e-001 -1.2708e+000 53009 77105,76765,76739
 7.0000e+000 76987 -1.7507e-001  9.3363e-001 -4.8912e-001 53009 76791,76765,76961
 7.0000e+000 77010 -3.6493e-001  3.9846e-001 -3.9928e-001 53009 77033,76791,76961
 7.0000e+000 77059  2.7056e-002  5.1429e-001 -1.8674e-001 53009 76843,76817,77033
 7.0000e+000 77082 -4.1201e-002  5.3575e-001 -3.9504e-001 53009 76843,77033,76961
 7.0000e+000 77131  1.4496e-001  6.3011e-001 -4.2298e-001 53009 76713,76961,77105
 7.0000e+000 77154  4.5787e-002  5.8529e-001 -9.1891e-001 53009 76713,77105,76739
 7.0000e+000 77355  1.5484e+000 -1.9956e+000  8.7563e-001 52390 77378,77257,77231
 7.0000e+000 77332  1.1117e+000 -1.4710e+000  5.8116e-001 52390 77378,77231,77179
 7.0000e+000 77309  1.3383e+000 -1.7446e+000  6.1292e-002 52390 77179,77231,77205
 7.0000e+000 77404  1.9840e+000 -1.6604e+000  7.2272e-001 52390 77283,77257,77378
 7.0000e+000 77427  1.5400e+000 -1.0972e+000  4.2137e-001 52390 77283,77378,77179
 7.0000e+000 77677 -1.9519e+000  2.2234e+000 -1.8740e+000 51986 77700,77504,77478
 7.0000e+000 77654  1.4648e-001  3.1620e+000 -2.1828e+000 51986 77700,77478,77452
 7.0000e+000 77631 -7.9864e-002  1.4279e+000 -5.7734e-001 51986 77772,77556,77530
 7.0000e+000 77608 -1.8236e-001  1.3531e+000 -7.4909e-001 51986 77452,77582,77556
 7.0000e+000 77726 -4.8668e-001  2.2824e+000 -7.7036e-001 51986 77530,77504,77700
 7.0000e+000 77749  1.0795e-001  1.7833e+000 -8.7645e-001 51986 77772,77530,77700
 7.0000e+000 77798  3.2905e-001  1.6835e+000 -9.2108e-001 51986 77452,77556,77772
 7.0000e+000 77821  5.4382e-001  1.7803e+000 -1.1771e+000 51986 77452,77772,77700
 7.0000e+000 78282  8.7547e-001  8.5037e-001 -1.4201e-001 51738 78008,78138,78060
 7.0000e+000 78259  2.0587e+000  2.0192e+000 -2.0095e+000 51738 78008,78164,78138
 7.0000e+000 78236  3.1733e-001  6.2570e-003 -1.1397e-001 51738 78086,78138,78112
 7.0000e+000 78213  1.3725e-001  2.3074e-001 -4.0701e-001 51738 78060,78138,78086
 7.0000e+000 78190  1.2016e+000  4.1551e-001 -3.4712e-001 51738 78008,78060,78034
 7.0000e+000 78432 -1.7255e-001 -1.3779e-001  4.1061e-003 51148 78305,78357,78331
 7.0000e+000 78409 -1.4920e-001  6.5303e-002 -2.9816e-002 51148 78305,78383,78357
 7.0000e+000 78891 -2.9612e-001 -2.4065e-001  1.3077e-001 50808 78914,78695,78669
 7.0000e+000 78868 -2.2777e-001 -1.1151e-001  5.5837e-002 50808 78914,78669,78643
 7.0000e+000 78845 -6.1774e-002 -2.0133e-002  2.9675e-002 50808 78643,78773,78747
 7.0000e+000 78822 -5.8588e-002 -6.5494e-002  3.2535e-002 50808 78617,78773,78643
 7.0000e+000 78799 -1.3943e-001  8.1813e-002  1.7344e-001 50808 78695,78747,78721
 7.0000e+000 78940 -1.4918e-001 -1.1881e-001  6.4402e-002 50808 78747,78695,78914
 7.0000e+000 78963 -2.1427e-001 -8.1319e-002  1.5168e-002 50808 78747,78914,78643
 7.0000e+000 79260 -1.9157e-001 -2.6050e-001 -1.8687e-001 50468 79283,79090,79012
 7.0000e+000 79237 -1.8891e-001 -1.6577e-001 -1.7374e-001 50468 79283,79012,78986
 7.0000e+000 79214 -3.7166e-001 -3.3763e-001 -1.8787e-001 50468 79012,79090,79038
 7.0000e+000 79191 -1.1952e-001 -2.5598e-002 -2.2412e-001 50468 78986,79142,79116
 7.0000e+000 79168 -2.3643e-001 -3.4619e-001 -2.5168e-001 50468 79038,79090,79064
 7.0000e+000 79309 -2.3520e-001 -1.9509e-001 -2.1398e-001 50468 79116,79090,79283
 7.0000e+000 79332 -2.1559e-001 -7.8287e-002 -1.9236e-001 50468 79116,79283,78986
 7.0000e+000 79889  1.4666e+000  1.9259e+000 -8.0359e-001 50064 79569,79725,79699
 7.0000e+000 79866  2.8672e-001  1.2811e+000 -1.5901e+000 50064 79543,79725,79569
 7.0000e+000 79843  1.4631e+000  9.5211e-001 -7.4919e-001 50064 79621,79699,79673
 7.0000e+000 79820  1.5987e+000  1.2540e+000 -9.3628e-001 50064 79595,79699,79621
 7.0000e+000 79797  9.6511e-001  1.5044e+000 -1.1691e+000 50064 79569,79699,79595
 7.0000e+000 79774  1.1655e+000  2.8630e+000 -3.7270e-001 50064 79517,79725,79543
 7.0000e+000 79751  6.8977e-001  9.8790e-001 -8.2603e-001 50064 79621,79673,79647
 7.0000e+000 80169  1.5339e+000  2.0891e+000 -9.5271e-001 49724 80019,80097,80071
 7.0000e+000 80146  1.2607e+000  3.2385e+000 -1.2429e+000 49724 79993,80097,80019
 7.0000e+000 80123  9.6436e-001  1.9194e+000 -1.1264e+000 49724 80019,80071,80045
 7.0000e+000 80626 -1.0656e+000 -4.4581e-001 -2.4646e-001 49277 80352,80482,80378
 7.0000e+000 80603 -7.0053e-001 -3.4377e-001  6.9473e-002 49277 80352,80508,80482
 7.0000e+000 80580 -8.3687e-001 -3.3390e-001 -1.7546e-001 49277 80378,80482,80456
 7.0000e+000 80557 -1.0498e+000 -8.0386e-001 -1.7699e-001 49277 80378,80430,80404
 7.0000e+000 80534 -1.4054e+000 -5.6442e-001 -1.2831e-001 49277 80378,80456,80430
 7.0000e+000 81230 -2.0455e+000 -1.0458e+000  7.9844e-001 48716 81253,80835,80809
 7.0000e+000 81207 -1.3089e+000 -5.1792e-003 -4.0922e-001 48716 81397,81253,80809
 7.0000e+000 81184 -1.0636e+000  1.1752e+000 -4.7282e-001 48716 81325,80913,80887
 7.0000e+000 81161 -8.4433e-001 -8.6830e-001 -3.4421e-001 48716 81397,80809,81017
 7.0000e+000 81138 -1.6506e+000  7.1442e-001 -8.2091e-001 48716 81469,80965,80913
 7.0000e+000 81115 -8.1248e-001  1.7893e-001  1.0532e+000 48716 80835,80887,80861
 7.0000e+000 81092  4.3733e-001 -1.6372e+000  1.7422e+000 48716 80809,81043,81017
 7.0000e+000 81069 -1.7828e+000 -8.1102e-001 -1.8592e+000 48716 80913,80965,80939
 7.0000e+000 81279  5.8098e-001  4.8511e-001  1.2656e-001 48716 80887,80835,81253
 7.0000e+000 81302 -1.6267e+000  8.7372e-001 -6.6347e-001 48716 81325,80887,81253
 7.0000e+000 81351 -1.2693e+000  8.2406e-001 -6.6711e-001 48716 81469,80913,81325
 7.0000e+000 81374 -1.4801e+000  1.4269e+000 -6.3117e-001 48716 80991,81325,81253
 7.0000e+000 81423 -1.1936e+000  1.1469e+000  1.2505e-002 48716 80991,81253,81397
 7.0000e+000 81446 -8.8273e-001  7.8048e-002  9.4706e-002 48716 80991,81397,81017
 7.0000e+000 81495 -2.3373e+000  9.9902e-001 -9.4302e-001 48716 80991,80965,81469
 7.0000e+000 81518 -2.0444e+000  1.0231e+000 -8.0797e-001 48716 80991,81469,81325
 7.0000e+000 81717 -1.0067e-001 -7.3735e-003 -7.0759e-002 48262 81740,81567,81541
 7.0000e+000 81694  5.8834e-003  5.3689e-002 -9.7602e-002 48262 81740,81541,81645
 7.0000e+000 81671 -1.0838e-001 -2.2638e-001 -6.2066e-002 48262 81567,81619,81593
 7.0000e+000 81766 -4.0593e-002 -5.9918e-002  3.5616e-003 48262 81619,81567,81740
 7.0000e+000 81789  5.7277e-002 -1.0010e-002 -1.9139e-002 48262 81619,81740,81645
 7.0000e+000 81939  1.5475e+000  2.7421e+000 -5.0462e-001 47957 82034,81962,81864
 7.0000e+000 81916  4.4573e-001  2.0230e+000 -7.1323e-001 47957 82166,81962,81838
 7.0000e+000 81988  1.9028e+000  2.4134e+000  3.5693e-001 47957 82294,81962,81890
 7.0000e+000 82011  1.4417e+000  2.1469e+000  2.5675e-002 47957 81890,81962,81812
 7.0000e+000 82060  1.5180e+000  2.9939e+000 -2.9438e-001 47957 81838,81962,82034
 7.0000e+000 82192  2.3562e-003  1.9462e+000  4.5876e-001 47957 81812,81962,82166
 7.0000e+000 82320  2.5917e+000  2.3066e+000  4.3868e-002 47957 81864,81962,82294
 7.0000e+000 82549 -2.1772e-001 -1.6606e-001 -1.3291e-001 47617 82448,82500,82474
 7.0000e+000 82526  2.6949e-002  3.4654e-001 -3.8146e-002 47617 82422,82500,82448
 7.0000e+000 82902  5.4741e-001  3.7388e-001 -2.6464e-001 47255 82729,82807,82755
 7.0000e+000 82879  1.2311e+000  1.1919e+000  5.8352e-002 47255 82703,82807,82729
 7.0000e+000 82856  3.7558e-001  2.8261e-001 -1.0215e-001 47255 82755,82807,82781
 7.0000e+000 82833  1.3350e+000  1.2364e+000  6.8805e-002 47255 82677,82807,82703
 7.0000e+000 83182  1.6046e-001 -8.2633e-001  3.7910e-001 46680 83032,83084,83058
 7.0000e+000 83159  5.6248e-001 -4.8454e-001  5.9944e-001 46680 83205,83084,83032
 7.0000e+000 83136 -4.3704e-001  1.6600e-002  4.7815e-001 46680 83006,83110,83084
 7.0000e+000 83231  1.0097e+000 -4.9025e-002  8.3156e-001 46680 83006,83084,83205
 7.0000e+000 83737 -1.8062e+000 -5.5799e-001  3.3234e-001 46290 83832,83760,83492
 7.0000e+000 83714 -1.8128e+000 -2.7181e-001  2.7762e-001 46290 83760,83440,83414
 7.0000e+000 83691 -1.3968e+000 -8.1425e-001  2.5763e-001 46290 83832,83492,83466
 7.0000e+000 83668 -1.4836e+000 -1.3912e+000  4.8452e-001 46290 83492,83570,83544
 7.0000e+000 83645 -2.3551e+000 -7.7172e-001  6.5388e-002 46290 83414,83596,83570
 7.0000e+000 83622 -1.3421e+000 -1.0018e+000  7.4455e-001 46290 83492,83544,83518
 7.0000e+000 83786 -1.7180e+000 -5.1167e-001  2.5465e-001 46290 83570,83492,83760
 7.0000e+000 83809 -1.8073e+000 -6.7652e-001  8.0594e-002 46290 83570,83760,83414
 7.0000e+000 83858 -1.2854e+000 -2.3565e-001  4.8435e-001 46290 83440,83760,83832
 7.0000e+000 83881 -5.8507e-001 -4.6367e-001  3.3488e-001 46290 83440,83832,83466
 7.0000e+000 84161  1.1117e-002 -5.4271e-001  1.1769e-002 45829 84011,84063,84037
 7.0000e+000 84138 -2.4087e-001 -5.2264e-001 -8.0641e-002 45829 84011,84089,84063
 7.0000e+000 84115 -3.0158e-002 -4.2793e-001  6.5400e-003 45829 83985,84089,84011
 7.0000e+000 84311  1.3791e+000  2.1040e+000  2.6578e-001 45631 84184,84236,84210
 7.0000e+000 84288  7.0474e-001 -6.2782e-002 -4.2778e-002 45631 84184,84262,84236
 7.0000e+000 84657 -2.0484e-001 -2.8741e-001 -7.1618e-002 45155 84680,84490,84412
 7.0000e+000 84634 -2.5243e-001 -1.9351e-001 -3.5914e-002 45155 84680,84412,84360
 7.0000e+000 84611 -3.3999e-001 -3.8451e-001  4.3503e-002 45155 84412,84490,84438
 7.0000e+000 84588 -4.1237e-002 -6.3293e-003 -6.7483e-002 45155 84334,84516,84360
 7.0000e+000 84565 -2.0872e-001 -6.5310e-002 -3.4948e-001 45155 84360,84412,84386
 7.0000e+000 84542 -3.0076e-001 -4.2423e-001  1.5593e-002 45155 84438,84490,84464
 7.0000e+000 84706 -2.0966e-001 -1.9721e-001 -9.0972e-002 45155 84516,84490,84680
 7.0000e+000 84729 -2.4880e-001 -9.5029e-002 -6.9195e-002 45155 84516,84680,84360
 7.0000e+000 85077 -7.8037e-002 -4.5514e-001 -2.3911e-001 44508 85100,84754,84910
 7.0000e+000 85054 -1.6706e-001  2.4040e-002 -8.9378e-002 44508 84754,84936,84910
 7.0000e+000 85031 -4.8078e-001 -8.2190e-001  8.5427e-002 44508 85100,84910,84884
 7.0000e+000 85008 -3.6803e-001 -3.5420e-002 -4.3718e-001 44508 84780,84884,84832
 7.0000e+000 84985 -4.2107e-001 -1.5567e-001 -4.2838e-001 44508 84780,84832,84806
 7.0000e+000 84962 -1.1268e+000 -8.2634e-001 -5.8718e-002 44508 84832,84884,84858
 7.0000e+000 85126 -4.0736e-001  8.0339e-002 -5.3452e-001 44508 84780,84754,85100
 7.0000e+000 85149 -7.1284e-001 -2.8059e-001 -2.3903e-001 44508 84780,85100,84884
 7.0000e+000 85482  8.3530e-002 -1.1763e-001 -1.1051e-001 44104 85335,85387,85361
 7.0000e+000 85459  3.0314e-002 -3.9346e-001 -5.3916e-002 44104 85309,85387,85335
 7.0000e+000 85436 -2.3223e-002 -2.7950e-001 -1.5132e-001 44104 85257,85387,85309
 7.0000e+000 85413 -1.1791e-001 -1.6173e-001 -2.2244e-002 44104 85257,85309,85283
 7.0000e+000 85811 -2.8154e-001 -3.3977e-001 -1.5880e-001 43600 85586,85664,85612
 7.0000e+000 85788 -2.3683e-001 -7.1285e-002 -1.1527e-001 43600 85586,85690,85664
 7.0000e+000 85765 -1.2738e-001  1.3732e-001 -2.1478e-001 43600 85586,85716,85690
 7.0000e+000 85742 -3.1516e-001 -2.8003e-001 -2.8116e-001 43600 85612,85664,85638
 7.0000e+000 86010  2.2694e-001  6.5964e-002 -2.1806e-001 43224 85886,85938,85912
 7.0000e+000 85987  2.4377e-001  4.3117e-002 -1.8591e-001 43224 85834,85938,85886
 7.0000e+000 85964  1.9908e-001 -7.1486e-001 -1.4019e-001 43224 85834,85886,85860
 7.0000e+000 86420  2.5540e+000  1.0380e+000 -1.7983e-002 42820 86195,86299,86221
 7.0000e+000 86397  2.4332e+000  2.1646e+000 -8.3916e-001 42820 86195,86325,86299
 7.0000e+000 86374  1.6510e+000  1.2746e+000  4.0058e-001 42820 86221,86299,86273
 7.0000e+000 86351  1.2042e+000  9.2262e-001 -6.1387e-002 42820 86221,86273,86247
 7.0000e+000 86749  4.8324e-001 -5.0663e-001 -1.4879e-001 42223 86550,86602,86576
 7.0000e+000 86726  2.1501e+000 -1.1480e+000  1.4877e-001 42223 86550,86628,86602
 7.0000e+000 86703  5.6759e-001 -1.6085e+000  9.2093e-001 42223 86524,86628,86550
 7.0000e+000 86680  1.5504e+000  5.1605e-001  6.3031e-001 42223 86524,86654,86628
 7.0000e+000 87078  7.3303e-001 -2.5410e-001  2.6588e-001 41883 87173,87101,86905
 7.0000e+000 87055  5.3050e-001  8.1462e-001  1.0437e-001 41883 87101,86879,86853
 7.0000e+000 87032  1.3472e-001  1.4363e-001 -7.0215e-002 41883 86853,86983,86931
 7.0000e+000 87009  1.7271e-001  4.1332e-001 -1.9980e-001 41883 86931,86983,86957
 7.0000e+000 87127  1.1313e+000  3.7796e-001 -1.9558e-001 41883 86931,86905,87101
 7.0000e+000 87150  1.4840e-001 -6.1349e-002 -7.6567e-002 41883 86931,87101,86853
 7.0000e+000 87199  2.5524e-001  1.1952e-001  3.5636e-001 41883 86879,87101,87173
 7.0000e+000 87558  1.2564e-002  7.4791e-001 -2.4035e-001 41471 87382,87460,87408
 7.0000e+000 87535 -1.2555e+000  6.8168e-001 -1.6889e-001 41471 87382,87486,87460
 7.0000e+000 87512  2.1200e-001  1.3563e-001 -1.3071e-001 41471 87408,87460,87434
 7.0000e+000 87806  1.4032e-001  1.1016e-001 -4.6229e-001 41017 87829,87607,87581
 7.0000e+000 87783  1.2492e-001 -2.0736e-001 -1.0590e-001 41017 87829,87581,87685
 7.0000e+000 87760  4.6022e-001 -2.5809e-002 -2.1754e-001 41017 87581,87711,87685
 7.0000e+000 87737  2.7752e-001 -7.7294e-001 -2.7342e-002 41017 87633,87685,87659
 7.0000e+000 87855 -8.0457e-002 -7.2501e-002 -2.4641e-001 41017 87633,87607,87829
 7.0000e+000 87878 -1.7497e-001 -4.3157e-001  1.1998e-001 41017 87633,87829,87685
 7.0000e+000 88258  5.6761e-002  8.5225e-002 -1.2789e-002 40613 88281,88036,88010
 7.0000e+000 88235  1.9446e-002  3.5553e-002  3.4729e-003 40613 88281,88010,88088
 7.0000e+000 88212 -1.8586e-002  5.8610e-002 -2.0543e-002 40613 87984,88088,88010
 7.0000e+000 88189 -3.6338e-002  1.4247e-002 -9.7511e-003 40613 87984,88114,88088
 7.0000e+000 88166 -6.8990e-003  3.1246e-002 -1.7984e-002 40613 87984,88140,88114
 7.0000e+000 88307  1.7041e-002  1.4041e-001  3.8988e-002 40613 88062,88036,88281
 7.0000e+000 88330 -5.8520e-002  3.0736e-002  7.2431e-002 40613 88062,88281,88088
 7.0000e+000 88649 -2.7407e-002  8.4893e-002 -5.6168e-003 40095 88375,88505,88401
 7.0000e+000 88626  7.0694e-003  3.1889e-002  2.2516e-002 40095 88375,88531,88505
 7.0000e+000 88603 -4.8132e-002  7.3966e-002 -1.0025e-002 40095 88401,88505,88479
 7.0000e+000 88580 -1.5397e-001  2.5872e-001  1.2645e-001 40095 88427,88479,88453
 7.0000e+000 88557 -5.1711e-002  6.7849e-002 -8.3342e-003 40095 88401,88479,88427
 7.0000e+000 89078  7.5937e-001 -1.3338e+000 -6.5934e-001 39897 89101,88833,88807
 7.0000e+000 89055  8.5361e-002 -1.6264e+000 -7.6261e-001 39897 89101,88807,88911
 7.0000e+000 89032 -7.4565e-001 -1.2656e+000 -1.3632e+000 39897 88781,88911,88807
 7.0000e+000 89009 -1.3101e+000 -1.6942e+000 -1.6603e+000 39897 88781,88937,88911
 7.0000e+000 88986  2.7648e+000  3.0822e-001 -4.9261e-001 39897 88833,88885,88859
 7.0000e+000 88963 -1.9029e+000 -1.4934e+000 -2.0173e+000 39897 88755,88937,88781
 7.0000e+000 89127  1.3701e+000 -1.7571e+000 -1.2761e+000 39897 88885,88833,89101
 7.0000e+000 89150  3.1971e-001 -2.2712e+000 -1.4895e+000 39897 88885,89101,88911
 7.0000e+000 89300 -1.6339e+000 -1.5942e+000  6.1813e-001 39607 89453,89323,89199
 7.0000e+000 89277 -2.4201e+000 -1.0093e+000  4.8166e-001 39607 89525,89453,89199
 7.0000e+000 89349 -1.1701e+000 -1.4672e+000 -2.0542e-002 39607 89225,89199,89323
 7.0000e+000 89479 -1.2279e+000 -6.8775e-001  4.1918e-001 39607 89251,89323,89453
 7.0000e+000 89502 -1.2756e+000 -1.2347e-001  1.0855e+000 39607 89251,89453,89173
 7.0000e+000 89551 -1.0520e+000 -6.7312e-001  6.5169e-001 39607 89173,89453,89525
 7.0000e+000 90264 -1.1125e+000 -1.7802e+000 -4.0975e-001 39039 89996,90074,90048
 7.0000e+000 90241 -6.6220e-001 -8.5808e-001 -2.5137e-001 39039 89918,90074,89996
 7.0000e+000 90218 -1.0746e+000 -1.0449e+000 -3.4716e-002 39039 89918,89996,89944
 7.0000e+000 90195 -1.3625e+000 -9.7181e-001  6.6566e-003 39039 89892,90074,89918
 7.0000e+000 90172 -1.9417e-001 -1.6976e+000 -4.5421e-001 39039 89996,90048,90022
 7.0000e+000 90149 -1.9619e+000  7.1509e-001 -1.0504e-001 39039 89892,90100,90074
 7.0000e+000 90126 -1.2342e+000 -1.1081e+000 -1.3134e-001 39039 89944,89996,89970
 7.0000e+000 90770 -4.0731e-001 -4.7152e-001 -7.8108e-002 38635 90473,90603,90577
 7.0000e+000 90747 -2.6637e-001 -4.4626e-001 -9.2385e-003 38635 90447,90603,90473
 7.0000e+000 90724 -3.9184e-001 -6.3893e-001 -7.8480e-002 38635 90499,90577,90551
 7.0000e+000 90701 -3.8340e-001 -6.3941e-001 -7.2116e-002 38635 90473,90577,90499
 7.0000e+000 90678 -2.9879e-001 -7.8116e-001 -9.1738e-002 38635 90499,90551,90525
 7.0000e+000 90655 -3.8126e-001 -3.4752e-001  2.7097e-002 38635 90447,90629,90603
 7.0000e+000 90871 -1.2583e-001 -3.0571e-001 -1.5063e-001 38231 90793,90845,90819
 7.0000e+000 91458  2.2600e-001 -2.1547e-001 -1.0313e-001 37534 91161,91317,91291
 7.0000e+000 91435  6.2185e-002  7.9936e-003  5.8076e-002 37534 91135,91317,91161
 7.0000e+000 91412 -1.8877e-001 -9.6730e-001 -4.9855e-001 37534 91187,91291,91239
 7.0000e+000 91389  4.7133e-002 -9.9899e-001  4.6851e-002 37534 91161,91291,91187
 7.0000e+000 91366  8.5136e-002 -5.7237e-001 -3.4887e-001 37534 91239,91291,91265
 7.0000e+000 91343  7.4808e-001 -9.5688e-001 -9.0098e-001 37534 91187,91239,91213
 7.0000e+000 91915 -6.5051e-001 -6.6101e-001  1.6226e-002 37080 91938,91745,91667
 7.0000e+000 91892 -6.3581e-001 -5.6722e-001  1.4484e-001 37080 91938,91667,91797
 7.0000e+000 91869 -8.7306e-001  1.8035e-001 -1.5572e-001 37080 91641,91797,91667
 7.0000e+000 91846 -8.0247e-001 -7.2410e-001  8.8564e-002 37080 91667,91719,91693
 7.0000e+000 91823 -7.7681e-001 -6.8853e-001  2.9908e-002 37080 91667,91745,91719
 7.0000e+000 91964 -5.5930e-001 -4.4607e-001  1.0629e-002 37080 91771,91745,91938
 7.0000e+000 91987 -6.0887e-001 -4.9669e-001  1.4559e-001 37080 91771,91938,91797
 7.0000e+000 92235 -4.6270e-001 -5.1252e-001 -3.2790e-002 36397 92036,92088,92062
 7.0000e+000 92212 -3.4078e-001 -3.7940e-001 -8.4774e-002 36397 92036,92114,92088
 7.0000e+000 92189 -1.9082e-001 -2.6765e-001 -5.3330e-003 36397 92036,92140,92114
 7.0000e+000 92166 -2.8662e-001 -1.8535e-001  2.4034e-003 36397 92010,92140,92036
 7.0000e+000 92694 -1.9237e-001 -6.8399e-003  3.6053e-002 36057 92446,92498,92472
 7.0000e+000 92671 -9.1818e-002  2.0187e-001  6.7599e-002 36057 92446,92550,92498
 7.0000e+000 92648  1.1573e-001 -1.7149e-002  2.5430e-002 36057 92446,92576,92550
 7.0000e+000 92625 -3.5463e-002 -1.0504e-001  7.0108e-002 36057 92420,92576,92446
 7.0000e+000 92602 -1.2427e-001 -7.4707e-002 -2.3153e-001 36057 92498,92550,92524
 7.0000e+000 93023 -5.0925e-001 -4.2166e-001 -1.1602e-001 35717 92876,92928,92902
 7.0000e+000 93000 -4.5284e-001 -4.5551e-001 -1.2865e-001 35717 92824,92928,92876
 7.0000e+000 92977 -2.2351e-001 -4.3165e-001 -7.5735e-002 35717 92798,92928,92824
 7.0000e+000 92954 -3.7861e-001 -5.3822e-001 -4.9890e-001 35717 92824,92876,92850
 7.0000e+000 93499  1.8298e-001 -6.4186e-001  2.9603e-001 35405 93522,93309,93257
 7.0000e+000 93476  3.6021e-001 -3.9221e-001  2.1856e-001 35405 93666,93522,93257
 7.0000e+000 93453  2.0768e-001 -2.1469e+000  2.9482e-001 35405 93594,93127,93335
 7.0000e+000 93430  5.0230e-002 -3.0995e-001  3.1389e-002 35405 93666,93257,93231
 7.0000e+000 93407 -7.4736e-001 -2.6875e+000 -6.4129e-001 35405 93127,93179,93153
 7.0000e+000 93384 -1.0720e+000  1.5045e-001  4.1082e-001 35405 93179,93231,93205
 7.0000e+000 93361  5.3359e-001  6.3288e-001  1.6063e-001 35405 93257,93309,93283
 7.0000e+000 93548  8.5516e-001 -1.6467e-001  8.1660e-001 35405 93335,93309,93522
 7.0000e+000 93571  3.9467e-001 -1.0951e+000  4.9205e-001 35405 93594,93335,93522
 7.0000e+000 93620  1.8804e-001 -1.0106e+000  1.8107e-001 35405 93179,93127,93594
 7.0000e+000 93643 -3.9225e-002 -5.5418e-001  1.7306e-001 35405 93738,93594,93522
 7.0000e+000 93692  6.3012e-002 -5.6645e-001  9.8647e-002 35405 93738,93522,93666
 7.0000e+000 93715 -1.5049e-001 -5.6863e-001 -8.0141e-002 35405 93179,93666,93231
 7.0000e+000 93764 -8.5517e-002 -6.4575e-001  2.2273e-001 35405 93179,93594,93738
 7.0000e+000 93787 -4.3083e-002 -6.8405e-001  1.5462e-001 35405 93179,93738,93666
 7.0000e+000 94372  5.2819e-001 -1.6603e-002 -3.0782e-002 34951 94395,94127,94075
 7.0000e+000 94349  1.0003e+000 -7.6988e-002  1.2961e-001 34951 94395,94075,94231
 7.0000e+000 94326  1.6787e-002 -4.9829e-001  6.6170e-002 34951 94049,94231,94075
 7.0000e+000 94303 -4.3271e-001 -5.2015e-001  5.8551e-001 34951 94075,94127,94101
 7.0000e+000 94280  1.2564e+000  2.0303e-001  4.2002e-001 34951 94127,94205,94153
 7.0000e+000 94257  1.4460e+000  2.7675e-001  6.3357e-001 34951 94153,94205,94179
 7.0000e+000 94421  9.0795e-001 -1.4467e-001  2.5412e-001 34951 94205,94127,94395
 7.0000e+000 94444  1.7749e+000  4.2071e-002  3.8996e-001 34951 94205,94395,94231
 7.0000e+000 94692 -5.5178e-003  8.2560e-002 -2.3015e-003 34397 94715,94519,94467
 7.0000e+000 94669  4.1671e-003  8.0526e-002 -9.1848e-003 34397 94715,94467,94597
 7.0000e+000 94646  1.5890e-002  5.4219e-002 -4.8896e-003 34397 94545,94597,94571
 7.0000e+000 94623  2.0771e-003  9.8333e-002  2.5876e-003 34397 94467,94519,94493
 7.0000e+000 94741  1.1972e-002  8.7533e-002  4.0046e-003 34397 94545,94519,94715
 7.0000e+000 94764  1.0715e-002  8.0296e-002 -9.0812e-003 34397 94545,94715,94597
 7.0000e+000 94985 -4.1767e-002  1.4224e-001 -2.1539e-002 33985 94835,94913,94887
 7.0000e+000 94962  7.4873e-002  4.4803e-001 -6.1458e-002 33985 94809,94913,94835
 7.0000e+000 94939  5.4188e-002  1.6411e-001 -3.6106e-002 33985 94835,94887,94861
 7.0000e+000 95186 -2.7575e-001 -4.2558e-001 -3.1096e-001 33645 95281,95209,95036
 7.0000e+000 95163  3.0302e-002 -6.4936e-001  4.7933e-002 33645 95209,95010,95088
 7.0000e+000 95140  2.8661e-001 -2.6837e-001 -7.2275e-002 33645 95010,95114,95088
 7.0000e+000 95235 -5.7442e-001 -4.7980e-001 -2.0614e-001 33645 95062,95036,95209
 7.0000e+000 95258 -4.0388e-001 -8.1768e-001  2.5735e-001 33645 95413,95209,95088
 7.0000e+000 95307 -1.2871e-001 -3.0140e-001 -3.6405e-001 33645 95010,95209,95281
 7.0000e+000 95439 -3.5724e-001 -6.7009e-001  2.1085e-001 33645 95062,95209,95413
 7.0000e+000 95766 -4.4916e-001  2.4847e-001 -6.0361e-001 33141 95789,95593,95567
 7.0000e+000 95743 -1.1059e-001 -3.9842e-002 -2.1304e-001 33141 95861,95789,95567
 7.0000e+000 95720 -1.4807e-001  4.2683e-002 -5.7451e-002 33141 95861,95567,95671
 7.0000e+000 95697 -1.4706e-001 -2.9216e-002 -8.0614e-002 33141 95541,95671,95567
 7.0000e+000 95815 -1.5263e-001  9.8669e-001 -5.3654e-001 33141 95619,95593,95789
 7.0000e+000 95838 -3.2440e-002  3.4151e-001 -2.2601e-001 33141 95619,95789,95645
 7.0000e+000 95887  1.4669e-002  2.3692e-001 -2.4078e-001 33141 95645,95789,95861
 7.0000e+000 95910 -3.9041e-002  3.1214e-001 -6.4758e-002 33141 95645,95861,95671
 7.0000e+000 96060 -5.6098e-001 -2.5684e-001 -3.3031e-001 32487 95959,96011,95985
 7.0000e+000 96037 -1.5887e-001 -2.0718e-001 -7.9163e-002 32487 95933,96011,95959
 7.0000e+000 96570 -2.1822e-001 -8.8799e-002  8.9296e-002 32033 96665,96593,96377
 7.0000e+000 96547 -3.7955e-001  1.9625e-001 -2.8569e-001 32033 96737,96593,96325
 7.0000e+000 96524 -2.5373e-001 -1.8011e-001  2.4336e-002 32033 96665,96377,96351
 7.0000e+000 96501 -3.7916e-001  3.7420e-001 -2.3118e-001 32033 96737,96325,96299
 7.0000e+000 96478 -3.2721e-001  2.7793e-001 -2.2886e-001 32033 96247,96429,96299
 7.0000e+000 96455 -7.0748e-001 -7.6880e-001 -2.0660e-001 32033 96247,96299,96273
 7.0000e+000 96619  6.9127e-002  8.1030e-002  3.5754e-002 32033 96809,96593,96403
 7.0000e+000 96642  2.9465e-001  6.8227e-001 -6.1878e-001 32033 96403,96593,96429
 7.0000e+000 96691 -5.9675e-002 -3.0817e-001 -2.0356e-002 32033 96325,96593,96665
 7.0000e+000 96714 -1.9531e-001 -4.7659e-001 -1.0940e-001 32033 96325,96665,96351
 7.0000e+000 96763 -4.1772e-001  9.4852e-002 -3.6629e-001 32033 96429,96593,96737
 7.0000e+000 96786 -4.1556e-001  2.1801e-001 -2.9224e-001 32033 96429,96737,96299
 7.0000e+000 96835  2.1259e-002  4.2775e-002  1.8762e-002 32033 96377,96593,96809
 7.0000e+000 97064  4.0816e-003  2.6334e-002  2.3368e-002 31671 97087,96989,96963
 7.0000e+000 97041 -3.6019e-002  2.0905e-002 -8.0707e-003 31671 97087,96963,96937
 7.0000e+000 97113 -5.6412e-003  4.5786e-002 -2.0777e-002 31671 97159,97087,97015
 7.0000e+000 97136 -4.0415e-002  2.4682e-002 -2.9616e-002 31671 97015,97087,96937
 7.0000e+000 97185 -3.7598e-002 -4.5320e-002  1.1615e-003 31671 96989,97087,97159
 7.0000e+000 97563 -3.9018e-002  5.5997e-002 -1.1957e-002 31117 97586,97367,97341
 7.0000e+000 97540 -3.6064e-003  4.2216e-002 -3.1420e-002 31117 97658,97586,97341
 7.0000e+000 97517  3.5102e-002  1.9231e-002 -1.5785e-002 31117 97658,97341,97315
 7.0000e+000 97494 -5.1653e-002  2.0079e-003 -5.8247e-003 31117 97289,97445,97315
 7.0000e+000 97471 -3.0173e-002 -7.4672e-003  1.0644e-002 31117 97367,97419,97393
 7.0000e+000 97612 -4.1998e-002 -4.8374e-003 -3.3440e-003 31117 97419,97367,97586
 7.0000e+000 97635 -7.0119e-002  2.0762e-002 -4.9641e-002 31117 97419,97586,97445
 7.0000e+000 97684 -6.5346e-002  2.8760e-002 -2.4589e-002 31117 97445,97586,97658
 7.0000e+000 97707 -2.1600e-002  9.4668e-003 -8.6935e-003 31117 97445,97658,97315
 7.0000e+000 98215 -2.0891e-001  4.6703e-002 -2.8388e-001 30563 98238,97996,97944
 7.0000e+000 98192 -3.2544e-001  1.1973e-001 -2.6938e-001 30563 98310,98238,97944
 7.0000e+000 98169 -4.4653e-001 -2.1313e-001 -2.7601e-001 30563 98310,97944,97918
 7.0000e+000 98146 -1.8157e-001  2.5623e-002  4.5084e-002 30563 97892,98074,97918
 7.0000e+000 98123 -1.2098e-001  4.5096e-001 -2.9350e-001 30563 97996,98048,98022
 7.0000e+000 98100 -2.7464e-001  1.7702e-001 -5.1783e-001 30563 97944,97996,97970
 7.0000e+000 98264 -2.0178e-001  1.3041e-001 -2.8083e-001 30563 98048,97996,98238
 7.0000e+000 98287 -1.6781e-001  4.3627e-001 -1.1771e-002 30563 98048,98238,98074
 7.0000e+000 98336 -3.5521e-001 -5.1367e-002 -4.0568e-002 30563 98074,98238,98310
 7.0000e+000 98359 -3.6143e-001 -1.4854e-001 -2.6357e-002 30563 98074,98310,97918
 7.0000e+000 98607 -7.6621e-001  2.4061e-001 -7.7215e-003 30073 98630,98460,98408
 7.0000e+000 98584 -1.1249e+000  2.1062e-001 -6.5426e-002 30073 98630,98408,98382
 7.0000e+000 98561 -3.2755e-001  3.9859e-001 -2.0491e-001 30073 98382,98512,98486
 7.0000e+000 98538 -5.6029e-001  1.4683e-001  1.6465e-001 30073 98408,98460,98434
 7.0000e+000 98656 -5.8221e-001  1.2112e-001 -7.8877e-002 30073 98486,98460,98630
 7.0000e+000 98679 -8.2253e-001  1.8469e-001 -1.3168e-001 30073 98486,98630,98382
 7.0000e+000 99157  2.8455e-001 -2.0468e-001  2.2295e-001 29669 99180,98837,98811
 7.0000e+000 99134  3.4342e-001 -3.9918e-002  2.2306e-001 29669 99324,99180,98811
 7.0000e+000 99111  5.4839e-001  5.2407e-001 -3.2472e-001 29669 99252,98863,98837
 7.0000e+000 99088  2.3735e-001 -3.6029e-001  3.2497e-001 29669 99324,98811,98993
 7.0000e+000 99065 -7.4384e-001  8.3791e-001  1.6148e-001 29669 98863,98941,98915
 7.0000e+000 99042 -1.1066e-001  7.3644e-001  3.4286e-001 29669 98863,98915,98889
 7.0000e+000 99019 -1.3817e-002 -4.0283e-001  6.7318e-001 29669 98785,98993,98811
 7.0000e+000 99206  3.6681e-001 -1.5128e-001 -8.5139e-002 29669 99252,98837,99180
 7.0000e+000 99229 -5.3133e-002  2.8182e-001  1.3058e-001 29669 98941,99180,98967
 7.0000e+000 99278  1.3546e-001  1.0453e+000 -2.4121e-001 29669 98941,98863,99252
 7.0000e+000 99301  2.3570e-001  7.3593e-001  7.1101e-003 29669 98941,99252,99180
 7.0000e+000 99350  1.8752e-001  3.5966e-001  1.6716e-001 29669 98967,99180,99324
 7.0000e+000 99373  1.8013e-001  1.1739e-001  2.1726e-001 29669 98967,99324,98993
 7.0000e+000 99958  3.7500e-001  7.3055e-001  1.7701e-001 29051 99981,99765,99739
 7.0000e+000 99935 -5.4979e-002  7.6547e-002 -8.7303e-003 29051 99981,99739,99661
 7.0000e+000 99912  4.9880e-001 -4.5669e-001 -3.5717e-001 29051 99765,99817,99791
 7.0000e+000 99889 -9.4120e-001 -5.0811e-001  5.8120e-001 29051 99635,99817,99661
 7.0000e+000 99866 -1.1250e+000 -9.4294e-003  7.6853e-001 29051 99661,99739,99687
 7.0000e+000 99843 -1.3673e+000  3.4017e-001  3.9801e-001 29051 99687,99739,99713
 7.0000e+000 100007  6.1429e-001  9.4755e-002  2.3978e-001 29051 99817,99765,99981
 7.0000e+000 100030  4.2645e-001 -2.0906e-001  1.5607e-001 29051 99817,99981,99661
 7.0000e+000 100278  9.6622e-001  6.8038e-001  8.2158e-002 28525 100445,100301,100131
 7.0000e+000 100255  3.7121e-001  5.3472e-001  8.8328e-003 28525 100373,100301,100079
 7.0000e+000 100232  3.4859e-001  8.6944e-002  7.6966e-002 28525 100373,100079,100053
 7.0000e+000 100209  7.7188e-001  9.1857e-001 -1.3793e-001 28525 100445,100131,100105
 7.0000e+000 100327  1.8046e+000  3.4749e-001  2.3078e-002 28525 100517,100301,100157
 7.0000e+000 100350  6.4892e-001  4.0274e-001 -3.3909e-001 28525 100157,100301,100183
 7.0000e+000 100399  3.3197e-001  7.0645e-002  2.3623e-001 28525 100183,100301,100373
 7.0000e+000 100422  4.1261e-001 -2.4799e-001  2.9862e-001 28525 100183,100373,100053
 7.0000e+000 100471  7.0575e-001  4.0974e-001 -1.2223e-001 28525 100079,100301,100445
 7.0000e+000 100494  2.4288e-001  3.9954e-001 -3.9210e-001 28525 100079,100445,100105
 7.0000e+000 100543  1.4058e+000  2.7223e-001 -7.9977e-002 28525 100131,100301,100517
 7.0000e+000 101209 -1.4870e+000  4.1390e-001  4.8126e-002 28185 100938,101016,100990
 7.0000e+000 101186 -1.6201e+000  3.5526e-002 -1.7717e-001 28185 100912,101016,100938
 7.0000e+000 101163 -4.9654e-001  3.9577e-001 -5.4678e-002 28185 100912,101068,101016
 7.0000e+000 101140 -2.0420e+000 -4.4250e-001 -4.7036e-001 28185 100886,101068,100912
 7.0000e+000 101117 -5.6008e-001  1.5798e-001 -5.6169e-002 28185 101016,101068,101042
 7.0000e+000 101094 -4.0033e+000 -4.3622e-001  1.0568e-001 28185 100938,100990,100964
 7.0000e+000 101408  1.4764e-001  8.0893e-002 -2.6100e-001 27781 101503,101431,101310
 7.0000e+000 101385 -2.0320e-001  5.7795e-001 -5.2468e-001 27781 101431,101258,101232
 7.0000e+000 101362  2.9992e-001  1.8739e-002 -3.2895e-001 27781 101503,101310,101284
 7.0000e+000 101457  7.9516e-001  4.6961e-001 -4.3344e-001 27781 101336,101310,101431
 7.0000e+000 101480  2.5779e-001  8.5806e-001 -7.6376e-001 27781 101575,101431,101232
 7.0000e+000 101529  3.7798e-001  2.0939e-001 -4.7880e-001 27781 101258,101431,101503
 7.0000e+000 101552  1.9531e-001 -2.6375e-001 -2.9925e-001 27781 101705,101503,101284
 7.0000e+000 101601  3.2328e-001  8.9155e-001 -8.1357e-001 27781 101336,101431,101575
 7.0000e+000 101731 -2.1168e-002  3.0833e-002 -4.4340e-001 27781 101258,101503,101705
 7.0000e+000 102237 -7.9996e-001 -2.1587e-001  6.0327e-002 27419 102476,102260,101992
 7.0000e+000 102214 -5.5694e-001 -3.3887e-001 -4.3359e-002 27419 102260,101940,101914
 7.0000e+000 102191 -8.4980e-001 -3.9085e-001  1.1678e-001 27419 102404,102332,102096
 7.0000e+000 102168 -7.4436e-001 -3.4034e-001  2.2068e-002 27419 102404,102096,102044
 7.0000e+000 102145 -7.4361e-001 -2.5836e-001  9.3069e-002 27419 102476,101992,101966
 7.0000e+000 102122 -4.7544e-001 -4.3671e-001  9.1776e-003 27419 102044,102096,102070
 7.0000e+000 102286 -1.0470e+000 -4.2559e-001  1.7334e-001 27419 102018,101992,102260
 7.0000e+000 102309 -8.0532e-001 -3.0220e-001  1.6817e-002 27419 102332,102018,102260
 7.0000e+000 102358 -8.7588e-001 -7.2651e-001  2.4847e-001 27419 101914,102096,102332
 7.0000e+000 102381 -7.5371e-001 -4.7234e-001  4.9986e-002 27419 101914,102332,102260
 7.0000e+000 102430 -6.4500e-001 -3.7505e-001 -1.1496e-002 27419 102018,102332,102404
 7.0000e+000 102453 -5.5796e-001 -2.9112e-001 -1.1655e-001 27419 102018,102404,102044
 7.0000e+000 102502 -6.8103e-001 -2.7714e-001  9.3074e-002 27419 101940,102260,102476
 7.0000e+000 102525 -1.9490e-001 -7.4158e-002  6.5341e-002 27419 101940,102476,101966
 7.0000e+000 103031 -1.3971e+000  1.2264e+000  9.5408e-001 26715 102708,102786,102760
 7.0000e+000 103008 -2.1893e-001 -4.0935e-001  1.6488e-001 26715 102708,102890,102786
 7.0000e+000 102985  1.0875e+000 -7.0670e-001  1.0389e-001 26715 102838,102890,102864
 7.0000e+000 102962  2.9853e-001  1.0762e+000  1.2180e-001 26715 102786,102890,102838
 7.0000e+000 102939  1.4939e+000  1.6622e+000  7.2996e-001 26715 102786,102838,102812
 7.0000e+000 102916 -2.2084e+000 -7.1873e-002  3.9546e-001 26715 102708,102760,102734
 7.0000e+000 103279 -6.6209e-003  2.7594e-002 -1.0286e-001 26303 103302,103158,103080
 7.0000e+000 103256  1.3396e-001 -9.6295e-002 -1.0966e-001 26303 103302,103080,103054
 7.0000e+000 103233  3.0402e-001  1.7867e-001 -4.5984e-002 26303 103080,103158,103106
 7.0000e+000 103210 -4.2838e-001 -2.0232e-002 -5.9818e-002 26303 103106,103158,103132
 7.0000e+000 103328 -2.4194e-001 -8.8894e-002 -5.1141e-002 26303 103184,103158,103302
 7.0000e+000 103351  2.7487e-002 -1.1291e-001 -8.4387e-002 26303 103184,103302,103054
 7.0000e+000 103501 -1.0063e+000 -8.6750e-002  6.2118e-002 25849 103374,103426,103400
 7.0000e+000 103478 -8.9044e-001 -3.9976e-001  4.6325e-003 25849 103374,103452,103426
 7.0000e+000 104090 -9.0413e-002  2.2025e-001  1.2282e-001 25445 103793,103871,103819
 7.0000e+000 104067  1.9750e-001  1.1251e-001  1.0737e-003 25445 103793,103949,103871
 7.0000e+000 104044  2.6817e-001  3.0253e-001 -4.5028e-003 25445 103871,103949,103923
 7.0000e+000 104021 -5.8176e-002  3.0099e-001  6.2788e-004 25445 103819,103871,103845
 7.0000e+000 103998  1.1292e-001  1.8514e-001  2.0260e-001 25445 103767,103949,103793
 7.0000e+000 103975  3.9900e-001  2.1397e-001 -1.6836e-002 25445 103871,103923,103897
 7.0000e+000 104419 -3.7352e-001 -7.9505e-002 -1.2748e-001 25083 104220,104298,104272
 7.0000e+000 104396 -7.1883e-001 -4.1149e-001  7.8576e-003 25083 104220,104324,104298
 7.0000e+000 104373 -2.7883e-001 -1.7440e-001 -2.1750e-002 25083 104220,104272,104246
 7.0000e+000 104350 -7.1646e-001 -3.3959e-001  2.9732e-002 25083 104194,104324,104220
 7.0000e+000 105102  5.1874e-002 -1.6052e-001 -1.2730e-001 24793 104785,104863,104837
 7.0000e+000 105079 -1.0119e-002 -4.4314e-001 -2.9076e-001 24793 104759,104863,104785
 7.0000e+000 105056 -9.3292e-002 -6.3400e-002 -3.0759e-001 24793 104759,104915,104863
 7.0000e+000 105033 -1.9367e-001 -7.5248e-002 -2.3108e-001 24793 104733,104915,104759
 7.0000e+000 105010  5.4127e-002 -1.3188e-002 -2.4729e-001 24793 104863,104915,104889
 7.0000e+000 104987 -3.2503e-001 -8.4293e-003 -3.2336e-001 24793 104681,104915,104733
 7.0000e+000 104964 -3.4776e-002 -2.7204e-001 -1.6790e-001 24793 104785,104837,104811
 7.0000e+000 104941 -1.9506e-001  2.8255e-001 -3.5974e-001 24793 104681,104733,104707
 7.0000e+000 105252  8.9534e-001  1.1826e+000 -9.1721e-002 24389 105477,105275,105177
 7.0000e+000 105229  9.0825e-001  1.2468e+000 -1.3674e-001 24389 105347,105275,105151
 7.0000e+000 105301  9.6063e-001  1.0753e+000 -1.2715e-001 24389 105203,105177,105275
 7.0000e+000 105324  9.6360e-001  1.0645e+000 -1.3284e-001 24389 105203,105275,105125
 7.0000e+000 105373  8.8996e-001  8.1181e-001 -4.7937e-002 24389 105125,105275,105347
 7.0000e+000 105503  1.0962e+000  1.4802e+000  2.9028e-002 24389 105151,105275,105477
 7.0000e+000 106088 -5.8305e-001  5.6761e-001  7.1760e-001 23735 105791,105921,105895
 7.0000e+000 106065 -2.0531e+000 -2.4931e-002  7.0036e-001 23735 105765,105921,105791
 7.0000e+000 106042 -3.6940e-001  6.6210e-001  3.7926e-001 23735 105765,105947,105921
 7.0000e+000 106019 -2.3685e+000  8.6828e-002  9.6280e-001 23735 105817,105895,105869
 7.0000e+000 105996 -1.4517e+000  3.2988e-001  8.5380e-001 23735 105791,105895,105817
 7.0000e+000 105973 -1.1245e+000  2.8703e-001  7.7457e-001 23735 105817,105869,105843
 7.0000e+000 106417  7.1432e-001  2.1275e+000 -4.6886e-001 23295 106218,106296,106270
 7.0000e+000 106394  2.3494e-001  7.0689e-001 -3.3482e-001 23295 106218,106322,106296
 7.0000e+000 106371  3.8931e-002  5.0934e-001 -4.1554e-001 23295 106218,106270,106244
 7.0000e+000 106348  4.7051e-001  8.0741e-001 -1.4052e-001 23295 106192,106322,106218
 7.0000e+000 106746  1.6443e-001  7.6121e-001  1.2566e-001 23005 106521,106599,106547
 7.0000e+000 106723  6.1758e-001  8.3175e-001  1.6353e-002 23005 106521,106651,106599
 7.0000e+000 106700  4.0167e-001  7.8495e-001  5.8540e-002 23005 106547,106599,106573
 7.0000e+000 106677  7.7797e-001  8.0985e-001  4.0097e-001 23005 106599,106651,106625
 7.0000e+000 107331 -4.1031e-001  2.3646e-001 -2.9547e-001 22601 107060,107190,107138
 7.0000e+000 107308 -1.2852e+000 -4.6905e-002 -6.2032e-001 22601 107034,107190,107060
 7.0000e+000 107285 -1.8837e+000 -4.3869e-001 -5.7965e-001 22601 107060,107138,107112
 7.0000e+000 107262 -1.9803e+000 -3.5714e-001 -6.7902e-001 22601 107008,107190,107034
 7.0000e+000 107239 -1.9419e-001  1.1144e+000 -1.2267e+000 22601 107060,107112,107086
 7.0000e+000 107216 -6.5725e-001  3.3823e-001 -1.2573e-001 22601 107138,107190,107164
 7.0000e+000 107807 -5.7631e-001  1.3774e-001 -1.0838e-001 22031 107974,107902,107617
 7.0000e+000 107784 -7.1835e-001  4.0527e-001 -2.6761e-001 22031 107830,107565,107513
 7.0000e+000 107761 -4.6827e-001  8.9896e-002 -2.9836e-001 22031 108046,107830,107513
 7.0000e+000 107738 -4.4418e-001  3.6244e-001  2.2923e-002 22031 107974,107617,107591
 7.0000e+000 107715 -5.0958e-001 -5.5457e-002 -2.5504e-001 22031 108046,107513,107461
 7.0000e+000 107692 -1.7749e+000  6.4080e-001 -4.8892e-001 22031 107513,107565,107539
 7.0000e+000 107669 -2.7993e-001  2.1689e-001 -3.9071e-001 22031 107461,107513,107487
 7.0000e+000 107856 -8.4543e-001  2.7189e-001 -1.8195e-001 22031 107902,107565,107830
 7.0000e+000 107879 -5.6671e-001 -1.0442e-001 -1.7465e-002 22031 107643,107830,107435
 7.0000e+000 107928 -1.1585e+000  5.3969e-001 -5.2033e-001 22031 107643,107617,107902
 7.0000e+000 107951 -8.1296e-001  2.4768e-001  3.0092e-002 22031 107643,107902,107830
 7.0000e+000 108000 -7.4694e-001  4.5619e-001 -1.3136e-001 22031 107565,107902,107974
 7.0000e+000 108023 -7.1845e-001  3.8278e-001 -9.8673e-002 22031 107565,107974,107591
 7.0000e+000 108072 -4.2957e-001 -9.8511e-002 -9.8413e-002 22031 107435,107830,108046
 7.0000e+000 108095 -5.2163e-001 -3.2918e-001 -5.3767e-002 22031 107435,108046,107461
 7.0000e+000 108196  5.6058e-002  3.2715e-002 -2.1154e-001 21783 108118,108170,108144
 7.0000e+000 108655  1.6784e-001  9.6206e-001  5.6715e-001 21379 108407,108485,108459
 7.0000e+000 108632  1.9173e+000 -3.2477e-002  7.9246e-001 21379 108407,108511,108485
 7.0000e+000 108609  1.9658e+000 -2.5486e-001  5.1433e-001 21379 108381,108511,108407
 7.0000e+000 108586  8.4568e-001  5.5476e-001 -6.2857e-001 21379 108381,108537,108511
 7.0000e+000 108563  5.0941e-001  1.3026e-001  2.5841e-001 21379 108407,108459,108433
 7.0000e+000 109082 -8.4973e-002  8.0271e-001  2.0901e-001 20974 109105,108863,108811
 7.0000e+000 109059  4.0334e-001  1.0697e+000 -1.5127e-001 20974 109105,108811,108759
 7.0000e+000 109036 -9.4730e-002  1.7659e+000 -1.6636e-001 20974 109177,108889,108863
 7.0000e+000 109013  8.9379e-001  1.5395e+000 -1.6550e-001 20974 108811,108863,108837
 7.0000e+000 108990 -4.1057e-001 -3.2835e-003 -6.0185e-002 20974 108759,108941,108915
 7.0000e+000 108967  1.5745e-001 -2.6871e-001  3.6674e-002 20974 108759,108811,108785
 7.0000e+000 109131  1.9877e-001  1.3863e+000  6.4845e-002 20974 109177,108863,109105
 7.0000e+000 109154  1.7292e-002  3.1019e-002 -3.5046e-002 20974 108915,109105,108759
 7.0000e+000 109203 -2.2487e-001  1.4443e+000  2.1798e-001 20974 108915,108889,109177
 7.0000e+000 109226 -1.8680e-001  6.1339e-001  4.2646e-001 20974 108915,109177,109105
 7.0000e+000 109496 -8.4127e-001  1.4094e-001 -6.9320e-002 20470 109271,109375,109297
 7.0000e+000 109473 -7.8453e-001  2.6289e-001 -1.3046e-001 20470 109271,109401,109375
 7.0000e+000 109450 -9.9722e-001 -8.8975e-002 -1.4861e-001 20470 109297,109375,109349
 7.0000e+000 109427 -1.3713e+000 -8.5824e-001  2.7377e-001 20470 109297,109349,109323
 7.0000e+000 109955  2.3729e-001  1.8261e+000  1.0175e+000 20123 110050,109733,109707
 7.0000e+000 109932 -7.3302e-001  8.6605e-001  5.3816e-001 20123 110050,109707,109681
 7.0000e+000 109909  2.2088e-001  5.5732e-001  6.6703e-001 20123 109978,109759,109733
 7.0000e+000 109886 -1.6999e-001  3.5279e-001  5.8025e-001 20123 110122,109978,109733
 7.0000e+000 109863  3.2686e-001  2.8309e-001  2.8313e-001 20123 109785,109837,109811
 7.0000e+000 110004  1.5778e-001  4.9926e-001  4.5687e-001 20123 109785,109759,109978
 7.0000e+000 110027  1.0967e-002  3.6331e-001  3.0869e-001 20123 109785,109978,109837
 7.0000e+000 110076 -3.6455e-001  6.4186e-001  4.5861e-001 20123 110122,109733,110050
 7.0000e+000 110099 -3.1418e-001  5.1464e-001  8.8814e-002 20123 109837,110050,109681
 7.0000e+000 110148  2.0582e-001  7.6691e-001  4.1263e-001 20123 109837,109978,110122
 7.0000e+000 110171  2.6371e-002  1.0136e+000  2.8585e-001 20123 109837,110122,110050
 7.0000e+000 110500  1.2341e+000  3.9906e-001 -2.9147e-001 19511 110301,110379,110353
 7.0000e+000 110477  1.7408e+000  1.0057e+000 -5.0990e-001 19511 110301,110405,110379
 7.0000e+000 110454  4.5518e-001  3.8397e-001 -2.9224e-001 19511 110275,110405,110301
 7.0000e+000 110431  1.0612e+000  5.4257e-001  5.1681e-001 19511 110301,110353,110327
 7.0000e+000 110957  3.6095e-001  1.2710e+000 -7.7700e-001 19107 110683,110735,110709
 7.0000e+000 110934  1.7956e-001 -2.4170e-001 -1.0418e+000 19107 110683,110813,110735
 7.0000e+000 110911  4.8938e-001  7.1444e-001 -9.8075e-001 19107 110735,110813,110761
 7.0000e+000 110888 -7.7393e-001 -7.0952e-001 -8.8615e-001 19107 110683,110839,110813
 7.0000e+000 110865  2.1271e-001  7.9182e-002 -9.4739e-001 19107 110761,110813,110787
 7.0000e+000 111335 -2.2497e-001 -2.9626e-001 -1.6864e-001 18653 111087,111165,111139
 7.0000e+000 111312 -9.4012e-002 -1.2232e-001 -2.3382e-001 18653 111087,111217,111165
 7.0000e+000 111289 -2.0288e-001 -1.8484e-001 -1.2490e-001 18653 111061,111217,111087
 7.0000e+000 111266 -6.8069e-002 -4.9488e-002 -7.4929e-002 18653 111087,111139,111113
 7.0000e+000 111243 -1.0776e-001 -2.0312e-001 -1.6703e-001 18653 111165,111217,111191
 7.0000e+000 111735 -1.1530e+000 -3.5552e-001 -7.0114e-002 18213 111461,111513,111487
 7.0000e+000 111712 -1.3236e+000 -8.1206e-001  1.0363e-002 18213 111461,111617,111513
 7.0000e+000 111689 -1.2694e+000 -7.3302e-001 -1.8985e-001 18213 111513,111617,111591
 7.0000e+000 111666 -5.8996e-001 -3.2563e-001  5.6157e-002 18213 111513,111591,111539
 7.0000e+000 111643 -3.6480e-001 -3.8715e-001 -4.6084e-003 18213 111539,111591,111565
 7.0000e+000 111885  7.3837e-001 -4.3061e-001  2.5931e-001 17659 111784,111836,111810
 7.0000e+000 111862  1.7155e+000  4.9243e-001  6.5654e-001 17659 111758,111836,111784
 7.0000e+000 112287 -3.0131e-002  8.3396e-001 -3.7929e-001 17411 112065,112169,112143
 7.0000e+000 112264 -2.2366e+000 -7.0934e-003  3.3634e-001 17411 112039,112169,112065
 7.0000e+000 112241 -2.5222e+000  2.5707e-001 -5.9898e-001 17411 112013,112169,112039
 7.0000e+000 112218  3.5544e+000  1.1685e+000 -7.0415e-001 17411 112091,112143,112117
 7.0000e+000 112195 -1.4216e-001 -1.6504e-001  3.1873e-001 17411 112065,112143,112091
 7.0000e+000 112508 -8.3782e-001  5.3141e-001  9.4986e-002 17007 112384,112436,112410
 7.0000e+000 112485 -6.4326e-001  7.1746e-001  1.7525e-001 17007 112332,112436,112384
 7.0000e+000 112462 -8.2717e-001  3.5793e-001  1.1036e-001 17007 112332,112384,112358
 7.0000e+000 112658 -2.0849e+000 -4.3343e-001  3.1912e-001 16553 112557,112609,112583
 7.0000e+000 112635 -1.9955e+000 -3.1116e-001  3.6853e-001 16553 112531,112609,112557
 7.0000e+000 112761 -5.2243e-001  1.9806e+000 -3.3923e-001 16355 112683,112735,112709
 7.0000e+000 112913 -1.3262e+000  6.9160e-001  7.7713e-002 15949 112786,112838,112812
 7.0000e+000 112890 -6.5494e-001  1.8420e+000 -2.4230e-001 15949 112786,112864,112838
 7.0000e+000 113065  2.0081e-001 -1.6552e-001 -7.8641e-002 15609 112938,112990,112964
 7.0000e+000 113042  6.8035e-001  7.2743e-002  1.9279e-002 15609 112938,113016,112990
 7.0000e+000 113420  7.8993e-001  7.4978e-001  2.6268e-001 15284 113247,113325,113299
 7.0000e+000 113397  7.4535e-001  6.4054e-001  1.6252e-001 15284 113195,113325,113247
 7.0000e+000 113374  6.2302e-001  6.1766e-001  1.1335e-001 15284 113195,113247,113221
 7.0000e+000 113351  7.9659e-001  1.2754e+000  3.1975e-001 15284 113247,113299,113273
 7.0000e+000 113521  5.1897e-001 -3.5765e-001  2.9222e-001 202 113443,113495,113469
 7.5000e+000 65564 -4.6582e-002 -9.3484e-003 -7.7488e-005 65155 65414,65466,65440
 7.5000e+000 65541 -5.9847e-002  1.4194e-001  4.7376e-002 65155 65414,65492,65466
 7.5000e+000 65518 -3.4595e-002  1.9859e-001 -6.9657e-002 65155 65388,65492,65414
 7.5000e+000 65883 -2.3804e-001  7.6961e-001 -3.7168e-002 64957 65635,65739,65713
 7.5000e+000 65860 -7.3680e-002  1.5500e+000 -2.6907e-002 64957 65635,65765,65739
 7.5000e+000 65837  1.3223e-001  1.6363e+000 -3.4111e-002 64957 65609,65765,65635
 7.5000e+000 65814 -1.5904e-001  1.1182e+000 -4.0230e-001 64957 65635,65713,65687
 7.5000e+000 65791 -6.2870e-002  1.3777e+000 -2.5819e-001 64957 65635,65687,65661
 7.5000e+000 65984 -2.8340e-001  2.8915e-001  2.0097e-001 64781 65906,65958,65932
 7.5000e+000 66232  3.6679e-001  4.5731e-001 -4.1097e-001 64469 66007,66059,66033
 7.5000e+000 66209 -2.8674e-001 -7.4381e-002 -6.4282e-001 64469 66007,66085,66059
 7.5000e+000 66186  8.5496e-002  9.0000e-001 -1.9430e-001 64469 66007,66137,66085
 7.5000e+000 66163 -5.8677e-001  2.7414e-002 -9.7870e-001 64469 66085,66137,66111
 7.5000e+000 66504  1.1915e-002  1.5387e+000 -9.5812e-002 64271 66279,66383,66305
 7.5000e+000 66481 -1.8052e-001  1.5633e+000  5.6836e-002 64271 66279,66409,66383
 7.5000e+000 66458 -2.7757e-001  1.9670e+000 -1.2330e-001 64271 66305,66357,66331
 7.5000e+000 66435  6.2607e-002  1.9401e+000 -1.1723e-001 64271 66305,66383,66357
 7.5000e+000 66705 -3.2560e-002  1.5722e+000 -2.3899e-001 64073 66728,66581,66555
 7.5000e+000 66682  1.3592e-002  1.6075e+000 -2.2314e-001 64073 66728,66555,66529
 7.5000e+000 66659 -6.5578e-001  2.0519e+000  5.8731e-001 64073 66581,66633,66607
 7.5000e+000 66754 -8.3665e-002  1.6123e+000 -2.5401e-001 64073 66633,66581,66728
 7.5000e+000 66777 -4.7462e-002  1.6462e+000 -2.3809e-001 64073 66633,66728,66529
 7.5000e+000 66951  2.3678e-001 -2.6749e-002  3.0405e-001 63783 66824,66876,66850
 7.5000e+000 66928 -8.3968e-001  6.4046e-001 -1.0639e-001 63783 66824,66902,66876
 7.5000e+000 67201  6.0906e-001  1.7744e+000 -1.1333e-001 63585 66976,67080,67054
 7.5000e+000 67178  2.8074e-001  1.6428e+000 -1.9737e-001 63585 66976,67106,67080
 7.5000e+000 67155  3.1959e-001  8.4205e-001 -1.8191e-002 63585 66976,67054,67028
 7.5000e+000 67132  4.6888e-001  1.0808e+000  2.9544e-001 63585 66976,67028,67002
 7.5000e+000 67654 -1.6862e-001  1.0992e+000  4.3256e-002 63295 67357,67487,67383
 7.5000e+000 67631 -2.0938e-001  1.5467e+000 -3.1664e-001 63295 67331,67487,67357
 7.5000e+000 67608  8.0355e-002  2.0102e+000  7.8645e-002 63295 67331,67513,67487
 7.5000e+000 67585 -2.3898e-002  2.1009e+000 -7.9209e-002 63295 67435,67487,67461
 7.5000e+000 67562  8.3571e-002  2.0284e+000  4.3725e-002 63295 67383,67487,67435
 7.5000e+000 67539  3.0758e-004  1.5713e+000 -7.7822e-002 63295 67383,67435,67409
 7.5000e+000 67853 -2.8334e-002  1.3216e+000 -3.3568e-002 62891 67876,67703,67677
 7.5000e+000 67830  5.4217e-002  1.7176e+000 -8.7194e-003 62891 67876,67677,67781
 7.5000e+000 67807 -2.1911e-001  1.0616e+000 -1.2586e-001 62891 67948,67729,67703
 7.5000e+000 67902 -3.8458e-002  1.2370e+000 -2.2203e-001 62891 67948,67703,67876
 7.5000e+000 67925  3.4274e-001  1.3949e+000 -2.4936e-001 62891 67755,67876,67781
 7.5000e+000 67974  6.4629e-002  8.5069e-001 -8.0248e-002 62891 67755,67729,67948
 7.5000e+000 67997  1.1447e-001  9.3022e-001 -1.3990e-001 62891 67755,67948,67876
 7.5000e+000 68218  2.5299e-002 -5.1877e-002 -3.6248e-002 62693 68042,68120,68068
 7.5000e+000 68195 -9.8292e-004 -4.4708e-002  5.2349e-003 62693 68042,68146,68120
 7.5000e+000 68172 -8.4621e-002  5.4993e-002 -2.5253e-002 62693 68068,68120,68094
 7.5000e+000 68468  8.7512e-002 -5.9415e-004 -1.2331e-002 62289 68491,68295,68269
 7.5000e+000 68445  2.0583e-002 -2.0387e-002 -3.0434e-002 62289 68563,68491,68269
 7.5000e+000 68422  1.1401e-002  1.6500e-002 -1.0193e-003 62289 68563,68269,68243
 7.5000e+000 68399 -8.6060e-002 -1.1797e-001 -8.9782e-002 62289 68295,68347,68321
 7.5000e+000 68517  4.9978e-002 -1.2108e-002 -3.7685e-002 62289 68347,68295,68491
 7.5000e+000 68540 -3.2185e-002  1.9022e-003 -6.0269e-002 62289 68347,68491,68373
 7.5000e+000 68589  4.7246e-002  5.3159e-002 -3.4941e-002 62289 68373,68491,68563
 7.5000e+000 68612  2.3104e-002  6.4852e-002 -3.8503e-003 62289 68373,68563,68243
 7.5000e+000 68911  5.3373e-002  1.2097e+000 -4.7518e-002 62091 69222,68934,68741
 7.5000e+000 68888 -2.9023e-001  1.3260e+000 -5.7088e-002 62091 69006,68934,68689
 7.5000e+000 68865 -4.6037e-001  1.1377e+000 -2.3904e-001 62091 69006,68689,68663
 7.5000e+000 68842  2.3927e-001  1.5964e+000  2.5425e-001 62091 69078,68793,68767
 7.5000e+000 68819  6.7014e-002  1.2231e+000 -1.1153e-001 62091 69222,68741,68715
 7.5000e+000 68960  2.6955e-001  1.4235e+000 -1.3553e-001 62091 68767,68741,68934
 7.5000e+000 68983  1.1330e-001  1.6918e+000  6.0267e-002 62091 69078,68767,68934
 7.5000e+000 69032 -2.1876e-001  1.5092e+000 -1.4053e-002 62091 69150,69006,68637
 7.5000e+000 69055 -2.3085e-001  1.4297e+000 -7.3745e-002 62091 68637,69006,68663
 7.5000e+000 69104  1.5214e-001  1.3924e+000  6.7060e-003 62091 68637,68793,69078
 7.5000e+000 69127 -1.9442e-001  1.4903e+000 -2.7264e-002 62091 69150,68637,69078
 7.5000e+000 69176 -1.1452e-001  1.3370e+000  2.9712e-003 62091 68934,69006,69150
 7.5000e+000 69199  2.3614e-002  1.4486e+000 -5.6867e-002 62091 68934,69150,69078
 7.5000e+000 69248  2.4544e-002  1.1359e+000 -5.3089e-002 62091 68689,68934,69222
 7.5000e+000 69271  3.4084e-002  1.1160e+000 -9.6970e-002 62091 68689,69222,68715
 7.5000e+000 69521 -2.2758e-001  7.3184e-002 -1.9410e-002 61893 69544,69348,69296
 7.5000e+000 69498 -7.4061e-002  1.0090e-001  8.6543e-003 61893 69544,69296,69400
 7.5000e+000 69475  2.4137e-002  1.0311e-001 -9.9019e-003 61893 69296,69426,69400
 7.5000e+000 69452  4.2324e-002 -6.3296e-002 -2.1406e-001 61893 69296,69348,69322
 7.5000e+000 69570 -1.4670e-001  5.4610e-003  9.9830e-002 61893 69374,69348,69544
 7.5000e+000 69593  1.2406e-001  9.9126e-002  1.2040e-001 61893 69374,69544,69400
 7.5000e+000 70046 -1.1260e-001  1.2728e+000 -2.8906e-002 61467 69749,69905,69879
 7.5000e+000 70023 -1.3840e-001  1.0486e+000 -3.0266e-001 61467 69723,69905,69749
 7.5000e+000 70000 -1.8061e-001  1.1580e+000 -7.8389e-004 61467 70069,69827,69775
 7.5000e+000 69977  1.6808e-001  1.9600e+000 -2.7760e-001 61467 70069,69775,69749
 7.5000e+000 69954  2.4481e-002  5.6287e-001 -1.2928e-003 61467 70141,69853,69827
 7.5000e+000 69931 -3.1996e-001  1.2491e+000  3.8986e-001 61467 69775,69827,69801
 7.5000e+000 70095 -8.5138e-002  7.2533e-001  1.0349e-001 61467 70141,69827,70069
 7.5000e+000 70118 -1.2777e-001  1.1669e+000 -8.3091e-003 61467 69879,70069,69749
 7.5000e+000 70167 -9.8404e-002  8.1234e-001 -9.3566e-003 61467 69879,69853,70141
 7.5000e+000 70190 -3.5324e-002  1.1975e+000  9.9400e-002 61467 69879,70141,70069
 7.5000e+000 70291  1.6843e-001  2.1180e+000  2.2055e-001 61013 70213,70265,70239
 7.5000e+000 70441 -9.3388e-002  1.7727e-002  1.1400e-002 60651 70340,70392,70366
 7.5000e+000 70418 -1.1262e-001 -7.8501e-003  1.5622e-003 60651 70314,70392,70340
 7.5000e+000 70642 -9.2343e-002  1.1499e+000  3.0910e-001 60311 70665,70492,70466
 7.5000e+000 70619  8.1599e-002  1.5590e+000  3.0615e-001 60311 70665,70466,70570
 7.5000e+000 70596 -3.4939e-001  4.0123e-001  3.4415e-002 60311 70492,70544,70518
 7.5000e+000 70691 -3.6204e-003  7.5002e-001 -1.2243e-001 60311 70544,70492,70665
 7.5000e+000 70714  2.6729e-001  1.3799e+000 -1.3826e-001 60311 70544,70665,70570
 7.5000e+000 70964 -2.8128e-001  9.0953e-001  4.5206e-002 59907 70987,70765,70739
 7.5000e+000 70941 -5.9462e-002  1.4154e+000 -5.3386e-002 59907 71059,70987,70739
 7.5000e+000 70918  8.9345e-002  2.1443e+000 -1.3727e-001 59907 71059,70739,70869
 7.5000e+000 70895  2.5635e-002  1.4392e+000 -1.0179e-001 59907 70817,70869,70843
 7.5000e+000 71013 -1.1004e-001  9.4361e-001 -2.4044e-001 59907 70791,70765,70987
 7.5000e+000 71036 -4.1223e-002  9.4934e-001 -2.0718e-001 59907 70791,70987,70817
 7.5000e+000 71085  1.0455e-001  9.2843e-001 -1.6842e-001 59907 70817,70987,71059
 7.5000e+000 71108 -3.7919e-002  1.2476e+000 -1.2251e-001 59907 70817,71059,70869
 7.5000e+000 71441  5.1605e-001  7.1901e-001 -1.1406e+000 59417 71464,71242,71216
 7.5000e+000 71418  8.9789e-001  1.0319e+000  1.2383e-001 59417 71464,71216,71320
 7.5000e+000 71395  4.4746e-001  1.2282e+000  2.9242e-001 59417 71216,71346,71320
 7.5000e+000 71372 -1.5597e+000  1.9691e-001 -1.6054e-001 59417 71268,71320,71294
 7.5000e+000 71490 -3.3274e-001  3.8355e-001 -1.3569e+000 59417 71268,71242,71464
 7.5000e+000 71513 -9.1052e-001  3.9623e-001 -1.3040e-002 59417 71268,71464,71320
 7.5000e+000 71712  1.8100e-002  1.2324e+000 -1.9695e-001 58913 71562,71614,71588
 7.5000e+000 71689  9.3671e-001  1.1060e+000 -5.6455e-001 58913 71536,71614,71562
 7.5000e+000 71666  6.6677e-001  8.8814e-001 -4.6848e-001 58913 71536,71640,71614
 7.5000e+000 72171  6.9352e-001  1.5975e+000 -3.4356e-001 58409 72194,72027,72001
 7.5000e+000 72148  5.3391e-001  8.9400e-001 -4.2000e-001 58409 72194,72001,71949
 7.5000e+000 72125  1.9574e-001  1.2365e+000 -4.0448e-001 58409 71923,72053,71949
 7.5000e+000 72102  2.9321e-002  5.9259e-001 -2.6298e-001 58409 71949,72001,71975
 7.5000e+000 72079  4.5293e-001  1.2831e+000 -4.4701e-001 58409 71897,72053,71923
 7.5000e+000 72220  6.1258e-001  1.7157e+000  4.4212e-003 58409 72053,72027,72194
 7.5000e+000 72243  5.8903e-001  1.3671e+000 -1.3385e-001 58409 72053,72194,71949
 7.5000e+000 72491 -1.9944e+000 -8.3152e-001 -1.3097e+000 57855 72514,72318,72292
 7.5000e+000 72468  1.1505e+000  4.5393e-001 -1.4317e+000 57855 72514,72292,72266
 7.5000e+000 72445 -1.1318e+000  1.4000e-001  3.1828e-002 57855 72318,72396,72370
 7.5000e+000 72422 -3.0498e+000  9.7579e-001 -9.6851e-001 57855 72318,72370,72344
 7.5000e+000 72540 -2.2893e+000 -3.6735e-001 -8.4786e-001 57855 72396,72318,72514
 7.5000e+000 72563 -1.9896e+000 -3.4501e-001 -8.7475e-001 57855 72396,72514,72266
 7.5000e+000 72811  1.0566e+000  2.2925e-001 -6.4316e-001 57401 72612,72690,72638
 7.5000e+000 72788  1.7044e-001 -1.3029e-001  4.6736e-002 57401 72586,72690,72612
 7.5000e+000 72765 -6.0255e-001 -8.8407e-001 -1.1258e+000 57401 72638,72690,72664
 7.5000e+000 72742  2.4971e-001  9.8295e-001 -2.3738e-001 57401 72586,72716,72690
 7.5000e+000 73144  1.1972e-001  7.4100e-001 -1.8275e-001 57004 72919,72997,72945
 7.5000e+000 73121  1.8574e-001  1.5102e+000 -3.8843e-001 57004 72919,73049,72997
 7.5000e+000 73098  9.7329e-002  9.9432e-001 -3.6109e-001 57004 72945,72997,72971
 7.5000e+000 73075  2.8514e-001  1.8460e+000 -4.5552e-001 57004 72997,73049,73023
 7.5000e+000 73650 -1.3569e+000  1.7705e+000 -1.2062e+000 56592 73673,73379,73353
 7.5000e+000 73627  1.8662e+000  2.3763e+000 -1.9384e+000 56592 73673,73353,73327
 7.5000e+000 73604  1.1441e-001  1.5875e+000 -5.4907e-001 56592 73745,73509,73483
 7.5000e+000 73581 -2.4611e+000 -5.8644e-001 -3.6447e-001 56592 73379,73457,73405
 7.5000e+000 73558  3.7887e-001  3.3240e-001  1.2607e-001 56592 73379,73483,73457
 7.5000e+000 73535  2.2840e+000  5.2914e-001 -1.1228e-001 56592 73405,73457,73431
 7.5000e+000 73699 -1.0981e+000  1.2043e+000  2.8277e-001 56592 73483,73379,73673
 7.5000e+000 73722 -4.4117e-002  1.8968e+000 -6.4840e-001 56592 73745,73483,73673
 7.5000e+000 73771 -2.6259e-002  1.2308e+000 -5.8512e-001 56592 73327,73509,73745
 7.5000e+000 73794 -2.3507e-001  1.4736e+000 -7.3024e-001 56592 73327,73745,73673
 7.5000e+000 74123  1.2675e+000  8.8745e-001 -1.9502e-001 56152 74146,74002,73924
 7.5000e+000 74100  1.0907e+000  6.9184e-001 -3.6642e-002 56152 74146,73924,73898
 7.5000e+000 74077  1.4555e+000  1.1454e+000 -2.9363e-001 56152 73924,74002,73976
 7.5000e+000 74054  1.0704e+000  2.6406e-001  1.5215e-001 56152 73924,73976,73950
 7.5000e+000 74172  1.6615e+000  1.1816e+000 -3.9087e-001 56152 74028,74002,74146
 7.5000e+000 74195  1.2938e+000  7.9733e-001 -1.8709e-001 56152 74028,74146,73898
 7.5000e+000 74345 -8.1822e-001  1.7058e-001  3.9744e-001 55634 74218,74270,74244
 7.5000e+000 74322  1.3573e-001  1.1674e-001  1.5861e-001 55634 74218,74296,74270
 7.5000e+000 74823  4.4323e-001 -1.2782e+000  4.8700e-001 55016 74918,74846,74581
 7.5000e+000 74800 -9.2851e-002  1.4005e-001  2.7357e-001 55016 74846,74477,74633
 7.5000e+000 74777 -4.0890e-001 -2.1906e+000  8.4676e-001 55016 74918,74581,74555
 7.5000e+000 74754 -8.2992e-001 -1.2781e+000  9.3162e-001 55016 74990,74503,74477
 7.5000e+000 74731 -1.4438e+000 -9.1574e-002  7.1987e-001 55016 74451,74633,74477
 7.5000e+000 74708 -1.5141e+000  9.9907e-001  3.1693e-001 55016 74451,74659,74633
 7.5000e+000 74685 -1.9301e+000 -2.4369e+000  1.7442e+000 55016 74503,74555,74529
 7.5000e+000 74872  4.2708e-001 -1.3905e+000  3.7532e-001 55016 74607,74581,74846
 7.5000e+000 74895 -5.9128e-002 -1.0810e+000  2.9508e-001 55016 74607,74846,74633
 7.5000e+000 74944 -7.9757e-001 -1.1648e+000  7.5059e-001 55016 74477,74846,74918
 7.5000e+000 74967 -8.9510e-001 -1.2661e+000  8.3230e-001 55016 74990,74477,74918
 7.5000e+000 75016 -6.0294e-001 -1.1764e+000  9.9647e-001 55016 74555,74503,74990
 7.5000e+000 75039 -6.8199e-001 -1.2038e+000  8.8177e-001 55016 74555,74990,74918
 7.5000e+000 75287 -1.9662e+000 -3.3153e+000 -5.7574e-002 54726 75310,75140,75114
 7.5000e+000 75264 -2.4733e+000 -2.0931e+000 -3.6724e-001 54726 75310,75114,75088
 7.5000e+000 75241 -2.4845e+000 -1.5842e+000 -1.3855e+000 54726 75088,75192,75166
 7.5000e+000 75218 -4.0379e+000  7.2916e-002 -1.1918e+000 54726 75062,75192,75088
 7.5000e+000 75336 -1.3364e+000 -2.6205e+000 -7.8549e-001 54726 75166,75140,75310
 7.5000e+000 75359 -2.3373e+000 -1.4103e+000 -7.9561e-001 54726 75166,75310,75088
 7.5000e+000 75946 -1.6897e-001  2.2890e-002  1.5717e-001 54322 75969,75701,75649
 7.5000e+000 75923 -5.8837e-001 -2.6788e-001  2.8642e-001 54322 75969,75649,75623
 7.5000e+000 75900 -3.4017e-001 -1.7988e-001 -6.3533e-002 54322 76041,75753,75701
 7.5000e+000 75877 -1.9027e-001  6.3999e-001  2.2670e-003 54322 75623,75805,75779
 7.5000e+000 75854 -4.3698e-001 -1.7065e-001 -1.8835e-001 54322 75701,75753,75727
 7.5000e+000 75831 -2.0872e-001 -1.6608e-001 -8.4862e-003 54322 75649,75701,75675
 7.5000e+000 75995 -4.6824e-001 -1.0022e-001  5.1850e-002 54322 76041,75701,75969
 7.5000e+000 76018 -4.4475e-001  1.1015e-001  1.4482e-001 54322 75779,75969,75623
 7.5000e+000 76067 -2.8421e-001  3.2599e-002 -1.0814e-001 54322 75779,75753,76041
 7.5000e+000 76090 -3.6181e-001  1.8870e-001  1.0078e-002 54322 75779,76041,75969
 7.5000e+000 76468 -7.8802e-002  1.6462e-001 -3.1091e-002 53868 76491,76272,76220
 7.5000e+000 76445 -7.4004e-002  1.8293e-001 -4.7884e-002 53868 76491,76220,76324
 7.5000e+000 76422  2.6719e-002  1.0842e-001 -1.0172e-001 53868 76220,76272,76246
 7.5000e+000 76399 -1.0202e-001  5.0782e-001  1.0586e-001 53868 76194,76324,76220
 7.5000e+000 76376 -5.9559e-001  3.0656e-001  8.9092e-003 53868 76194,76350,76324
 7.5000e+000 76517 -8.1170e-002  1.3765e-001 -1.9785e-002 53868 76298,76272,76491
 7.5000e+000 76540 -7.2054e-002  1.6162e-001 -3.6861e-002 53868 76298,76491,76324
 7.5000e+000 76690 -5.6323e-002  2.2838e-001 -4.1045e-002 53356 76589,76641,76615
 7.5000e+000 76667  5.4519e-002  7.0399e-001  9.1592e-003 53356 76563,76641,76589
 7.5000e+000 76938 -5.1147e-001  2.3778e-001 -6.8022e-001 53009 77105,76961,76765
 7.5000e+000 76915  3.2254e-002  4.7650e-001 -3.7332e-001 53009 76961,76713,76843
 7.5000e+000 76892 -3.1742e-001  3.7845e-001 -1.7289e-001 53009 77033,76817,76791
 7.5000e+000 76869 -1.1177e+000 -1.6513e-001 -1.2753e+000 53009 77105,76765,76739
 7.5000e+000 76987 -1.7644e-001  9.4685e-001 -4.8935e-001 53009 76791,76765,76961
 7.5000e+000 77010 -3.6633e-001  4.1229e-001 -3.9951e-001 53009 77033,76791,76961
 7.5000e+000 77059  2.6185e-002  5.2735e-001 -1.8785e-001 53009 76843,76817,77033
 7.5000e+000 77082 -4.2020e-002  5.4941e-001 -3.9668e-001 53009 76843,77033,76961
 7.5000e+000 77131  1.4593e-001  6.4505e-001 -4.2476e-001 53009 76713,76961,77105
 7.5000e+000 77154  4.6589e-002  6.0105e-001 -9.2388e-001 53009 76713,77105,76739
 7.5000e+000 77355  1.5562e+000 -1.9924e+000  8.7838e-001 52390 77378,77257,77231
 7.5000e+000 77332  1.1094e+000 -1.4569e+000  5.7724e-001 52390 77378,77231,77179
 7.5000e+000 77309  1.3337e+000 -1.7433e+000  5.3273e-002 52390 77179,77231,77205
 7.5000e+000 77404  2.0022e+000 -1.6505e+000  7.2257e-001 52390 77283,77257,77378
 7.5000e+000 77427  1.5478e+000 -1.0759e+000  4.1429e-001 52390 77283,77378,77179
 7.5000e+000 77677 -1.9631e+000  2.2344e+000 -1.8762e+000 51986 77700,77504,77478
 7.5000e+000 77654  1.3797e-001  3.1719e+000 -2.1839e+000 51986 77700,77478,77452
 7.5000e+000 77631 -8.3518e-002  1.4404e+000 -5.8089e-001 51986 77772,77556,77530
 7.5000e+000 77608 -1.8854e-001  1.3680e+000 -7.5173e-001 51986 77452,77582,77556
 7.5000e+000 77726 -4.9550e-001  2.2928e+000 -7.7063e-001 51986 77530,77504,77700
 7.5000e+000 77749  1.0343e-001  1.7943e+000 -8.7801e-001 51986 77772,77530,77700
 7.5000e+000 77798  3.2285e-001  1.6945e+000 -9.2302e-001 51986 77452,77556,77772
 7.5000e+000 77821  5.3626e-001  1.7909e+000 -1.1773e+000 51986 77452,77772,77700
 7.5000e+000 78282  6.0516e-001  7.3655e-001 -2.1743e-001 51738 78008,78138,78060
 7.5000e+000 78259  2.0028e+000  1.9133e+000 -1.8608e+000 51738 78008,78164,78138
 7.5000e+000 78236  3.6981e-001  1.1477e-001 -1.2657e-001 51738 78086,78138,78112
 7.5000e+000 78213  3.0534e-001  4.5447e-001 -3.3494e-001 51738 78060,78138,78086
 7.5000e+000 78190  1.2205e+000 -3.8667e-002 -6.0057e-001 51738 78008,78060,78034
 7.5000e+000 78432 -1.7755e-001 -1.3530e-001  3.9527e-003 51148 78305,78357,78331
 7.5000e+000 78409 -1.5296e-001  6.8416e-002 -3.0383e-002 51148 78305,78383,78357
 7.5000e+000 78891 -2.9854e-001 -2.3605e-001  1.3646e-001 50808 78914,78695,78669
 7.5000e+000 78868 -2.2897e-001 -1.0491e-001  5.9493e-002 50808 78914,78669,78643
 7.5000e+000 78845 -5.9380e-002 -1.2106e-002  3.3238e-002 50808 78643,78773,78747
 7.5000e+000 78822 -5.3401e-002 -5.6258e-002  3.7397e-002 50808 78617,78773,78643
 7.5000e+000 78799 -1.3762e-001  8.8898e-002  1.7831e-001 50808 78695,78747,78721
 7.5000e+000 78940 -1.4746e-001 -1.1200e-001  6.9254e-002 50808 78747,78695,78914
 7.5000e+000 78963 -2.1463e-001 -7.4242e-002  1.8593e-002 50808 78747,78914,78643
 7.5000e+000 79260 -1.9545e-001 -2.5678e-001 -1.8709e-001 50468 79283,79090,79012
 7.5000e+000 79237 -1.9504e-001 -1.6152e-001 -1.7449e-001 50468 79283,79012,78986
 7.5000e+000 79214 -3.7466e-001 -3.3350e-001 -1.8769e-001 50468 79012,79090,79038
 7.5000e+000 79191 -1.2334e-001 -2.0727e-002 -2.2679e-001 50468 78986,79142,79116
 7.5000e+000 79168 -2.3831e-001 -3.4169e-001 -2.5154e-001 50468 79038,79090,79064
 7.5000e+000 79309 -2.3704e-001 -1.9141e-001 -2.1420e-001 50468 79116,79090,79283
 7.5000e+000 79332 -2.2009e-001 -7.4435e-002 -1.9325e-001 50468 79116,79283,78986
 7.5000e+000 79889  1.4668e+000  1.9253e+000 -8.1237e-001 50064 79569,79725,79699
 7.5000e+000 79866  2.7379e-001  1.2692e+000 -1.6068e+000 50064 79543,79725,79569
 7.5000e+000 79843  1.4692e+000  9.5361e-001 -7.5095e-001 50064 79621,79699,79673
 7.5000e+000 79820  1.6036e+000  1.2527e+000 -9.3926e-001 50064 79595,79699,79621
 7.5000e+000 79797  9.5660e-001  1.5008e+000 -1.1773e+000 50064 79569,79699,79595
 7.5000e+000 79774  1.1611e+000  2.8650e+000 -3.7900e-001 50064 79517,79725,79543
 7.5000e+000 79751  6.9182e-001  9.9091e-001 -8.2780e-001 50064 79621,79673,79647
 7.5000e+000 80169  1.5356e+000  2.0944e+000 -9.5653e-001 49724 80019,80097,80071
 7.5000e+000 80146  1.2571e+000  3.2465e+000 -1.2502e+000 49724 79993,80097,80019
 7.5000e+000 80123  9.6561e-001  1.9240e+000 -1.1288e+000 49724 80019,80071,80045
 7.5000e+000 80626 -1.0729e+000 -4.4539e-001 -2.4657e-001 49277 80352,80482,80378
 7.5000e+000 80603 -7.0782e-001 -3.4348e-001  7.0029e-002 49277 80352,80508,80482
 7.5000e+000 80580 -8.4364e-001 -3.3288e-001 -1.7536e-001 49277 80378,80482,80456
 7.5000e+000 80557 -1.0567e+000 -8.0349e-001 -1.7876e-001 49277 80378,80430,80404
 7.5000e+000 80534 -1.4141e+000 -5.6452e-001 -1.2956e-001 49277 80378,80456,80430
 7.5000e+000 81230 -2.0754e+000 -1.1251e+000  8.2914e-001 48716 81253,80835,80809
 7.5000e+000 81207 -1.3005e+000 -2.1343e-002 -4.2582e-001 48716 81397,81253,80809
 7.5000e+000 81184 -1.0650e+000  1.2208e+000 -4.7093e-001 48716 81325,80913,80887
 7.5000e+000 81161 -8.3105e-001 -8.9664e-001 -3.5953e-001 48716 81397,80809,81017
 7.5000e+000 81138 -1.6665e+000  7.2382e-001 -8.2644e-001 48716 81469,80965,80913
 7.5000e+000 81115 -8.1497e-001  1.3652e-001  1.0844e+000 48716 80835,80887,80861
 7.5000e+000 81092  4.2236e-001 -1.6945e+000  1.7561e+000 48716 80809,81043,81017
 7.5000e+000 81069 -1.7974e+000 -8.0834e-001 -1.8696e+000 48716 80913,80965,80939
 7.5000e+000 81279  6.4030e-001  4.7174e-001  1.1930e-001 48716 80887,80835,81253
 7.5000e+000 81302 -1.6257e+000  9.1055e-001 -6.8949e-001 48716 81325,80887,81253
 7.5000e+000 81351 -1.2851e+000  8.4043e-001 -6.7241e-001 48716 81469,80913,81325
 7.5000e+000 81374 -1.4935e+000  1.4266e+000 -6.5495e-001 48716 80991,81325,81253
 7.5000e+000 81423 -1.1853e+000  1.1471e+000  1.7962e-003 48716 80991,81253,81397
 7.5000e+000 81446 -8.7182e-001  6.3082e-002  8.5616e-002 48716 80991,81397,81017
 7.5000e+000 81495 -2.3562e+000  1.0189e+000 -9.5309e-001 48716 80991,80965,81469
 7.5000e+000 81518 -2.0636e+000  1.0490e+000 -8.1834e-001 48716 80991,81469,81325
 7.5000e+000 81717 -1.0088e-001 -9.7523e-004 -7.1389e-002 48262 81740,81567,81541
 7.5000e+000 81694  7.8555e-003  6.0694e-002 -9.8027e-002 48262 81740,81541,81645
 7.5000e+000 81671 -1.0795e-001 -2.2201e-001 -6.1935e-002 48262 81567,81619,81593
 7.5000e+000 81766 -3.9496e-002 -5.3956e-002  4.3213e-003 48262 81619,81567,81740
 7.5000e+000 81789  6.0564e-002 -3.2906e-003 -1.8052e-002 48262 81619,81740,81645
 7.5000e+000 81939  1.5416e+000  2.7580e+000 -5.1397e-001 47957 82034,81962,81864
 7.5000e+000 81916  4.3978e-001  2.0353e+000 -7.2409e-001 47957 82166,81962,81838
 7.5000e+000 81988  1.9187e+000  2.4203e+000  3.5822e-001 47957 82294,81962,81890
 7.5000e+000 82011  1.4373e+000  2.1280e+000  1.6103e-002 47957 81890,81962,81812
 7.5000e+000 82060  1.5147e+000  3.0177e+000 -3.0297e-001 47957 81838,81962,82034
 7.5000e+000 82192 -2.6244e-002  1.9494e+000  4.5339e-001 47957 81812,81962,82166
 7.5000e+000 82320  2.6057e+000  2.3133e+000  4.5607e-002 47957 81864,81962,82294
 7.5000e+000 82549 -2.2029e-001 -1.6052e-001 -1.3210e-001 47617 82448,82500,82474
 7.5000e+000 82526  2.3378e-002  3.6028e-001 -3.8526e-002 47617 82422,82500,82448
 7.5000e+000 82902  6.6630e-001  3.6104e-001 -1.5430e-001 47255 82729,82807,82755
 7.5000e+000 82879  8.3473e-001  6.9663e-001 -9.0333e-002 47255 82703,82807,82729
 7.5000e+000 82856  4.6182e-001  4.8980e-001  1.3909e-001 47255 82755,82807,82781
 7.5000e+000 82833  1.2171e+000  8.6041e-001 -5.1836e-002 47255 82677,82807,82703
 7.5000e+000 83182  1.6188e-001 -8.2589e-001  3.8170e-001 46680 83032,83084,83058
 7.5000e+000 83159  5.6370e-001 -4.8561e-001  6.0215e-001 46680 83205,83084,83032
 7.5000e+000 83136 -4.3888e-001  1.7687e-002  4.8280e-001 46680 83006,83110,83084
 7.5000e+000 83231  1.0145e+000 -4.6290e-002  8.3635e-001 46680 83006,83084,83205
 7.5000e+000 83737 -1.8179e+000 -5.5995e-001  3.3495e-001 46290 83832,83760,83492
 7.5000e+000 83714 -1.8271e+000 -2.7388e-001  2.8080e-001 46290 83760,83440,83414
 7.5000e+000 83691 -1.4066e+000 -8.1737e-001  2.5989e-001 46290 83832,83492,83466
 7.5000e+000 83668 -1.4922e+000 -1.3951e+000  4.8614e-001 46290 83492,83570,83544
 7.5000e+000 83645 -2.3706e+000 -7.7688e-001  6.6466e-002 46290 83414,83596,83570
 7.5000e+000 83622 -1.3482e+000 -1.0053e+000  7.4602e-001 46290 83492,83544,83518
 7.5000e+000 83786 -1.7279e+000 -5.1367e-001  2.5530e-001 46290 83570,83492,83760
 7.5000e+000 83809 -1.8198e+000 -6.7980e-001  8.0854e-002 46290 83570,83760,83414
 7.5000e+000 83858 -1.2947e+000 -2.3599e-001  4.8770e-001 46290 83440,83760,83832
 7.5000e+000 83881 -5.9135e-001 -4.6526e-001  3.3761e-001 46290 83440,83832,83466
 7.5000e+000 84161  1.1135e-002 -5.3732e-001  1.0730e-002 45829 84011,84063,84037
 7.5000e+000 84138 -2.4321e-001 -5.2315e-001 -7.6930e-002 45829 84011,84089,84063
 7.5000e+000 84115 -2.8700e-002 -4.2700e-001  6.5872e-003 45829 83985,84089,84011
 7.5000e+000 84311  1.0485e+000  1.5782e+000  2.0450e-001 45631 84184,84236,84210
 7.5000e+000 84288  5.5347e-001  5.3647e-004 -1.2996e-002 45631 84184,84262,84236
 7.5000e+000 84657 -2.0548e-001 -2.8427e-001 -7.1729e-002 45155 84680,84490,84412
 7.5000e+000 84634 -2.5285e-001 -1.8978e-001 -3.5780e-002 45155 84680,84412,84360
 7.5000e+000 84611 -3.4097e-001 -3.8177e-001  4.4090e-002 45155 84412,84490,84438
 7.5000e+000 84588 -4.1998e-002 -1.9423e-003 -6.7487e-002 45155 84334,84516,84360
 7.5000e+000 84565 -2.0798e-001 -5.8781e-002 -3.5030e-001 45155 84360,84412,84386
 7.5000e+000 84542 -3.0171e-001 -4.2303e-001  1.5258e-002 45155 84438,84490,84464
 7.5000e+000 84706 -2.1068e-001 -1.9343e-001 -9.1161e-002 45155 84516,84490,84680
 7.5000e+000 84729 -2.4969e-001 -9.0702e-002 -6.9223e-002 45155 84516,84680,84360
 7.5000e+000 85077 -7.8158e-002 -4.5614e-001 -2.4000e-001 44508 85100,84754,84910
 7.5000e+000 85054 -1.6640e-001  2.6329e-002 -9.0245e-002 44508 84754,84936,84910
 7.5000e+000 85031 -4.8352e-001 -8.2444e-001  8.5352e-002 44508 85100,84910,84884
 7.5000e+000 85008 -3.7033e-001 -3.4317e-002 -4.4013e-001 44508 84780,84884,84832
 7.5000e+000 84985 -4.2452e-001 -1.5683e-001 -4.3063e-001 44508 84780,84832,84806
 7.5000e+000 84962 -1.1381e+000 -8.3168e-001 -5.8818e-002 44508 84832,84884,84858
 7.5000e+000 85126 -4.0963e-001  8.1122e-002 -5.3710e-001 44508 84780,84754,85100
 7.5000e+000 85149 -7.1713e-001 -2.8115e-001 -2.4088e-001 44508 84780,85100,84884
 7.5000e+000 85482  9.1419e-002 -1.1017e-001 -1.1003e-001 44104 85335,85387,85361
 7.5000e+000 85459  3.7332e-002 -3.8392e-001 -5.3554e-002 44104 85309,85387,85335
 7.5000e+000 85436 -2.0287e-002 -2.7618e-001 -1.5302e-001 44104 85257,85387,85309
 7.5000e+000 85413 -1.1157e-001 -1.4307e-001 -2.2366e-002 44104 85257,85309,85283
 7.5000e+000 85811 -2.8241e-001 -3.3844e-001 -1.5800e-001 43600 85586,85664,85612
 7.5000e+000 85788 -2.3643e-001 -6.6686e-002 -1.1466e-001 43600 85586,85690,85664
 7.5000e+000 85765 -1.2888e-001  1.4389e-001 -2.1525e-001 43600 85586,85716,85690
 7.5000e+000 85742 -3.1666e-001 -2.7847e-001 -2.8116e-001 43600 85612,85664,85638
 7.5000e+000 86010  2.2965e-001  7.2355e-002 -2.1612e-001 43224 85886,85938,85912
 7.5000e+000 85987  2.4496e-001  4.5462e-002 -1.8402e-001 43224 85834,85938,85886
 7.5000e+000 85964  2.0323e-001 -7.1529e-001 -1.3933e-001 43224 85834,85886,85860
 7.5000e+000 86420  2.5516e+000  1.0327e+000 -1.8787e-002 42820 86195,86299,86221
 7.5000e+000 86397  2.4346e+000  2.1734e+000 -8.4248e-001 42820 86195,86325,86299
 7.5000e+000 86374  1.6449e+000  1.2692e+000  4.0147e-001 42820 86221,86299,86273
 7.5000e+000 86351  1.1985e+000  9.1916e-001 -6.1120e-002 42820 86221,86273,86247
 7.5000e+000 86749  4.7572e-001 -5.1185e-001 -1.5049e-001 42223 86550,86602,86576
 7.5000e+000 86726  2.1576e+000 -1.1553e+000  1.4811e-001 42223 86550,86628,86602
 7.5000e+000 86703  5.7076e-001 -1.6164e+000  9.2503e-001 42223 86524,86628,86550
 7.5000e+000 86680  1.5577e+000  5.1970e-001  6.3383e-001 42223 86524,86654,86628
 7.5000e+000 87078  7.3210e-001 -2.5572e-001  2.6512e-001 41883 87173,87101,86905
 7.5000e+000 87055  5.3056e-001  8.1751e-001  1.0377e-001 41883 87101,86879,86853
 7.5000e+000 87032  1.3526e-001  1.4408e-001 -7.0842e-002 41883 86853,86983,86931
 7.5000e+000 87009  1.7506e-001  4.1812e-001 -2.0031e-001 41883 86931,86983,86957
 7.5000e+000 87127  1.1327e+000  3.8111e-001 -1.9743e-001 41883 86931,86905,87101
 7.5000e+000 87150  1.4734e-001 -6.1103e-002 -7.6497e-002 41883 86931,87101,86853
 7.5000e+000 87199  2.5241e-001  1.2094e-001  3.5648e-001 41883 86879,87101,87173
 7.5000e+000 87558 -7.2970e-002  8.2021e-001 -2.8665e-001 41471 87382,87460,87408
 7.5000e+000 87535 -1.1966e+000  9.5608e-001 -1.1389e-001 41471 87382,87486,87460
 7.5000e+000 87512  2.1473e-001  7.7397e-002 -1.3206e-001 41471 87408,87460,87434
 7.5000e+000 87806  1.4049e-001  1.1208e-001 -4.6515e-001 41017 87829,87607,87581
 7.5000e+000 87783  1.2581e-001 -2.0591e-001 -1.0599e-001 41017 87829,87581,87685
 7.5000e+000 87760  4.6153e-001 -2.4622e-002 -2.1769e-001 41017 87581,87711,87685
 7.5000e+000 87737  2.7761e-001 -7.7331e-001 -2.7558e-002 41017 87633,87685,87659
 7.5000e+000 87855 -8.2307e-002 -7.1465e-002 -2.4915e-001 41017 87633,87607,87829
 7.5000e+000 87878 -1.7668e-001 -4.3125e-001  1.2006e-001 41017 87633,87829,87685
 7.5000e+000 88258  2.8592e-002  3.6170e-002 -1.2106e-002 40613 88281,88036,88010
 7.5000e+000 88235  2.1955e-002  2.3262e-002 -9.1251e-003 40613 88281,88010,88088
 7.5000e+000 88212  2.5815e-003  3.3387e-002 -2.0181e-002 40613 87984,88088,88010
 7.5000e+000 88189 -8.8924e-003  3.2532e-003 -7.6990e-003 40613 87984,88114,88088
 7.5000e+000 88166  1.9685e-002  1.9294e-002 -1.5545e-002 40613 87984,88140,88114
 7.5000e+000 88307  2.0653e-002  4.5932e-002 -2.7217e-003 40613 88062,88036,88281
 7.5000e+000 88330  7.0557e-003  2.2086e-002  3.5079e-003 40613 88062,88281,88088
 7.5000e+000 88649  1.6801e-003  6.9434e-002  8.9854e-003 40095 88375,88505,88401
 7.5000e+000 88626  1.5492e-002  6.2209e-002  1.3158e-002 40095 88375,88531,88505
 7.5000e+000 88603 -1.3801e-002  7.0539e-002  1.0759e-002 40095 88401,88505,88479
 7.5000e+000 88580 -1.6142e-001  1.3360e-001  6.2547e-002 40095 88427,88479,88453
 7.5000e+000 88557 -7.2288e-003  9.0454e-002  6.7179e-003 40095 88401,88479,88427
 7.5000e+000 89078  7.5288e-001 -1.3417e+000 -6.6385e-001 39897 89101,88833,88807
 7.5000e+000 89055  7.3725e-002 -1.6322e+000 -7.6535e-001 39897 89101,88807,88911
 7.5000e+000 89032 -7.6413e-001 -1.2740e+000 -1.3701e+000 39897 88781,88911,88807
 7.5000e+000 89009 -1.3302e+000 -1.7056e+000 -1.6706e+000 39897 88781,88937,88911
 7.5000e+000 88986  2.7688e+000  3.0638e-001 -4.9362e-001 39897 88833,88885,88859
 7.5000e+000 88963 -1.9241e+000 -1.4984e+000 -2.0288e+000 39897 88755,88937,88781
 7.5000e+000 89127  1.3674e+000 -1.7636e+000 -1.2834e+000 39897 88885,88833,89101
 7.5000e+000 89150  3.1086e-001 -2.2754e+000 -1.4955e+000 39897 88885,89101,88911
 7.5000e+000 89300 -1.6425e+000 -1.6015e+000  6.2167e-001 39607 89453,89323,89199
 7.5000e+000 89277 -2.4318e+000 -1.0119e+000  4.8498e-001 39607 89525,89453,89199
 7.5000e+000 89349 -1.1754e+000 -1.4736e+000 -2.1527e-002 39607 89225,89199,89323
 7.5000e+000 89479 -1.2317e+000 -6.8926e-001  4.2065e-001 39607 89251,89323,89453
 7.5000e+000 89502 -1.2836e+000 -1.2280e-001  1.0912e+000 39607 89251,89453,89173
 7.5000e+000 89551 -1.0609e+000 -6.7635e-001  6.5696e-001 39607 89173,89453,89525
 7.5000e+000 90264 -1.1161e+000 -1.7827e+000 -4.1151e-001 39039 89996,90074,90048
 7.5000e+000 90241 -6.6547e-001 -8.6069e-001 -2.5290e-001 39039 89918,90074,89996
 7.5000e+000 90218 -1.0802e+000 -1.0473e+000 -3.4938e-002 39039 89918,89996,89944
 7.5000e+000 90195 -1.3704e+000 -9.7462e-001  7.7369e-003 39039 89892,90074,89918
 7.5000e+000 90172 -1.9560e-001 -1.7011e+000 -4.5680e-001 39039 89996,90048,90022
 7.5000e+000 90149 -1.9667e+000  7.1852e-001 -1.0571e-001 39039 89892,90100,90074
 7.5000e+000 90126 -1.2390e+000 -1.1102e+000 -1.3320e-001 39039 89944,89996,89970
 7.5000e+000 90770 -4.0781e-001 -4.6976e-001 -7.8205e-002 38635 90473,90603,90577
 7.5000e+000 90747 -2.6728e-001 -4.4518e-001 -8.2473e-003 38635 90447,90603,90473
 7.5000e+000 90724 -3.9302e-001 -6.3862e-001 -7.8398e-002 38635 90499,90577,90551
 7.5000e+000 90701 -3.8350e-001 -6.3854e-001 -7.2269e-002 38635 90473,90577,90499
 7.5000e+000 90678 -2.9940e-001 -7.8140e-001 -9.1770e-002 38635 90499,90551,90525
 7.5000e+000 90655 -3.8150e-001 -3.4466e-001  2.7749e-002 38635 90447,90629,90603
 7.5000e+000 90871 -1.2588e-001 -3.0339e-001 -1.5096e-001 38231 90793,90845,90819
 7.5000e+000 91458  2.2894e-001 -2.1574e-001 -1.0388e-001 37534 91161,91317,91291
 7.5000e+000 91435  6.5249e-002  1.0491e-002  5.9048e-002 37534 91135,91317,91161
 7.5000e+000 91412 -1.8857e-001 -9.6751e-001 -5.0105e-001 37534 91187,91291,91239
 7.5000e+000 91389  4.8348e-002 -9.9931e-001  4.6583e-002 37534 91161,91291,91187
 7.5000e+000 91366  8.7067e-002 -5.7195e-001 -3.5100e-001 37534 91239,91291,91265
 7.5000e+000 91343  7.4982e-001 -9.5810e-001 -9.0414e-001 37534 91187,91239,91213
 7.5000e+000 91915 -6.5251e-001 -6.6070e-001  1.5676e-002 37080 91938,91745,91667
 7.5000e+000 91892 -6.3861e-001 -5.6571e-001  1.4649e-001 37080 91938,91667,91797
 7.5000e+000 91869 -8.7908e-001  1.8437e-001 -1.5680e-001 37080 91641,91797,91667
 7.5000e+000 91846 -8.0623e-001 -7.2373e-001  8.9072e-002 37080 91667,91719,91693
 7.5000e+000 91823 -7.8052e-001 -6.8844e-001  2.9477e-002 37080 91667,91745,91719
 7.5000e+000 91964 -5.5945e-001 -4.4220e-001  9.1134e-003 37080 91771,91745,91938
 7.5000e+000 91987 -6.1076e-001 -4.9408e-001  1.4650e-001 37080 91771,91938,91797
 7.5000e+000 92235 -4.6360e-001 -5.1212e-001 -3.2725e-002 36397 92036,92088,92062
 7.5000e+000 92212 -3.4146e-001 -3.7746e-001 -8.4857e-002 36397 92036,92114,92088
 7.5000e+000 92189 -1.9152e-001 -2.6558e-001 -5.2106e-003 36397 92036,92140,92114
 7.5000e+000 92166 -2.8810e-001 -1.8078e-001  3.0602e-003 36397 92010,92140,92036
 7.5000e+000 92694 -1.9688e-001 -6.5200e-003  3.7061e-002 36057 92446,92498,92472
 7.5000e+000 92671 -9.6001e-002  2.0472e-001  6.7363e-002 36057 92446,92550,92498
 7.5000e+000 92648  1.1891e-001 -1.1287e-002  2.2620e-002 36057 92446,92576,92550
 7.5000e+000 92625 -4.1202e-002 -1.0680e-001  7.3632e-002 36057 92420,92576,92446
 7.5000e+000 92602 -1.2569e-001 -7.5582e-002 -2.3707e-001 36057 92498,92550,92524
 7.5000e+000 93023 -5.0999e-001 -4.2144e-001 -1.1626e-001 35717 92876,92928,92902
 7.5000e+000 93000 -4.5344e-001 -4.5468e-001 -1.2864e-001 35717 92824,92928,92876
 7.5000e+000 92977 -2.2419e-001 -4.3093e-001 -7.5634e-002 35717 92798,92928,92824
 7.5000e+000 92954 -3.7897e-001 -5.3765e-001 -5.0010e-001 35717 92824,92876,92850
 7.5000e+000 93499  1.8267e-001 -6.4457e-001  2.9606e-001 35405 93522,93309,93257
 7.5000e+000 93476  3.5981e-001 -3.9365e-001  2.1860e-001 35405 93666,93522,93257
 7.5000e+000 93453  2.0439e-001 -2.1554e+000  2.9483e-001 35405 93594,93127,93335
 7.5000e+000 93430  4.7181e-002 -3.1075e-001  2.9899e-002 35405 93666,93257,93231
 7.5000e+000 93407 -7.5783e-001 -2.6995e+000 -6.4538e-001 35405 93127,93179,93153
 7.5000e+000 93384 -1.0818e+000  1.5324e-001  4.1158e-001 35405 93179,93231,93205
 7.5000e+000 93361  5.3449e-001  6.3381e-001  1.6052e-001 35405 93257,93309,93283
 7.5000e+000 93548  8.5713e-001 -1.6526e-001  8.1971e-001 35405 93335,93309,93522
 7.5000e+000 93571  3.9443e-001 -1.1001e+000  4.9337e-001 35405 93594,93335,93522
 7.5000e+000 93620  1.8211e-001 -1.0147e+000  1.8142e-001 35405 93179,93127,93594
 7.5000e+000 93643 -4.3467e-002 -5.5700e-001  1.7296e-001 35405 93738,93594,93522
 7.5000e+000 93692  6.0194e-002 -5.6929e-001  9.7714e-002 35405 93738,93522,93666
 7.5000e+000 93715 -1.5495e-001 -5.7157e-001 -8.2317e-002 35405 93179,93666,93231
 7.5000e+000 93764 -9.0269e-002 -6.4952e-001  2.2335e-001 35405 93179,93594,93738
 7.5000e+000 93787 -4.7290e-002 -6.8823e-001  1.5446e-001 35405 93179,93738,93666
 7.5000e+000 94372  5.2178e-001 -1.7780e-002 -3.0318e-002 34951 94395,94127,94075
 7.5000e+000 94349  9.9571e-001 -7.8469e-002  1.3075e-001 34951 94395,94075,94231
 7.5000e+000 94326 -4.9169e-003 -5.0332e-001  7.1871e-002 34951 94049,94231,94075
 7.5000e+000 94303 -4.5241e-001 -5.3154e-001  5.9386e-001 34951 94075,94127,94101
 7.5000e+000 94280  1.2522e+000  1.9630e-001  4.1851e-001 34951 94127,94205,94153
 7.5000e+000 94257  1.4475e+000  2.8224e-001  6.3363e-001 34951 94153,94205,94179
 7.5000e+000 94421  9.0295e-001 -1.4617e-001  2.5562e-001 34951 94205,94127,94395
 7.5000e+000 94444  1.7731e+000  4.1173e-002  3.9206e-001 34951 94205,94395,94231
 7.5000e+000 94692 -2.7573e-002  4.8512e-002  5.0210e-003 34397 94715,94519,94467
 7.5000e+000 94669 -3.0861e-002  5.2826e-002  7.8989e-003 34397 94715,94467,94597
 7.5000e+000 94646 -1.0624e-002 -1.5027e-002  1.7718e-002 34397 94545,94597,94571
 7.5000e+000 94623  4.9766e-002  2.3230e-001  8.8646e-004 34397 94467,94519,94493
 7.5000e+000 94741 -3.5865e-002  2.6605e-002  5.9688e-004 34397 94545,94519,94715
 7.5000e+000 94764 -2.8425e-002  4.5394e-002  5.0392e-003 34397 94545,94715,94597
 7.5000e+000 94985 -9.9685e-003  3.1942e-001 -9.9746e-003 33985 94835,94913,94887
 7.5000e+000 94962  7.0688e-002  5.4250e-001 -5.3840e-002 33985 94809,94913,94835
 7.5000e+000 94939  1.2420e-001  3.6256e-001 -3.4604e-002 33985 94835,94887,94861
 7.5000e+000 95186 -2.7715e-001 -4.2531e-001 -3.1093e-001 33645 95281,95209,95036
 7.5000e+000 95163  2.8901e-002 -6.4925e-001  4.8340e-002 33645 95209,95010,95088
 7.5000e+000 95140  2.8650e-001 -2.6695e-001 -7.2391e-002 33645 95010,95114,95088
 7.5000e+000 95235 -5.7600e-001 -4.7946e-001 -2.0588e-001 33645 95062,95036,95209
 7.5000e+000 95258 -4.0457e-001 -8.1732e-001  2.5705e-001 33645 95413,95209,95088
 7.5000e+000 95307 -1.3061e-001 -3.0298e-001 -3.6344e-001 33645 95010,95209,95281
 7.5000e+000 95439 -3.5925e-001 -6.7058e-001  2.1095e-001 33645 95062,95209,95413
 7.5000e+000 95766 -4.4998e-001  2.4986e-001 -6.0463e-001 33141 95789,95593,95567
 7.5000e+000 95743 -1.1089e-001 -3.8916e-002 -2.1344e-001 33141 95861,95789,95567
 7.5000e+000 95720 -1.4846e-001  4.3862e-002 -5.7388e-002 33141 95861,95567,95671
 7.5000e+000 95697 -1.4771e-001 -2.7592e-002 -8.0429e-002 33141 95541,95671,95567
 7.5000e+000 95815 -1.5292e-001  9.8908e-001 -5.3737e-001 33141 95619,95593,95789
 7.5000e+000 95838 -3.2424e-002  3.4311e-001 -2.2645e-001 33141 95619,95789,95645
 7.5000e+000 95887  1.4708e-002  2.3866e-001 -2.4119e-001 33141 95645,95789,95861
 7.5000e+000 95910 -3.9071e-002  3.1414e-001 -6.4638e-002 33141 95645,95861,95671
 7.5000e+000 96060 -5.6204e-001 -2.5593e-001 -3.3102e-001 32487 95959,96011,95985
 7.5000e+000 96037 -1.5905e-001 -2.0473e-001 -7.9512e-002 32487 95933,96011,95959
 7.5000e+000 96570 -2.1841e-001 -8.7982e-002  8.7851e-002 32033 96665,96593,96377
 7.5000e+000 96547 -3.8089e-001  1.9879e-001 -2.8818e-001 32033 96737,96593,96325
 7.5000e+000 96524 -2.5367e-001 -1.7965e-001  2.2547e-002 32033 96665,96377,96351
 7.5000e+000 96501 -3.8012e-001  3.7845e-001 -2.3350e-001 32033 96737,96325,96299
 7.5000e+000 96478 -3.2795e-001  2.7878e-001 -2.3101e-001 32033 96247,96429,96299
 7.5000e+000 96455 -7.0880e-001 -7.6957e-001 -2.0872e-001 32033 96247,96299,96273
 7.5000e+000 96619  6.9707e-002  8.2896e-002  3.4120e-002 32033 96809,96593,96403
 7.5000e+000 96642  2.9504e-001  6.8389e-001 -6.2212e-001 32033 96403,96593,96429
 7.5000e+000 96691 -5.9913e-002 -3.0810e-001 -2.1836e-002 32033 96325,96593,96665
 7.5000e+000 96714 -1.9547e-001 -4.7709e-001 -1.1125e-001 32033 96325,96665,96351
 7.5000e+000 96763 -4.1886e-001  9.6572e-002 -3.6956e-001 32033 96429,96593,96737
 7.5000e+000 96786 -4.1654e-001  2.2074e-001 -2.9514e-001 32033 96429,96737,96299
 7.5000e+000 96835  2.2945e-002  4.4500e-002  1.7008e-002 32033 96377,96593,96809
 7.5000e+000 97064  6.5869e-004  2.6393e-002  9.5949e-003 31671 97087,96989,96963
 7.5000e+000 97041  2.7092e-002  6.5560e-002 -6.9145e-002 31671 97087,96963,96937
 7.5000e+000 97113 -5.5664e-002  1.7865e-002  2.3684e-002 31671 97159,97087,97015
 7.5000e+000 97136  2.5824e-003 -2.9610e-002 -1.2477e-002 31671 97015,97087,96937
 7.5000e+000 97185 -1.9463e-002 -4.8832e-002  2.5007e-002 31671 96989,97087,97159
 7.5000e+000 97563 -2.0467e-002  1.0074e-001  1.0874e-002 31117 97586,97367,97341
 7.5000e+000 97540  1.3487e-002  6.2125e-002 -2.8404e-002 31117 97658,97586,97341
 7.5000e+000 97517  4.5970e-002  5.2722e-002 -1.5120e-002 31117 97658,97341,97315
 7.5000e+000 97494 -9.5722e-002 -9.0547e-003 -5.3062e-002 31117 97289,97445,97315
 7.5000e+000 97471 -4.2075e-002  1.4613e-002  9.9861e-003 31117 97367,97419,97393
 7.5000e+000 97612 -3.7342e-002 -3.0608e-002  3.2361e-002 31117 97419,97367,97586
 7.5000e+000 97635 -5.8534e-002  3.4164e-002 -6.1107e-002 31117 97419,97586,97445
 7.5000e+000 97684 -4.3504e-002  6.5145e-002 -2.8375e-002 31117 97445,97586,97658
 7.5000e+000 97707 -6.1007e-003  5.9996e-002 -1.4315e-002 31117 97445,97658,97315
 7.5000e+000 98215 -2.1063e-001  4.6348e-002 -2.8468e-001 30563 98238,97996,97944
 7.5000e+000 98192 -3.2753e-001  1.1914e-001 -2.7029e-001 30563 98310,98238,97944
 7.5000e+000 98169 -4.4896e-001 -2.1467e-001 -2.7695e-001 30563 98310,97944,97918
 7.5000e+000 98146 -1.8304e-001  2.4688e-002  4.5071e-002 30563 97892,98074,97918
 7.5000e+000 98123 -1.2251e-001  4.5195e-001 -2.9491e-001 30563 97996,98048,98022
 7.5000e+000 98100 -2.7603e-001  1.7743e-001 -5.1958e-001 30563 97944,97996,97970
 7.5000e+000 98264 -2.0326e-001  1.2979e-001 -2.8179e-001 30563 98048,97996,98238
 7.5000e+000 98287 -1.6953e-001  4.3608e-001 -1.2262e-002 30563 98048,98238,98074
 7.5000e+000 98336 -3.5740e-001 -5.2454e-002 -4.0831e-002 30563 98074,98238,98310
 7.5000e+000 98359 -3.6364e-001 -1.4990e-001 -2.6580e-002 30563 98074,98310,97918
 7.5000e+000 98607 -7.6751e-001  2.4170e-001 -7.8112e-003 30073 98630,98460,98408
 7.5000e+000 98584 -1.1268e+000  2.1220e-001 -6.5465e-002 30073 98630,98408,98382
 7.5000e+000 98561 -3.2798e-001  4.0106e-001 -2.0549e-001 30073 98382,98512,98486
 7.5000e+000 98538 -5.6143e-001  1.4774e-001  1.6481e-001 30073 98408,98460,98434
 7.5000e+000 98656 -5.8329e-001  1.2249e-001 -7.9059e-002 30073 98486,98460,98630
 7.5000e+000 98679 -8.2403e-001  1.8669e-001 -1.3188e-001 30073 98486,98630,98382
 7.5000e+000 99157  2.7609e-001 -2.0753e-001  2.2404e-001 29669 99180,98837,98811
 7.5000e+000 99134  3.3950e-001 -3.8982e-002  2.2043e-001 29669 99324,99180,98811
 7.5000e+000 99111  5.5321e-001  5.3152e-001 -3.3152e-001 29669 99252,98863,98837
 7.5000e+000 99088  2.3256e-001 -3.6264e-001  3.2336e-001 29669 99324,98811,98993
 7.5000e+000 99065 -7.6003e-001  8.4866e-001  1.6261e-001 29669 98863,98941,98915
 7.5000e+000 99042 -1.1047e-001  7.4723e-001  3.4680e-001 29669 98863,98915,98889
 7.5000e+000 99019 -1.7643e-002 -4.0419e-001  6.7477e-001 29669 98785,98993,98811
 7.5000e+000 99206  3.6652e-001 -1.5032e-001 -8.9376e-002 29669 99252,98837,99180
 7.5000e+000 99229 -5.8621e-002  2.8773e-001  1.2561e-001 29669 98941,99180,98967
 7.5000e+000 99278  1.3220e-001  1.0585e+000 -2.4757e-001 29669 98941,98863,99252
 7.5000e+000 99301  2.2986e-001  7.4582e-001  2.7034e-003 29669 98941,99252,99180
 7.5000e+000 99350  1.8228e-001  3.6470e-001  1.6408e-001 29669 98967,99180,99324
 7.5000e+000 99373  1.7493e-001  1.1987e-001  2.1468e-001 29669 98967,99324,98993
 7.5000e+000 99958  3.7120e-001  7.3621e-001  1.7851e-001 29051 99981,99765,99739
 7.5000e+000 99935 -6.0899e-002  7.8230e-002 -8.1085e-003 29051 99981,99739,99661
 7.5000e+000 99912  4.9950e-001 -4.4990e-001 -3.6192e-001 29051 99765,99817,99791
 7.5000e+000 99889 -9.5860e-001 -5.1009e-001  5.8909e-001 29051 99635,99817,99661
 7.5000e+000 99866 -1.1385e+000 -8.7063e-003  7.7457e-001 29051 99661,99739,99687
 7.5000e+000 99843 -1.3815e+000  3.4359e-001  4.0152e-001 29051 99687,99739,99713
 7.5000e+000 100007  6.1159e-001  9.6656e-002  2.4172e-001 29051 99817,99765,99981
 7.5000e+000 100030  4.2303e-001 -2.0911e-001  1.5766e-001 29051 99817,99981,99661
 7.5000e+000 100278  9.7244e-001  6.8936e-001  8.0645e-002 28525 100445,100301,100131
 7.5000e+000 100255  3.7339e-001  5.3976e-001  7.4795e-003 28525 100373,100301,100079
 7.5000e+000 100232  3.5007e-001  8.9547e-002  7.5553e-002 28525 100373,100079,100053
 7.5000e+000 100209  7.7824e-001  9.2823e-001 -1.3993e-001 28525 100445,100131,100105
 7.5000e+000 100327  1.8181e+000  3.5327e-001  2.1067e-002 28525 100517,100301,100157
 7.5000e+000 100350  6.5308e-001  4.0409e-001 -3.4446e-001 28525 100157,100301,100183
 7.5000e+000 100399  3.3488e-001  7.2976e-002  2.3624e-001 28525 100183,100301,100373
 7.5000e+000 100422  4.1530e-001 -2.4736e-001  2.9862e-001 28525 100183,100373,100053
 7.5000e+000 100471  7.1211e-001  4.1697e-001 -1.2275e-001 28525 100079,100301,100445
 7.5000e+000 100494  2.5026e-001  4.0766e-001 -3.9338e-001 28525 100079,100445,100105
 7.5000e+000 100543  1.4123e+000  2.7500e-001 -8.1427e-002 28525 100131,100301,100517
 7.5000e+000 101209 -1.4899e+000  4.1763e-001  4.7840e-002 28185 100938,101016,100990
 7.5000e+000 101186 -1.6255e+000  3.5929e-002 -1.7925e-001 28185 100912,101016,100938
 7.5000e+000 101163 -4.9731e-001  3.9794e-001 -5.6680e-002 28185 100912,101068,101016
 7.5000e+000 101140 -2.0531e+000 -4.4637e-001 -4.7527e-001 28185 100886,101068,100912
 7.5000e+000 101117 -5.6048e-001  1.5808e-001 -5.8902e-002 28185 101016,101068,101042
 7.5000e+000 101094 -4.0181e+000 -4.3768e-001  1.0672e-001 28185 100938,100990,100964
 7.5000e+000 101408  1.4768e-001  8.1670e-002 -2.6160e-001 27781 101503,101431,101310
 7.5000e+000 101385 -2.0331e-001  5.7924e-001 -5.2528e-001 27781 101431,101258,101232
 7.5000e+000 101362  3.0036e-001  1.9293e-002 -3.2977e-001 27781 101503,101310,101284
 7.5000e+000 101457  7.9567e-001  4.7062e-001 -4.3412e-001 27781 101336,101310,101431
 7.5000e+000 101480  2.5780e-001  8.5950e-001 -7.6462e-001 27781 101575,101431,101232
 7.5000e+000 101529  3.7808e-001  2.1023e-001 -4.7945e-001 27781 101258,101431,101503
 7.5000e+000 101552  1.9532e-001 -2.6400e-001 -2.9990e-001 27781 101705,101503,101284
 7.5000e+000 101601  3.2328e-001  8.9249e-001 -8.1458e-001 27781 101336,101431,101575
 7.5000e+000 101731 -2.0975e-002  3.1706e-002 -4.4405e-001 27781 101258,101503,101705
 7.5000e+000 102237 -8.0154e-001 -2.1606e-001  6.0262e-002 27419 102476,102260,101992
 7.5000e+000 102214 -5.5822e-001 -3.3903e-001 -4.3587e-002 27419 102260,101940,101914
 7.5000e+000 102191 -8.5112e-001 -3.9083e-001  1.1703e-001 27419 102404,102332,102096
 7.5000e+000 102168 -7.4555e-001 -3.4013e-001  2.2251e-002 27419 102404,102096,102044
 7.5000e+000 102145 -7.4507e-001 -2.5864e-001  9.3066e-002 27419 102476,101992,101966
 7.5000e+000 102122 -4.7604e-001 -4.3690e-001  9.3834e-003 27419 102044,102096,102070
 7.5000e+000 102286 -1.0491e+000 -4.2603e-001  1.7351e-001 27419 102018,101992,102260
 7.5000e+000 102309 -8.0678e-001 -3.0234e-001  1.6766e-002 27419 102332,102018,102260
 7.5000e+000 102358 -8.7742e-001 -7.2711e-001  2.4875e-001 27419 101914,102096,102332
 7.5000e+000 102381 -7.5525e-001 -4.7255e-001  4.9894e-002 27419 101914,102332,102260
 7.5000e+000 102430 -6.4614e-001 -3.7516e-001 -1.1631e-002 27419 102018,102332,102404
 7.5000e+000 102453 -5.5893e-001 -2.9089e-001 -1.1677e-001 27419 102018,102404,102044
 7.5000e+000 102502 -6.8249e-001 -2.7720e-001  9.3058e-002 27419 101940,102260,102476
 7.5000e+000 102525 -1.9602e-001 -7.4202e-002  6.5478e-002 27419 101940,102476,101966
 7.5000e+000 103031 -1.4123e+000  1.2387e+000  9.6018e-001 26715 102708,102786,102760
 7.5000e+000 103008 -2.2483e-001 -4.0875e-001  1.6486e-001 26715 102708,102890,102786
 7.5000e+000 102985  1.0860e+000 -7.0204e-001  1.0157e-001 26715 102838,102890,102864
 7.5000e+000 102962  2.9480e-001  1.0878e+000  1.1933e-001 26715 102786,102890,102838
 7.5000e+000 102939  1.4919e+000  1.6746e+000  7.2840e-001 26715 102786,102838,102812
 7.5000e+000 102916 -2.2306e+000 -7.2008e-002  3.9750e-001 26715 102708,102760,102734
 7.5000e+000 103279  7.9506e-003  3.5114e-002 -1.0260e-001 26303 103302,103158,103080
 7.5000e+000 103256  1.4973e-001 -8.7290e-002 -1.0884e-001 26303 103302,103080,103054
 7.5000e+000 103233  2.9479e-001  1.7597e-001 -4.6702e-002 26303 103080,103158,103106
 7.5000e+000 103210 -3.9343e-001 -1.0621e-002 -5.9479e-002 26303 103106,103158,103132
 7.5000e+000 103328 -2.2945e-001 -8.1092e-002 -5.0970e-002 26303 103184,103158,103302
 7.5000e+000 103351  4.1913e-002 -1.0335e-001 -8.3400e-002 26303 103184,103302,103054
 7.5000e+000 103501 -1.0086e+000 -8.5478e-002  6.2201e-002 25849 103374,103426,103400
 7.5000e+000 103478 -8.9231e-001 -4.0013e-001  4.5009e-003 25849 103374,103452,103426
 7.5000e+000 104090 -9.1939e-002  2.2084e-001  1.2278e-001 25445 103793,103871,103819
 7.5000e+000 104067  1.9665e-001  1.1211e-001  7.5758e-004 25445 103793,103949,103871
 7.5000e+000 104044  2.6754e-001  3.0334e-001 -5.2109e-003 25445 103871,103949,103923
 7.5000e+000 104021 -5.8684e-002  3.0196e-001  6.3347e-004 25445 103819,103871,103845
 7.5000e+000 103998  1.1137e-001  1.8488e-001  2.0309e-001 25445 103767,103949,103793
 7.5000e+000 103975  3.9902e-001  2.1453e-001 -1.7550e-002 25445 103871,103923,103897
 7.5000e+000 104419 -3.7421e-001 -7.9514e-002 -1.2769e-001 25083 104220,104298,104272
 7.5000e+000 104396 -7.2017e-001 -4.1190e-001  7.8535e-003 25083 104220,104324,104298
 7.5000e+000 104373 -2.7943e-001 -1.7480e-001 -2.1784e-002 25083 104220,104272,104246
 7.5000e+000 104350 -7.1771e-001 -3.3955e-001  2.9874e-002 25083 104194,104324,104220
 7.5000e+000 105102  5.1618e-002 -1.6070e-001 -1.2826e-001 24793 104785,104863,104837
 7.5000e+000 105079 -1.0523e-002 -4.4368e-001 -2.9172e-001 24793 104759,104863,104785
 7.5000e+000 105056 -9.4231e-002 -6.3864e-002 -3.0875e-001 24793 104759,104915,104863
 7.5000e+000 105033 -1.9515e-001 -7.4945e-002 -2.3164e-001 24793 104733,104915,104759
 7.5000e+000 105010  5.3054e-002 -1.3767e-002 -2.4816e-001 24793 104863,104915,104889
 7.5000e+000 104987 -3.2702e-001 -8.9454e-003 -3.2413e-001 24793 104681,104915,104733
 7.5000e+000 104964 -3.5070e-002 -2.7232e-001 -1.6887e-001 24793 104785,104837,104811
 7.5000e+000 104941 -1.9690e-001  2.8238e-001 -3.6054e-001 24793 104681,104733,104707
 7.5000e+000 105252  8.9300e-001  1.1893e+000 -9.2644e-002 24389 105477,105275,105177
 7.5000e+000 105229  9.1614e-001  1.2612e+000 -1.4238e-001 24389 105347,105275,105151
 7.5000e+000 105301  9.6037e-001  1.0850e+000 -1.2898e-001 24389 105203,105177,105275
 7.5000e+000 105324  9.5830e-001  1.0664e+000 -1.3842e-001 24389 105203,105275,105125
 7.5000e+000 105373  8.8705e-001  8.1570e-001 -4.9336e-002 24389 105125,105275,105347
 7.5000e+000 105503  1.0992e+000  1.4991e+000  2.9263e-002 24389 105151,105275,105477
 7.5000e+000 106088 -5.8318e-001  5.6972e-001  7.1959e-001 23735 105791,105921,105895
 7.5000e+000 106065 -2.0589e+000 -2.5476e-002  7.0162e-001 23735 105765,105921,105791
 7.5000e+000 106042 -3.6792e-001  6.6320e-001  3.7966e-001 23735 105765,105947,105921
 7.5000e+000 106019 -2.3710e+000  8.9365e-002  9.6499e-001 23735 105817,105895,105869
 7.5000e+000 105996 -1.4540e+000  3.3231e-001  8.5580e-001 23735 105791,105895,105817
 7.5000e+000 105973 -1.1250e+000  2.9094e-001  7.7613e-001 23735 105817,105869,105843
 7.5000e+000 106417  7.1486e-001  2.1322e+000 -4.7050e-001 23295 106218,106296,106270
 7.5000e+000 106394  2.3407e-001  7.0811e-001 -3.3598e-001 23295 106218,106322,106296
 7.5000e+000 106371  3.7980e-002  5.1022e-001 -4.1658e-001 23295 106218,106270,106244
 7.5000e+000 106348  4.7017e-001  8.0886e-001 -1.4082e-001 23295 106192,106322,106218
 7.5000e+000 106746  1.7141e-001  7.6689e-001  1.2307e-001 23005 106521,106599,106547
 7.5000e+000 106723  6.2372e-001  8.3322e-001  1.4742e-002 23005 106521,106651,106599
 7.5000e+000 106700  4.0687e-001  7.9178e-001  5.7949e-002 23005 106547,106599,106573
 7.5000e+000 106677  7.8573e-001  8.1328e-001  4.0121e-001 23005 106599,106651,106625
 7.5000e+000 107331 -4.1158e-001  2.2956e-001 -2.9716e-001 22601 107060,107190,107138
 7.5000e+000 107308 -1.3338e+000 -5.1774e-002 -6.3584e-001 22601 107034,107190,107060
 7.5000e+000 107285 -1.8739e+000 -4.4623e-001 -6.2821e-001 22601 107060,107138,107112
 7.5000e+000 107262 -2.0461e+000 -3.6583e-001 -6.8781e-001 22601 107008,107190,107034
 7.5000e+000 107239 -2.3181e-001  1.2244e+000 -1.3042e+000 22601 107060,107112,107086
 7.5000e+000 107216 -6.0647e-001  3.3623e-001 -1.5817e-001 22601 107138,107190,107164
 7.5000e+000 107807 -5.7750e-001  1.3784e-001 -1.0870e-001 22031 107974,107902,107617
 7.5000e+000 107784 -7.2013e-001  4.0584e-001 -2.6824e-001 22031 107830,107565,107513
 7.5000e+000 107761 -4.6980e-001  8.9976e-002 -2.9906e-001 22031 108046,107830,107513
 7.5000e+000 107738 -4.4511e-001  3.6292e-001  2.2964e-002 22031 107974,107617,107591
 7.5000e+000 107715 -5.1122e-001 -5.5666e-002 -2.5571e-001 22031 108046,107513,107461
 7.5000e+000 107692 -1.7794e+000  6.4190e-001 -4.9009e-001 22031 107513,107565,107539
 7.5000e+000 107669 -2.8155e-001  2.1680e-001 -3.9136e-001 22031 107461,107513,107487
 7.5000e+000 107856 -8.4740e-001  2.7221e-001 -1.8248e-001 22031 107902,107565,107830
 7.5000e+000 107879 -5.6821e-001 -1.0463e-001 -1.7668e-002 22031 107643,107830,107435
 7.5000e+000 107928 -1.1607e+000  5.4087e-001 -5.2141e-001 22031 107643,107617,107902
 7.5000e+000 107951 -8.1465e-001  2.4804e-001  2.9999e-002 22031 107643,107902,107830
 7.5000e+000 108000 -7.4867e-001  4.5682e-001 -1.3166e-001 22031 107565,107902,107974
 7.5000e+000 108023 -7.2007e-001  3.8325e-001 -9.8863e-002 22031 107565,107974,107591
 7.5000e+000 108072 -4.3094e-001 -9.8791e-002 -9.8702e-002 22031 107435,107830,108046
 7.5000e+000 108095 -5.2319e-001 -3.2992e-001 -5.4028e-002 22031 107435,108046,107461
 7.5000e+000 108196  3.2983e-002  2.9420e-002 -2.0545e-001 21783 108118,108170,108144
 7.5000e+000 108655  1.6854e-001  9.6603e-001  5.7000e-001 21379 108407,108485,108459
 7.5000e+000 108632  1.9247e+000 -3.1333e-002  7.9583e-001 21379 108407,108511,108485
 7.5000e+000 108609  1.9711e+000 -2.5687e-001  5.1490e-001 21379 108381,108511,108407
 7.5000e+000 108586  8.5274e-001  5.5858e-001 -6.3308e-001 21379 108381,108537,108511
 7.5000e+000 108563  5.1145e-001  1.2897e-001  2.5981e-001 21379 108407,108459,108433
 7.5000e+000 109082 -8.3387e-002  7.7818e-001  1.8830e-001 20974 109105,108863,108811
 7.5000e+000 109059  3.6639e-001  1.0236e+000 -1.4040e-001 20974 109105,108811,108759
 7.5000e+000 109036 -1.0134e-001  1.7913e+000 -2.1624e-001 20974 109177,108889,108863
 7.5000e+000 109013  8.2624e-001  1.4145e+000 -1.5476e-001 20974 108811,108863,108837
 7.5000e+000 108990 -4.0940e-001 -1.6380e-003 -7.9871e-002 20974 108759,108941,108915
 7.5000e+000 108967  1.2112e-001 -2.7126e-001  3.4242e-002 20974 108759,108811,108785
 7.5000e+000 109131  2.0785e-001  1.3707e+000  2.9912e-002 20974 109177,108863,109105
 7.5000e+000 109154  5.8716e-003  1.8306e-003 -3.7727e-002 20974 108915,109105,108759
 7.5000e+000 109203 -2.4750e-001  1.4525e+000  1.8381e-001 20974 108915,108889,109177
 7.5000e+000 109226 -2.0548e-001  5.6115e-001  4.0836e-001 20974 108915,109177,109105
 7.5000e+000 109496 -8.4288e-001  1.4112e-001 -6.9453e-002 20470 109271,109375,109297
 7.5000e+000 109473 -7.8597e-001  2.6337e-001 -1.3074e-001 20470 109271,109401,109375
 7.5000e+000 109450 -9.9901e-001 -8.9252e-002 -1.4887e-001 20470 109297,109375,109349
 7.5000e+000 109427 -1.3737e+000 -8.5980e-001  2.7421e-001 20470 109297,109349,109323
 7.5000e+000 109955  2.3706e-001  1.8308e+000  1.0193e+000 20123 110050,109733,109707
 7.5000e+000 109932 -7.3522e-001  8.6806e-001  5.3845e-001 20123 110050,109707,109681
 7.5000e+000 109909  2.2104e-001  5.5956e-001  6.6836e-001 20123 109978,109759,109733
 7.5000e+000 109886 -1.7126e-001  3.5366e-001  5.8098e-001 20123 110122,109978,109733
 7.5000e+000 109863  3.2765e-001  2.8378e-001  2.8286e-001 20123 109785,109837,109811
 7.5000e+000 110004  1.5736e-001  5.0046e-001  4.5743e-001 20123 109785,109759,109978
 7.5000e+000 110027  1.0258e-002  3.6407e-001  3.0862e-001 20123 109785,109978,109837
 7.5000e+000 110076 -3.6639e-001  6.4338e-001  4.5899e-001 20123 110122,109733,110050
 7.5000e+000 110099 -3.1565e-001  5.1496e-001  8.8051e-002 20123 109837,110050,109681
 7.5000e+000 110148  2.0563e-001  7.6866e-001  4.1297e-001 20123 109837,109978,110122
 7.5000e+000 110171  2.5698e-002  1.0159e+000  2.8586e-001 20123 109837,110122,110050
 7.5000e+000 110500  1.2389e+000  4.0226e-001 -2.9289e-001 19511 110301,110379,110353
 7.5000e+000 110477  1.7440e+000  1.0089e+000 -5.1066e-001 19511 110301,110405,110379
 7.5000e+000 110454  4.5561e-001  3.8599e-001 -2.9304e-001 19511 110275,110405,110301
 7.5000e+000 110431  1.0650e+000  5.4660e-001  5.2026e-001 19511 110301,110353,110327
 7.5000e+000 110957  3.6150e-001  1.2665e+000 -7.8640e-001 19107 110683,110735,110709
 7.5000e+000 110934  1.7764e-001 -2.4740e-001 -1.0493e+000 19107 110683,110813,110735
 7.5000e+000 110911  4.8366e-001  7.0827e-001 -9.9073e-001 19107 110735,110813,110761
 7.5000e+000 110888 -7.9048e-001 -7.1489e-001 -9.0405e-001 19107 110683,110839,110813
 7.5000e+000 110865  2.0616e-001  7.4336e-002 -9.5220e-001 19107 110761,110813,110787
 7.5000e+000 111335 -2.3308e-001 -2.8344e-001 -1.7613e-001 18653 111087,111165,111139
 7.5000e+000 111312 -9.8327e-002 -1.1965e-001 -2.3890e-001 18653 111087,111217,111165
 7.5000e+000 111289 -2.0048e-001 -1.7820e-001 -1.3749e-001 18653 111061,111217,111087
 7.5000e+000 111266 -8.5345e-002 -3.1217e-002 -9.9569e-002 18653 111087,111139,111113
 7.5000e+000 111243 -1.1165e-001 -2.0322e-001 -1.6687e-001 18653 111165,111217,111191
 7.5000e+000 111735 -1.1552e+000 -3.5403e-001 -7.1075e-002 18213 111461,111513,111487
 7.5000e+000 111712 -1.3272e+000 -8.1237e-001  9.9851e-003 18213 111461,111617,111513
 7.5000e+000 111689 -1.2732e+000 -7.3385e-001 -1.9086e-001 18213 111513,111617,111591
 7.5000e+000 111666 -5.9237e-001 -3.2537e-001  5.5653e-002 18213 111513,111591,111539
 7.5000e+000 111643 -3.6767e-001 -3.8800e-001 -4.8536e-003 18213 111539,111591,111565
 7.5000e+000 111885  7.6368e-001 -3.7958e-001  2.6718e-001 17659 111784,111836,111810
 7.5000e+000 111862  1.7376e+000  5.4675e-001  6.6568e-001 17659 111758,111836,111784
 7.5000e+000 112287 -1.1487e-002  9.2366e-001 -3.5924e-001 17411 112065,112169,112143
 7.5000e+000 112264 -2.2580e+000 -6.1834e-003  3.7886e-001 17411 112039,112169,112065
 7.5000e+000 112241 -2.5701e+000  3.0587e-001 -6.6625e-001 17411 112013,112169,112039
 7.5000e+000 112218  3.5713e+000  1.2370e+000 -6.9493e-001 17411 112091,112143,112117
 7.5000e+000 112195 -1.4456e-001 -1.2523e-001  3.3747e-001 17411 112065,112143,112091
 7.5000e+000 112508 -8.3944e-001  5.3213e-001  9.5134e-002 17007 112384,112436,112410
 7.5000e+000 112485 -6.4462e-001  7.1843e-001  1.7550e-001 17007 112332,112436,112384
 7.5000e+000 112462 -8.2879e-001  3.5839e-001  1.1053e-001 17007 112332,112384,112358
 7.5000e+000 112658 -2.0896e+000 -4.2789e-001  3.1811e-001 16553 112557,112609,112583
 7.5000e+000 112635 -1.9947e+000 -3.1069e-001  3.6598e-001 16553 112531,112609,112557
 7.5000e+000 112761 -5.2161e-001  1.8476e+000 -3.2603e-001 16355 112683,112735,112709
 7.5000e+000 112913 -1.3286e+000  6.9257e-001  7.7833e-002 15949 112786,112838,112812
 7.5000e+000 112890 -6.5628e-001  1.8447e+000 -2.4272e-001 15949 112786,112864,112838
 7.5000e+000 113065  1.8420e-001 -2.0430e-001 -7.5553e-002 15609 112938,112990,112964
 7.5000e+000 113042  6.2668e-001 -1.7953e-002 -1.8978e-003 15609 112938,113016,112990
 7.5000e+000 113420  7.9074e-001  7.5123e-001  2.6301e-001 15284 113247,113325,113299
 7.5000e+000 113397  7.4612e-001  6.4189e-001  1.6287e-001 15284 113195,113325,113247
 7.5000e+000 113374  6.2439e-001  6.1928e-001  1.1365e-001 15284 113195,113247,113221
 7.5000e+000 113351  7.9790e-001  1.2781e+000  3.2037e-001 15284 113247,113299,113273
 7.5000e+000 113521  4.4835e-001 -4.3239e-001  2.9696e-001 202 113443,113495,113469
 8.0000e+000 65564  3.6796e-002 -6.5122e-003 -7.8591e-003 65155 65414,65466,65440
 8.0000e+000 65541  2.8106e-002  5.4331e-002  1.4054e-002 65155 65414,65492,65466
 8.0000e+000 65518 -1.0407e-002  4.5160e-002 -6.0711e-003 65155 65388,65492,65414
 8.0000e+000 65883 -2.3454e-001  7.5316e-001 -3.5785e-002 64957 65635,65739,65713
 8.0000e+000 65860 -7.0548e-002  1.5208e+000 -2.7245e-002 64957 65635,65765,65739
 8.0000e+000 65837  1.2955e-001  1.6044e+000 -3.3579e-002 64957 65609,65765,65635
 8.0000e+000 65814 -1.5649e-001  1.0967e+000 -3.9458e-001 64957 65635,65713,65687
 8.0000e+000 65791 -6.1337e-002  1.3509e+000 -2.5347e-001 64957 65635,65687,65661
 8.0000e+000 65984 -2.7088e-001  2.7728e-001  1.9121e-001 64781 65906,65958,65932
 8.0000e+000 66232  3.5565e-001  4.4534e-001 -3.9846e-001 64469 66007,66059,66033
 8.0000e+000 66209 -2.7306e-001 -7.1663e-002 -6.2291e-001 64469 66007,66085,66059
 8.0000e+000 66186  9.0666e-002  8.7774e-001 -1.9621e-001 64469 66007,66137,66085
 8.0000e+000 66163 -5.6106e-001  3.6575e-002 -9.6155e-001 64469 66085,66137,66111
 8.0000e+000 66504  1.1877e-002  1.5111e+000 -9.4567e-002 64271 66279,66383,66305
 8.0000e+000 66481 -1.7699e-001  1.5357e+000  5.5989e-002 64271 66279,66409,66383
 8.0000e+000 66458 -2.7236e-001  1.9313e+000 -1.2157e-001 64271 66305,66357,66331
 8.0000e+000 66435  6.0382e-002  1.9066e+000 -1.1503e-001 64271 66305,66383,66357
 8.0000e+000 66705 -4.0347e-002  1.5536e+000 -2.3733e-001 64073 66728,66581,66555
 8.0000e+000 66682  6.8390e-003  1.5790e+000 -2.2383e-001 64073 66728,66555,66529
 8.0000e+000 66659 -6.5044e-001  2.0099e+000  5.7806e-001 64073 66581,66633,66607
 8.0000e+000 66754 -8.5776e-002  1.5847e+000 -2.4879e-001 64073 66633,66581,66728
 8.0000e+000 66777 -5.1495e-002  1.6051e+000 -2.3364e-001 64073 66633,66728,66529
 8.0000e+000 66951  2.3165e-001 -2.8054e-002  2.9819e-001 63783 66824,66876,66850
 8.0000e+000 66928 -8.2248e-001  6.2631e-001 -1.0370e-001 63783 66824,66902,66876
 8.0000e+000 67201  6.0039e-001  1.7412e+000 -1.1061e-001 63585 66976,67080,67054
 8.0000e+000 67178  2.7377e-001  1.6101e+000 -1.9257e-001 63585 66976,67106,67080
 8.0000e+000 67155  3.1281e-001  8.3267e-001 -1.5025e-002 63585 66976,67054,67028
 8.0000e+000 67132  4.5961e-001  1.0683e+000  2.9090e-001 63585 66976,67028,67002
 8.0000e+000 67654 -1.6598e-001  1.0784e+000  4.2693e-002 63295 67357,67487,67383
 8.0000e+000 67631 -2.0579e-001  1.5195e+000 -3.1145e-001 63295 67331,67487,67357
 8.0000e+000 67608  7.8901e-002  1.9760e+000  7.8013e-002 63295 67331,67513,67487
 8.0000e+000 67585 -2.3638e-002  2.0654e+000 -7.8361e-002 63295 67435,67487,67461
 8.0000e+000 67562  8.2069e-002  1.9934e+000  4.3345e-002 63295 67383,67487,67435
 8.0000e+000 67539  5.6202e-004  1.5418e+000 -7.6584e-002 63295 67383,67435,67409
 8.0000e+000 67853 -3.1968e-002  1.2921e+000 -3.1407e-002 62891 67876,67703,67677
 8.0000e+000 67830  5.1600e-002  1.6855e+000 -7.9679e-003 62891 67876,67677,67781
 8.0000e+000 67807 -2.1724e-001  1.0374e+000 -1.2515e-001 62891 67948,67729,67703
 8.0000e+000 67902 -3.9536e-002  1.2089e+000 -2.1897e-001 62891 67948,67703,67876
 8.0000e+000 67925  3.3576e-001  1.3662e+000 -2.4594e-001 62891 67755,67876,67781
 8.0000e+000 67974  6.1508e-002  8.3138e-001 -8.0173e-002 62891 67755,67729,67948
 8.0000e+000 67997  1.1099e-001  9.0906e-001 -1.3819e-001 62891 67755,67948,67876
 8.0000e+000 68218  2.5504e-002 -5.1095e-002 -3.7436e-002 62693 68042,68120,68068
 8.0000e+000 68195 -2.4141e-003 -4.4058e-002  5.2706e-003 62693 68042,68146,68120
 8.0000e+000 68172 -8.0327e-002  5.8852e-002 -2.7924e-002 62693 68068,68120,68094
 8.0000e+000 68468  6.9780e-002 -1.0060e-003 -1.4221e-002 62289 68491,68295,68269
 8.0000e+000 68445  1.4706e-002 -1.8924e-002 -2.5274e-002 62289 68563,68491,68269
 8.0000e+000 68422  5.0214e-003  1.7595e-002  3.9665e-003 62289 68563,68269,68243
 8.0000e+000 68399 -5.8159e-002 -1.0012e-001 -8.0562e-002 62289 68295,68347,68321
 8.0000e+000 68517  4.2483e-002 -9.2689e-003 -3.2677e-002 62289 68347,68295,68491
 8.0000e+000 68540 -2.1163e-002  4.7227e-003 -5.2303e-002 62289 68347,68491,68373
 8.0000e+000 68589  4.1752e-002  5.4057e-002 -3.0224e-002 62289 68373,68491,68563
 8.0000e+000 68612  1.7377e-002  6.5582e-002  7.5519e-004 62289 68373,68563,68243
 8.0000e+000 68911  5.1814e-002  1.1822e+000 -4.6853e-002 62091 69222,68934,68741
 8.0000e+000 68888 -2.8602e-001  1.2981e+000 -5.6563e-002 62091 69006,68934,68689
 8.0000e+000 68865 -4.5363e-001  1.1125e+000 -2.3566e-001 62091 69006,68689,68663
 8.0000e+000 68842  2.3438e-001  1.5657e+000  2.5011e-001 62091 69078,68793,68767
 8.0000e+000 68819  6.4119e-002  1.1947e+000 -1.0855e-001 62091 69222,68741,68715
 8.0000e+000 68960  2.6428e-001  1.3943e+000 -1.3398e-001 62091 68767,68741,68934
 8.0000e+000 68983  1.1098e-001  1.6596e+000  5.9447e-002 62091 69078,68767,68934
 8.0000e+000 69032 -2.1568e-001  1.4799e+000 -1.3754e-002 62091 69150,69006,68637
 8.0000e+000 69055 -2.2806e-001  1.4006e+000 -7.2409e-002 62091 68637,69006,68663
 8.0000e+000 69104  1.4981e-001  1.3676e+000  5.9921e-003 62091 68637,68793,69078
 8.0000e+000 69127 -1.9207e-001  1.4619e+000 -2.6553e-002 62091 69150,68637,69078
 8.0000e+000 69176 -1.1341e-001  1.3087e+000  2.7382e-003 62091 68934,69006,69150
 8.0000e+000 69199  2.2588e-002  1.4199e+000 -5.6182e-002 62091 68934,69150,69078
 8.0000e+000 69248  2.4069e-002  1.1108e+000 -5.2629e-002 62091 68689,68934,69222
 8.0000e+000 69271  3.3245e-002  1.0917e+000 -9.4892e-002 62091 68689,69222,68715
 8.0000e+000 69521 -2.2683e-001  7.5309e-002 -1.5339e-002 61893 69544,69348,69296
 8.0000e+000 69498 -7.2764e-002  1.0509e-001  1.0676e-002 61893 69544,69296,69400
 8.0000e+000 69475  2.1993e-002  1.0473e-001 -9.1402e-003 61893 69296,69426,69400
 8.0000e+000 69452  1.9751e-002 -4.7728e-002 -1.9295e-001 61893 69296,69348,69322
 8.0000e+000 69570 -1.4586e-001  4.8439e-003  1.0510e-001 61893 69374,69348,69544
 8.0000e+000 69593  1.2638e-001  1.0057e-001  1.2323e-001 61893 69374,69544,69400
 8.0000e+000 70046 -1.1091e-001  1.2484e+000 -2.8597e-002 61467 69749,69905,69879
 8.0000e+000 70023 -1.3580e-001  1.0287e+000 -2.9696e-001 61467 69723,69905,69749
 8.0000e+000 70000 -1.7788e-001  1.1340e+000 -1.0735e-003 61467 70069,69827,69775
 8.0000e+000 69977  1.6489e-001  1.9225e+000 -2.7318e-001 61467 70069,69775,69749
 8.0000e+000 69954  2.3661e-002  5.4838e-001 -1.6957e-003 61467 70141,69853,69827
 8.0000e+000 69931 -3.1539e-001  1.2200e+000  3.8082e-001 61467 69775,69827,69801
 8.0000e+000 70095 -8.4106e-002  7.0828e-001  1.0143e-001 61467 70141,69827,70069
 8.0000e+000 70118 -1.2576e-001  1.1432e+000 -8.1869e-003 61467 69879,70069,69749
 8.0000e+000 70167 -9.7463e-002  7.9397e-001 -9.5968e-003 61467 69879,69853,70141
 8.0000e+000 70190 -3.5217e-002  1.1731e+000  9.7475e-002 61467 69879,70141,70069
 8.0000e+000 70291  1.6542e-001  2.0781e+000  2.1628e-001 61013 70213,70265,70239
 8.0000e+000 70441 -6.8736e-002 -4.4088e-002  3.7614e-002 60651 70340,70392,70366
 8.0000e+000 70418 -9.2428e-002  3.3244e-002 -3.1999e-003 60651 70314,70392,70340
 8.0000e+000 70642 -9.6305e-002  1.1219e+000  3.1066e-001 60311 70665,70492,70466
 8.0000e+000 70619  7.5583e-002  1.5233e+000  3.0231e-001 60311 70665,70466,70570
 8.0000e+000 70596 -3.4030e-001  3.8826e-001  4.0516e-002 60311 70492,70544,70518
 8.0000e+000 70691 -3.1980e-003  7.3074e-001 -1.1357e-001 60311 70544,70492,70665
 8.0000e+000 70714  2.6372e-001  1.3493e+000 -1.3486e-001 60311 70544,70665,70570
 8.0000e+000 70964 -2.7786e-001  8.7779e-001  4.8586e-002 59907 70987,70765,70739
 8.0000e+000 70941 -5.7634e-002  1.3796e+000 -5.2636e-002 59907 71059,70987,70739
 8.0000e+000 70918  8.8389e-002  2.0974e+000 -1.3504e-001 59907 71059,70739,70869
 8.0000e+000 70895  2.6506e-002  1.4070e+000 -9.9850e-002 59907 70817,70869,70843
 8.0000e+000 71013 -9.8392e-002  9.1583e-001 -2.3380e-001 59907 70791,70765,70987
 8.0000e+000 71036 -3.8461e-002  9.2206e-001 -2.0488e-001 59907 70791,70987,70817
 8.0000e+000 71085  1.0319e-001  9.0002e-001 -1.6603e-001 59907 70817,70987,71059
 8.0000e+000 71108 -3.7303e-002  1.2145e+000 -1.2074e-001 59907 70817,71059,70869
 8.0000e+000 71441  5.0524e-001  6.9317e-001 -1.0876e+000 59417 71464,71242,71216
 8.0000e+000 71418  8.7100e-001  9.9456e-001  1.1957e-001 59417 71464,71216,71320
 8.0000e+000 71395  4.6040e-001  1.1846e+000  2.7288e-001 59417 71216,71346,71320
 8.0000e+000 71372 -1.4388e+000  1.9768e-001 -1.5025e-001 59417 71268,71320,71294
 8.0000e+000 71490 -3.0572e-001  3.7304e-001 -1.2972e+000 59417 71268,71242,71464
 8.0000e+000 71513 -8.5528e-001  3.8975e-001 -1.4422e-002 59417 71268,71464,71320
 8.0000e+000 71712  1.9313e-002  1.2073e+000 -1.8048e-001 58913 71562,71614,71588
 8.0000e+000 71689  9.0930e-001  1.0688e+000 -5.5096e-001 58913 71536,71614,71562
 8.0000e+000 71666  6.4896e-001  8.5369e-001 -4.5596e-001 58913 71536,71640,71614
 8.0000e+000 72171  6.7217e-001  1.5043e+000 -3.4584e-001 58409 72194,72027,72001
 8.0000e+000 72148  5.0442e-001  8.1246e-001 -4.1016e-001 58409 72194,72001,71949
 8.0000e+000 72125  1.7473e-001  1.1430e+000 -3.8392e-001 58409 71923,72053,71949
 8.0000e+000 72102  8.1383e-002  5.5116e-001 -2.6611e-001 58409 71949,72001,71975
 8.0000e+000 72079  3.8295e-001  1.1904e+000 -4.0819e-001 58409 71897,72053,71923
 8.0000e+000 72220  5.7790e-001  1.6150e+000 -2.2775e-003 58409 72053,72027,72194
 8.0000e+000 72243  5.4869e-001  1.2762e+000 -1.2844e-001 58409 72053,72194,71949
 8.0000e+000 72491 -1.9600e+000 -8.1962e-001 -1.2763e+000 57855 72514,72318,72292
 8.0000e+000 72468  1.1063e+000  4.3640e-001 -1.3992e+000 57855 72514,72292,72266
 8.0000e+000 72445 -1.1204e+000  1.2752e-001  2.9208e-002 57855 72318,72396,72370
 8.0000e+000 72422 -3.0072e+000  9.5648e-001 -9.5515e-001 57855 72318,72370,72344
 8.0000e+000 72540 -2.2474e+000 -3.6847e-001 -8.2672e-001 57855 72396,72318,72514
 8.0000e+000 72563 -1.9550e+000 -3.4868e-001 -8.5424e-001 57855 72396,72514,72266
 8.0000e+000 72811  1.0676e+000  2.0831e-001 -6.3607e-001 57401 72612,72690,72638
 8.0000e+000 72788  1.6181e-001 -1.5974e-001  5.0133e-002 57401 72586,72690,72612
 8.0000e+000 72765 -5.9401e-001 -9.0301e-001 -1.1176e+000 57401 72638,72690,72664
 8.0000e+000 72742  2.4050e-001  9.4112e-001 -2.3087e-001 57401 72586,72716,72690
 8.0000e+000 73144  1.1539e-001  7.1774e-001 -1.8056e-001 57004 72919,72997,72945
 8.0000e+000 73121  1.7967e-001  1.4755e+000 -3.8308e-001 57004 72919,73049,72997
 8.0000e+000 73098  9.1156e-002  9.6946e-001 -3.5809e-001 57004 72945,72997,72971
 8.0000e+000 73075  2.7807e-001  1.8072e+000 -4.4892e-001 57004 72997,73049,73023
 8.0000e+000 73650 -1.2851e+000  1.6474e+000 -1.1245e+000 56592 73673,73379,73353
 8.0000e+000 73627  1.6917e+000  2.2119e+000 -1.7946e+000 56592 73673,73353,73327
 8.0000e+000 73604  1.4793e-001  1.4727e+000 -4.8493e-001 56592 73745,73509,73483
 8.0000e+000 73581 -2.3331e+000 -5.4337e-001 -3.5229e-001 56592 73379,73457,73405
 8.0000e+000 73558  3.7841e-001  3.2612e-001  1.3223e-001 56592 73379,73483,73457
 8.0000e+000 73535  2.2280e+000  5.1590e-001 -1.1708e-001 56592 73405,73457,73431
 8.0000e+000 73699 -1.0391e+000  1.1250e+000  2.7037e-001 56592 73483,73379,73673
 8.0000e+000 73722 -2.4182e-002  1.7803e+000 -5.8276e-001 56592 73745,73483,73673
 8.0000e+000 73771 -1.1817e-002  1.1376e+000 -5.3886e-001 56592 73327,73509,73745
 8.0000e+000 73794 -2.4885e-001  1.3691e+000 -6.7988e-001 56592 73327,73745,73673
 8.0000e+000 74123  1.2264e+000  8.6379e-001 -1.8866e-001 56152 74146,74002,73924
 8.0000e+000 74100  1.0467e+000  6.6798e-001 -3.1334e-002 56152 74146,73924,73898
 8.0000e+000 74077  1.4188e+000  1.1198e+000 -2.8709e-001 56152 73924,74002,73976
 8.0000e+000 74054  1.0499e+000  2.7607e-001  1.6147e-001 56152 73924,73976,73950
 8.0000e+000 74172  1.6236e+000  1.1560e+000 -3.8647e-001 56152 74028,74002,74146
 8.0000e+000 74195  1.2514e+000  7.7201e-001 -1.8362e-001 56152 74028,74146,73898
 8.0000e+000 74345 -8.4460e-001  1.1238e-001  3.9256e-001 55634 74218,74270,74244
 8.0000e+000 74322  4.6177e-002  1.3919e-001  1.5843e-001 55634 74218,74296,74270
 8.0000e+000 74823  4.2946e-001 -1.2786e+000  5.0060e-001 55016 74918,74846,74581
 8.0000e+000 74800 -1.1016e-001  7.1297e-002  2.7903e-001 55016 74846,74477,74633
 8.0000e+000 74777 -4.0524e-001 -2.2013e+000  8.6074e-001 55016 74918,74581,74555
 8.0000e+000 74754 -8.0944e-001 -1.2665e+000  9.2837e-001 55016 74990,74503,74477
 8.0000e+000 74731 -1.3786e+000 -1.6459e-001  6.6990e-001 55016 74451,74633,74477
 8.0000e+000 74708 -1.4492e+000  9.2992e-001  2.6558e-001 55016 74451,74659,74633
 8.0000e+000 74685 -1.8820e+000 -2.4345e+000  1.7710e+000 55016 74503,74555,74529
 8.0000e+000 74872  4.0749e-001 -1.4154e+000  3.7271e-001 55016 74607,74581,74846
 8.0000e+000 74895 -9.0963e-002 -1.1076e+000  2.9385e-001 55016 74607,74846,74633
 8.0000e+000 74944 -7.9968e-001 -1.1950e+000  7.4249e-001 55016 74477,74846,74918
 8.0000e+000 74967 -8.8237e-001 -1.2616e+000  8.2185e-001 55016 74990,74477,74918
 8.0000e+000 75016 -5.5572e-001 -1.1510e+000  1.0286e+000 55016 74555,74503,74990
 8.0000e+000 75039 -6.5248e-001 -1.2084e+000  9.0399e-001 55016 74555,74990,74918
 8.0000e+000 75287 -1.9559e+000 -3.3481e+000 -5.1220e-002 54726 75310,75140,75114
 8.0000e+000 75264 -2.4587e+000 -2.1360e+000 -3.5828e-001 54726 75310,75114,75088
 8.0000e+000 75241 -2.4612e+000 -1.6243e+000 -1.3496e+000 54726 75088,75192,75166
 8.0000e+000 75218 -3.9556e+000  5.2897e-002 -1.1422e+000 54726 75062,75192,75088
 8.0000e+000 75336 -1.3314e+000 -2.6590e+000 -7.7305e-001 54726 75166,75140,75310
 8.0000e+000 75359 -2.3239e+000 -1.4589e+000 -7.8307e-001 54726 75166,75310,75088
 8.0000e+000 75946 -1.6936e-001  1.4695e-002  1.5254e-001 54322 75969,75701,75649
 8.0000e+000 75923 -5.8065e-001 -2.7134e-001  2.7985e-001 54322 75969,75649,75623
 8.0000e+000 75900 -3.3721e-001 -1.8466e-001 -6.4127e-002 54322 76041,75753,75701
 8.0000e+000 75877 -1.8931e-001  6.2184e-001  1.3666e-003 54322 75623,75805,75779
 8.0000e+000 75854 -4.3349e-001 -1.7639e-001 -1.8594e-001 54322 75701,75753,75727
 8.0000e+000 75831 -2.0815e-001 -1.6991e-001 -9.4847e-003 54322 75649,75701,75675
 8.0000e+000 75995 -4.6282e-001 -1.0632e-001  4.9234e-002 54322 76041,75701,75969
 8.0000e+000 76018 -4.3910e-001  1.0090e-001  1.4142e-001 54322 75779,75969,75623
 8.0000e+000 76067 -2.8283e-001  2.4296e-002 -1.0783e-001 54322 75779,75753,76041
 8.0000e+000 76090 -3.5864e-001  1.7786e-001  8.3916e-003 54322 75779,76041,75969
 8.0000e+000 76468 -7.8595e-002  1.5581e-001 -3.2667e-002 53868 76491,76272,76220
 8.0000e+000 76445 -7.2473e-002  1.7328e-001 -4.8176e-002 53868 76491,76220,76324
 8.0000e+000 76422  2.6132e-002  9.7199e-002 -1.0309e-001 53868 76220,76272,76246
 8.0000e+000 76399 -9.9473e-002  4.9445e-001  1.0379e-001 53868 76194,76324,76220
 8.0000e+000 76376 -5.8205e-001  2.9761e-001  9.5977e-003 53868 76194,76350,76324
 8.0000e+000 76517 -8.0065e-002  1.3029e-001 -2.0869e-002 53868 76298,76272,76491
 8.0000e+000 76540 -6.9759e-002  1.5306e-001 -3.6721e-002 53868 76298,76491,76324
 8.0000e+000 76690 -5.5926e-002  2.1763e-001 -3.9860e-002 53356 76589,76641,76615
 8.0000e+000 76667  5.0791e-002  6.8466e-001  8.5267e-003 53356 76563,76641,76589
 8.0000e+000 76938 -5.0621e-001  2.1725e-001 -6.7958e-001 53009 77105,76961,76765
 8.0000e+000 76915  3.1170e-002  4.5215e-001 -3.7081e-001 53009 76961,76713,76843
 8.0000e+000 76892 -3.1582e-001  3.6091e-001 -1.7448e-001 53009 77033,76817,76791
 8.0000e+000 76869 -1.1082e+000 -1.8819e-001 -1.2679e+000 53009 77105,76765,76739
 8.0000e+000 76987 -1.7573e-001  9.2941e-001 -4.8939e-001 53009 76791,76765,76961
 8.0000e+000 77010 -3.6555e-001  3.9173e-001 -3.9950e-001 53009 77033,76791,76961
 8.0000e+000 77059  2.5047e-002  5.0800e-001 -1.8665e-001 53009 76843,76817,77033
 8.0000e+000 77082 -4.3099e-002  5.2885e-001 -3.9397e-001 53009 76843,77033,76961
 8.0000e+000 77131  1.4173e-001  6.2235e-001 -4.2137e-001 53009 76713,76961,77105
 8.0000e+000 77154  4.2497e-002  5.7635e-001 -9.1456e-001 53009 76713,77105,76739
 8.0000e+000 77355  1.5308e+000 -2.0005e+000  8.6160e-001 52390 77378,77257,77231
 8.0000e+000 77332  1.1015e+000 -1.5154e+000  5.7484e-001 52390 77378,77231,77179
 8.0000e+000 77309  1.3359e+000 -1.7598e+000  6.0380e-002 52390 77179,77231,77205
 8.0000e+000 77404  1.9717e+000 -1.6963e+000  7.2760e-001 52390 77283,77257,77378
 8.0000e+000 77427  1.5284e+000 -1.1848e+000  4.3120e-001 52390 77283,77378,77179
 8.0000e+000 77677 -1.9479e+000  2.2145e+000 -1.8757e+000 51986 77700,77504,77478
 8.0000e+000 77654  1.4856e-001  3.1486e+000 -2.1818e+000 51986 77700,77478,77452
 8.0000e+000 77631 -7.9989e-002  1.4193e+000 -5.7846e-001 51986 77772,77556,77530
 8.0000e+000 77608 -1.8500e-001  1.3379e+000 -7.4822e-001 51986 77452,77582,77556
 8.0000e+000 77726 -4.8335e-001  2.2819e+000 -7.7433e-001 51986 77530,77504,77700
 8.0000e+000 77749  1.0782e-001  1.7745e+000 -8.7842e-001 51986 77772,77530,77700
 8.0000e+000 77798  3.2989e-001  1.6754e+000 -9.2227e-001 51986 77452,77556,77772
 8.0000e+000 77821  5.4514e-001  1.7722e+000 -1.1790e+000 51986 77452,77772,77700
 8.0000e+000 78282  5.7225e-001  7.7420e-001 -2.0617e-001 51738 78008,78138,78060
 8.0000e+000 78259  1.8934e+000  1.8673e+000 -1.7067e+000 51738 78008,78164,78138
 8.0000e+000 78236  5.1926e-001  1.6633e-001 -3.1464e-002 51738 78086,78138,78112
 8.0000e+000 78213  3.1145e-001  3.8741e-001 -3.5442e-001 51738 78060,78138,78086
 8.0000e+000 78190  1.1554e+000 -6.1364e-002 -5.7625e-001 51738 78008,78060,78034
 8.0000e+000 78432 -1.7364e-001 -1.3804e-001  3.9821e-003 51148 78305,78357,78331
 8.0000e+000 78409 -1.5008e-001  6.3975e-002 -2.9847e-002 51148 78305,78383,78357
 8.0000e+000 78891 -2.9742e-001 -2.4212e-001  1.2917e-001 50808 78914,78695,78669
 8.0000e+000 78868 -2.2932e-001 -1.1351e-001  5.4427e-002 50808 78914,78669,78643
 8.0000e+000 78845 -6.4215e-002 -2.3686e-002  2.7549e-002 50808 78643,78773,78747
 8.0000e+000 78822 -6.0107e-002 -6.7835e-002  3.0814e-002 50808 78617,78773,78643
 8.0000e+000 78799 -1.4098e-001  7.9182e-002  1.7152e-001 50808 78695,78747,78721
 8.0000e+000 78940 -1.5084e-001 -1.2074e-001  6.3093e-002 50808 78747,78695,78914
 8.0000e+000 78963 -2.1581e-001 -8.3444e-002  1.3975e-002 50808 78747,78914,78643
 8.0000e+000 79260 -1.9250e-001 -2.6007e-001 -1.8736e-001 50468 79283,79090,79012
 8.0000e+000 79237 -1.8915e-001 -1.6633e-001 -1.7416e-001 50468 79283,79012,78986
 8.0000e+000 79214 -3.7237e-001 -3.3711e-001 -1.8843e-001 50468 79012,79090,79038
 8.0000e+000 79191 -1.2074e-001 -2.7115e-002 -2.2425e-001 50468 78986,79142,79116
 8.0000e+000 79168 -2.3853e-001 -3.4576e-001 -2.5179e-001 50468 79038,79090,79064
 8.0000e+000 79309 -2.3640e-001 -1.9521e-001 -2.1423e-001 50468 79116,79090,79283
 8.0000e+000 79332 -2.1612e-001 -7.9483e-002 -1.9258e-001 50468 79116,79283,78986
 8.0000e+000 79889  1.4448e+000  1.9088e+000 -8.0974e-001 50064 79569,79725,79699
 8.0000e+000 79866  2.8635e-001  1.2724e+000 -1.5813e+000 50064 79543,79725,79569
 8.0000e+000 79843  1.4526e+000  9.4770e-001 -7.4885e-001 50064 79621,79699,79673
 8.0000e+000 79820  1.5901e+000  1.2542e+000 -9.3760e-001 50064 79595,79699,79621
 8.0000e+000 79797  9.6640e-001  1.5015e+000 -1.1668e+000 50064 79569,79699,79595
 8.0000e+000 79774  1.1299e+000  2.8225e+000 -3.8298e-001 50064 79517,79725,79543
 8.0000e+000 79751  6.8768e-001  9.8572e-001 -8.2407e-001 50064 79621,79673,79647
 8.0000e+000 80169  1.5218e+000  2.0854e+000 -9.5101e-001 49724 80019,80097,80071
 8.0000e+000 80146  1.2518e+000  3.2216e+000 -1.2379e+000 49724 79993,80097,80019
 8.0000e+000 80123  9.6178e-001  1.9197e+000 -1.1248e+000 49724 80019,80071,80045
 8.0000e+000 80626 -1.0630e+000 -4.4765e-001 -2.4610e-001 49277 80352,80482,80378
 8.0000e+000 80603 -6.9991e-001 -3.4640e-001  6.9357e-002 49277 80352,80508,80482
 8.0000e+000 80580 -8.3676e-001 -3.3359e-001 -1.7530e-001 49277 80378,80482,80456
 8.0000e+000 80557 -1.0473e+000 -8.0295e-001 -1.7659e-001 49277 80378,80430,80404
 8.0000e+000 80534 -1.4044e+000 -5.6361e-001 -1.2752e-001 49277 80378,80456,80430
 8.0000e+000 81230 -1.9832e+000 -1.1271e+000  8.1629e-001 48716 81253,80835,80809
 8.0000e+000 81207 -1.2213e+000 -3.0138e-002 -3.9750e-001 48716 81397,81253,80809
 8.0000e+000 81184 -1.0401e+000  1.2331e+000 -4.5730e-001 48716 81325,80913,80887
 8.0000e+000 81161 -8.1221e-001 -8.8395e-001 -3.2256e-001 48716 81397,80809,81017
 8.0000e+000 81138 -1.6424e+000  7.2334e-001 -8.0229e-001 48716 81469,80965,80913
 8.0000e+000 81115 -8.0742e-001  7.8781e-002  1.0836e+000 48716 80835,80887,80861
 8.0000e+000 81092  3.7401e-001 -1.6874e+000  1.7589e+000 48716 80809,81043,81017
 8.0000e+000 81069 -1.7566e+000 -7.8570e-001 -1.8322e+000 48716 80913,80965,80939
 8.0000e+000 81279  6.7258e-001  4.4845e-001  1.0699e-001 48716 80887,80835,81253
 8.0000e+000 81302 -1.5709e+000  9.2983e-001 -6.9128e-001 48716 81325,80887,81253
 8.0000e+000 81351 -1.2604e+000  8.4444e-001 -6.4786e-001 48716 81469,80913,81325
 8.0000e+000 81374 -1.4627e+000  1.4233e+000 -6.4070e-001 48716 80991,81325,81253
 8.0000e+000 81423 -1.1779e+000  1.1303e+000  2.3099e-002 48716 80991,81253,81397
 8.0000e+000 81446 -9.2655e-001  6.6162e-002  1.1956e-001 48716 80991,81397,81017
 8.0000e+000 81495 -2.3354e+000  1.0250e+000 -9.3180e-001 48716 80991,80965,81469
 8.0000e+000 81518 -2.0426e+000  1.0590e+000 -7.9700e-001 48716 80991,81469,81325
 8.0000e+000 81717 -1.0233e-001 -8.1099e-003 -7.1064e-002 48262 81740,81567,81541
 8.0000e+000 81694  4.1178e-003  5.2748e-002 -9.7714e-002 48262 81740,81541,81645
 8.0000e+000 81671 -1.0989e-001 -2.2597e-001 -6.2112e-002 48262 81567,81619,81593
 8.0000e+000 81766 -4.2292e-002 -6.0459e-002  3.1505e-003 48262 81619,81567,81740
 8.0000e+000 81789  5.5515e-002 -1.0661e-002 -1.9354e-002 48262 81619,81740,81645
 8.0000e+000 81939  1.5481e+000  2.7368e+000 -5.0410e-001 47957 82034,81962,81864
 8.0000e+000 81916  4.7259e-001  2.0138e+000 -7.0284e-001 47957 82166,81962,81838
 8.0000e+000 81988  1.8808e+000  2.3993e+000  3.4513e-001 47957 82294,81962,81890
 8.0000e+000 82011  1.4400e+000  2.1228e+000  3.4301e-002 47957 81890,81962,81812
 8.0000e+000 82060  1.5171e+000  2.9899e+000 -2.9072e-001 47957 81838,81962,82034
 8.0000e+000 82192  3.7849e-002  1.9393e+000  4.5475e-001 47957 81812,81962,82166
 8.0000e+000 82320  2.5658e+000  2.2997e+000  4.0111e-002 47957 81864,81962,82294
 8.0000e+000 82549 -2.1913e-001 -1.6564e-001 -1.3263e-001 47617 82448,82500,82474
 8.0000e+000 82526  2.4622e-002  3.4452e-001 -3.8180e-002 47617 82422,82500,82448
 8.0000e+000 82902  7.5993e-001  3.1302e-001 -1.2949e-001 47255 82729,82807,82755
 8.0000e+000 82879  1.0509e+000  8.8888e-001 -1.8647e-002 47255 82703,82807,82729
 8.0000e+000 82856  5.6800e-001  3.7928e-001  1.2281e-001 47255 82755,82807,82781
 8.0000e+000 82833  1.2411e+000  9.7030e-001  4.9703e-004 47255 82677,82807,82703
 8.0000e+000 83182  1.5775e-001 -8.2391e-001  3.7799e-001 46680 83032,83084,83058
 8.0000e+000 83159  5.6049e-001 -4.8356e-001  5.9906e-001 46680 83205,83084,83032
 8.0000e+000 83136 -4.4089e-001  1.5658e-002  4.7640e-001 46680 83006,83110,83084
 8.0000e+000 83231  1.0079e+000 -4.9648e-002  8.2999e-001 46680 83006,83084,83205
 8.0000e+000 83737 -1.8031e+000 -5.5788e-001  3.3215e-001 46290 83832,83760,83492
 8.0000e+000 83714 -1.8081e+000 -2.7136e-001  2.7738e-001 46290 83760,83440,83414
 8.0000e+000 83691 -1.3943e+000 -8.1372e-001  2.5755e-001 46290 83832,83492,83466
 8.0000e+000 83668 -1.4825e+000 -1.3882e+000  4.8456e-001 46290 83492,83570,83544
 8.0000e+000 83645 -2.3555e+000 -7.7069e-001  6.6349e-002 46290 83414,83596,83570
 8.0000e+000 83622 -1.3417e+000 -9.9853e-001  7.4495e-001 46290 83492,83544,83518
 8.0000e+000 83786 -1.7158e+000 -5.1119e-001  2.5560e-001 46290 83570,83492,83760
 8.0000e+000 83809 -1.8036e+000 -6.7519e-001  8.1935e-002 46290 83570,83760,83414
 8.0000e+000 83858 -1.2831e+000 -2.3595e-001  4.8395e-001 46290 83440,83760,83832
 8.0000e+000 83881 -5.8399e-001 -4.6376e-001  3.3477e-001 46290 83440,83832,83466
 8.0000e+000 84161  1.1460e-002 -5.4163e-001  1.1103e-002 45829 84011,84063,84037
 8.0000e+000 84138 -2.4211e-001 -5.2271e-001 -8.0712e-002 45829 84011,84089,84063
 8.0000e+000 84115 -3.1162e-002 -4.2795e-001  5.3983e-003 45829 83985,84089,84011
 8.0000e+000 84311  1.0379e+000  1.4396e+000  1.6008e-001 45631 84184,84236,84210
 8.0000e+000 84288  5.8835e-001  1.0688e-001  3.0044e-002 45631 84184,84262,84236
 8.0000e+000 84657 -2.0673e-001 -2.8610e-001 -7.1764e-002 45155 84680,84490,84412
 8.0000e+000 84634 -2.5392e-001 -1.9273e-001 -3.6259e-002 45155 84680,84412,84360
 8.0000e+000 84611 -3.4184e-001 -3.8323e-001  4.3487e-002 45155 84412,84490,84438
 8.0000e+000 84588 -4.3147e-002 -6.2452e-003 -6.7663e-002 45155 84334,84516,84360
 8.0000e+000 84565 -2.1037e-001 -6.4897e-002 -3.4969e-001 45155 84360,84412,84386
 8.0000e+000 84542 -3.0269e-001 -4.2370e-001  1.5137e-002 45155 84438,84490,84464
 8.0000e+000 84706 -2.1160e-001 -1.9639e-001 -9.0998e-002 45155 84516,84490,84680
 8.0000e+000 84729 -2.5043e-001 -9.4819e-002 -6.9340e-002 45155 84516,84680,84360
 8.0000e+000 85077 -7.9158e-002 -4.5338e-001 -2.3918e-001 44508 85100,84754,84910
 8.0000e+000 85054 -1.6807e-001  2.3910e-002 -8.9875e-002 44508 84754,84936,84910
 8.0000e+000 85031 -4.8147e-001 -8.2011e-001  8.5571e-002 44508 85100,84910,84884
 8.0000e+000 85008 -3.6675e-001 -3.1814e-002 -4.3773e-001 44508 84780,84884,84832
 8.0000e+000 84985 -4.2022e-001 -1.5240e-001 -4.2787e-001 44508 84780,84832,84806
 8.0000e+000 84962 -1.1306e+000 -8.2667e-001 -5.7486e-002 44508 84832,84884,84858
 8.0000e+000 85126 -4.0813e-001  8.2274e-002 -5.3439e-001 44508 84780,84754,85100
 8.0000e+000 85149 -7.1326e-001 -2.7871e-001 -2.3869e-001 44508 84780,85100,84884
 8.0000e+000 85482  8.0745e-002 -1.1921e-001 -1.1120e-001 44104 85335,85387,85361
 8.0000e+000 85459  2.8231e-002 -3.9307e-001 -5.5087e-002 44104 85309,85387,85335
 8.0000e+000 85436 -2.5130e-002 -2.8016e-001 -1.5193e-001 44104 85257,85387,85309
 8.0000e+000 85413 -1.1857e-001 -1.5856e-001 -2.2843e-002 44104 85257,85309,85283
 8.0000e+000 85811 -2.8299e-001 -3.3828e-001 -1.5922e-001 43600 85586,85664,85612
 8.0000e+000 85788 -2.3756e-001 -6.9559e-002 -1.1634e-001 43600 85586,85690,85664
 8.0000e+000 85765 -1.2952e-001  1.3733e-001 -2.1506e-001 43600 85586,85716,85690
 8.0000e+000 85742 -3.1768e-001 -2.7914e-001 -2.8127e-001 43600 85612,85664,85638
 8.0000e+000 86010  2.2477e-001  6.6333e-002 -2.1877e-001 43224 85886,85938,85912
 8.0000e+000 85987  2.4182e-001  4.3759e-002 -1.8648e-001 43224 85834,85938,85886
 8.0000e+000 85964  1.9720e-001 -7.1319e-001 -1.4082e-001 43224 85834,85886,85860
 8.0000e+000 86420  2.5467e+000  1.0377e+000 -1.3789e-002 42820 86195,86299,86221
 8.0000e+000 86397  2.4199e+000  2.1518e+000 -8.3695e-001 42820 86195,86325,86299
 8.0000e+000 86374  1.6501e+000  1.2816e+000  4.0199e-001 42820 86221,86299,86273
 8.0000e+000 86351  1.2071e+000  9.2987e-001 -5.4504e-002 42820 86221,86273,86247
 8.0000e+000 86749  4.8747e-001 -4.9672e-001 -1.4507e-001 42223 86550,86602,86576
 8.0000e+000 86726  2.1445e+000 -1.1371e+000  1.5202e-001 42223 86550,86628,86602
 8.0000e+000 86703  5.6401e-001 -1.5984e+000  9.1830e-001 42223 86524,86628,86550
 8.0000e+000 86680  1.5428e+000  5.0846e-001  6.2642e-001 42223 86524,86654,86628
 8.0000e+000 87078  7.3114e-001 -2.5193e-001  2.6529e-001 41883 87173,87101,86905
 8.0000e+000 87055  5.3002e-001  8.1740e-001  1.0532e-001 41883 87101,86879,86853
 8.0000e+000 87032  1.3480e-001  1.4562e-001 -6.9907e-002 41883 86853,86983,86931
 8.0000e+000 87009  1.7257e-001  4.1703e-001 -2.0117e-001 41883 86931,86983,86957
 8.0000e+000 87127  1.1291e+000  3.8042e-001 -1.9473e-001 41883 86931,86905,87101
 8.0000e+000 87150  1.4824e-001 -5.7781e-002 -7.6154e-002 41883 86931,87101,86853
 8.0000e+000 87199  2.5794e-001  1.2337e-001  3.5669e-001 41883 86879,87101,87173
 8.0000e+000 87558 -1.5157e-001  6.4315e-001 -3.5794e-001 41471 87382,87460,87408
 8.0000e+000 87535 -1.4117e+000  7.3097e-001 -2.0050e-001 41471 87382,87486,87460
 8.0000e+000 87512  2.0878e-001  3.6858e-002 -1.7252e-001 41471 87408,87460,87434
 8.0000e+000 87806  1.3921e-001  1.1259e-001 -4.6208e-001 41017 87829,87607,87581
 8.0000e+000 87783  1.2379e-001 -2.0494e-001 -1.0577e-001 41017 87829,87581,87685
 8.0000e+000 87760  4.5908e-001 -2.4100e-002 -2.1729e-001 41017 87581,87711,87685
 8.0000e+000 87737  2.7611e-001 -7.6933e-001 -2.6693e-002 41017 87633,87685,87659
 8.0000e+000 87855 -8.1501e-002 -7.0054e-002 -2.4619e-001 41017 87633,87607,87829
 8.0000e+000 87878 -1.7603e-001 -4.2912e-001  1.2012e-001 41017 87633,87829,87685
 8.0000e+000 88258  1.9947e-003  2.1330e-003 -9.2246e-003 40613 88281,88036,88010
 8.0000e+000 88235 -2.1553e-003  1.2095e-002 -7.7527e-003 40613 88281,88010,88088
 8.0000e+000 88212 -3.5886e-003  4.2543e-002 -3.0297e-002 40613 87984,88088,88010
 8.0000e+000 88189 -1.6262e-002  1.2665e-002 -2.8839e-002 40613 87984,88114,88088
 8.0000e+000 88166  4.3885e-003  3.7297e-002 -3.8972e-002 40613 87984,88140,88114
 8.0000e+000 88307  4.8378e-004 -1.1604e-002 -1.9602e-002 40613 88062,88036,88281
 8.0000e+000 88330  8.6146e-004  8.1363e-003 -2.0717e-002 40613 88062,88281,88088
 8.0000e+000 88649  1.9921e-002  1.2494e-001 -2.7713e-003 40095 88375,88505,88401
 8.0000e+000 88626  1.2341e-002  6.7108e-002  2.5842e-002 40095 88375,88531,88505
 8.0000e+000 88603 -2.7519e-003  1.6693e-001  2.1904e-002 40095 88401,88505,88479
 8.0000e+000 88580 -1.1152e-002  7.2523e-001  2.5232e-001 40095 88427,88479,88453
 8.0000e+000 88557  6.0044e-002  3.0839e-001 -1.1625e-002 40095 88401,88479,88427
 8.0000e+000 89078  7.6113e-001 -1.3205e+000 -6.5069e-001 39897 89101,88833,88807
 8.0000e+000 89055  9.2020e-002 -1.6158e+000 -7.5605e-001 39897 89101,88807,88911
 8.0000e+000 89032 -7.2632e-001 -1.2471e+000 -1.3494e+000 39897 88781,88911,88807
 8.0000e+000 89009 -1.2930e+000 -1.6793e+000 -1.6504e+000 39897 88781,88937,88911
 8.0000e+000 88986  2.7522e+000  3.0940e-001 -4.9028e-001 39897 88833,88885,88859
 8.0000e+000 88963 -1.8619e+000 -1.4602e+000 -1.9954e+000 39897 88755,88937,88781
 8.0000e+000 89127  1.3684e+000 -1.7460e+000 -1.2651e+000 39897 88885,88833,89101
 8.0000e+000 89150  3.2352e-001 -2.2633e+000 -1.4802e+000 39897 88885,89101,88911
 8.0000e+000 89300 -1.6318e+000 -1.5867e+000  6.1762e-001 39607 89453,89323,89199
 8.0000e+000 89277 -2.4163e+000 -1.0038e+000  4.8137e-001 39607 89525,89453,89199
 8.0000e+000 89349 -1.1681e+000 -1.4593e+000 -1.7832e-002 39607 89225,89199,89323
 8.0000e+000 89479 -1.2254e+000 -6.8304e-001  4.1866e-001 39607 89251,89323,89453
 8.0000e+000 89502 -1.2745e+000 -1.2197e-001  1.0819e+000 39607 89251,89453,89173
 8.0000e+000 89551 -1.0509e+000 -6.6714e-001  6.4973e-001 39607 89173,89453,89525
 8.0000e+000 90264 -1.1109e+000 -1.7723e+000 -4.0811e-001 39039 89996,90074,90048
 8.0000e+000 90241 -6.6121e-001 -8.5255e-001 -2.4978e-001 39039 89918,90074,89996
 8.0000e+000 90218 -1.0745e+000 -1.0411e+000 -3.2820e-002 39039 89918,89996,89944
 8.0000e+000 90195 -1.3646e+000 -9.6811e-001  7.2580e-003 39039 89892,90074,89918
 8.0000e+000 90172 -1.9347e-001 -1.6893e+000 -4.5224e-001 39039 89996,90048,90022
 8.0000e+000 90149 -1.9631e+000  7.1755e-001 -1.0448e-001 39039 89892,90100,90074
 8.0000e+000 90126 -1.2348e+000 -1.1046e+000 -1.3131e-001 39039 89944,89996,89970
 8.0000e+000 90770 -4.0852e-001 -4.6975e-001 -7.8617e-002 38635 90473,90603,90577
 8.0000e+000 90747 -2.6941e-001 -4.4562e-001 -8.9268e-003 38635 90447,90603,90473
 8.0000e+000 90724 -3.9454e-001 -6.3781e-001 -7.7671e-002 38635 90499,90577,90551
 8.0000e+000 90701 -3.8473e-001 -6.3695e-001 -7.2645e-002 38635 90473,90577,90499
 8.0000e+000 90678 -3.0029e-001 -7.7791e-001 -9.1516e-002 38635 90499,90551,90525
 8.0000e+000 90655 -3.8236e-001 -3.4655e-001  2.6689e-002 38635 90447,90629,90603
 8.0000e+000 90871 -1.2793e-001 -3.0475e-001 -1.5042e-001 38231 90793,90845,90819
 8.0000e+000 91458  2.2721e-001 -2.1356e-001 -1.0243e-001 37534 91161,91317,91291
 8.0000e+000 91435  6.2723e-002  9.1632e-003  5.8391e-002 37534 91135,91317,91161
 8.0000e+000 91412 -1.8731e-001 -9.6237e-001 -4.9675e-001 37534 91187,91291,91239
 8.0000e+000 91389  4.7582e-002 -9.9419e-001  4.7388e-002 37534 91161,91291,91187
 8.0000e+000 91366  8.7278e-002 -5.6944e-001 -3.4763e-001 37534 91239,91291,91265
 8.0000e+000 91343  7.4566e-001 -9.5153e-001 -8.9752e-001 37534 91187,91239,91213
 8.0000e+000 91915 -6.5049e-001 -6.5723e-001  1.6947e-002 37080 91938,91745,91667
 8.0000e+000 91892 -6.3743e-001 -5.6361e-001  1.4622e-001 37080 91938,91667,91797
 8.0000e+000 91869 -8.7648e-001  1.8263e-001 -1.5538e-001 37080 91641,91797,91667
 8.0000e+000 91846 -8.0433e-001 -7.2009e-001  9.1562e-002 37080 91667,91719,91693
 8.0000e+000 91823 -7.7902e-001 -6.8605e-001  3.1203e-002 37080 91667,91745,91719
 8.0000e+000 91964 -5.5835e-001 -4.4138e-001  9.8894e-003 37080 91771,91745,91938
 8.0000e+000 91987 -6.0963e-001 -4.9291e-001  1.4572e-001 37080 91771,91938,91797
 8.0000e+000 92235 -4.6486e-001 -5.1122e-001 -3.2625e-002 36397 92036,92088,92062
 8.0000e+000 92212 -3.4296e-001 -3.7796e-001 -8.4609e-002 36397 92036,92114,92088
 8.0000e+000 92189 -1.9324e-001 -2.6656e-001 -5.5520e-003 36397 92036,92140,92114
 8.0000e+000 92166 -2.8987e-001 -1.8317e-001  2.3469e-003 36397 92010,92140,92036
 8.0000e+000 92694 -1.8843e-001 -6.9802e-003  3.5657e-002 36057 92446,92498,92472
 8.0000e+000 92671 -8.8229e-002  1.9947e-001  6.8218e-002 36057 92446,92550,92498
 8.0000e+000 92648  1.1260e-001 -2.2517e-002  2.8420e-002 36057 92446,92576,92550
 8.0000e+000 92625 -2.9091e-002 -1.0326e-001  6.7818e-002 36057 92420,92576,92446
 8.0000e+000 92602 -1.2331e-001 -7.3725e-002 -2.2605e-001 36057 92498,92550,92524
 8.0000e+000 93023 -5.1145e-001 -4.1961e-001 -1.1599e-001 35717 92876,92928,92902
 8.0000e+000 93000 -4.5463e-001 -4.5343e-001 -1.2860e-001 35717 92824,92928,92876
 8.0000e+000 92977 -2.2673e-001 -4.3030e-001 -7.5430e-002 35717 92798,92928,92824
 8.0000e+000 92954 -3.7944e-001 -5.3450e-001 -4.9981e-001 35717 92824,92876,92850
 8.0000e+000 93499  1.8340e-001 -6.3725e-001  2.9842e-001 35405 93522,93309,93257
 8.0000e+000 93476  3.6009e-001 -3.8928e-001  2.2120e-001 35405 93666,93522,93257
 8.0000e+000 93453  2.0949e-001 -2.1401e+000  2.9827e-001 35405 93594,93127,93335
 8.0000e+000 93430  5.1935e-002 -3.0754e-001  3.5168e-002 35405 93666,93257,93231
 8.0000e+000 93407 -7.3640e-001 -2.6709e+000 -6.3185e-001 35405 93127,93179,93153
 8.0000e+000 93384 -1.0694e+000  1.4839e-001  4.1476e-001 35405 93179,93231,93205
 8.0000e+000 93361  5.3635e-001  6.4094e-001  1.6434e-001 35405 93257,93309,93283
 8.0000e+000 93548  8.5345e-001 -1.6135e-001  8.1791e-001 35405 93335,93309,93522
 8.0000e+000 93571  3.9407e-001 -1.0898e+000  4.9467e-001 35405 93594,93335,93522
 8.0000e+000 93620  1.9215e-001 -1.0060e+000  1.8407e-001 35405 93179,93127,93594
 8.0000e+000 93643 -3.6735e-002 -5.4960e-001  1.7628e-001 35405 93738,93594,93522
 8.0000e+000 93692  6.4682e-002 -5.6207e-001  1.0202e-001 35405 93738,93522,93666
 8.0000e+000 93715 -1.4787e-001 -5.6476e-001 -7.5943e-002 35405 93179,93666,93231
 8.0000e+000 93764 -8.2979e-002 -6.4123e-001  2.2545e-001 35405 93179,93594,93738
 8.0000e+000 93787 -4.0738e-002 -6.7943e-001  1.5754e-001 35405 93179,93738,93666
 8.0000e+000 94372  5.3046e-001 -1.6190e-002 -2.7653e-002 34951 94395,94127,94075
 8.0000e+000 94349  1.0008e+000 -7.6313e-002  1.3211e-001 34951 94395,94075,94231
 8.0000e+000 94326  3.3399e-002 -4.9411e-001  6.4589e-002 34951 94049,94231,94075
 8.0000e+000 94303 -4.1887e-001 -5.1085e-001  5.8177e-001 34951 94075,94127,94101
 8.0000e+000 94280  1.2602e+000  2.0907e-001  4.2470e-001 34951 94127,94205,94153
 8.0000e+000 94257  1.4468e+000  2.7412e-001  6.3845e-001 34951 94153,94205,94179
 8.0000e+000 94421  9.0877e-001 -1.4377e-001  2.5616e-001 34951 94205,94127,94395
 8.0000e+000 94444  1.7724e+000  4.2279e-002  3.9146e-001 34951 94205,94395,94231
 8.0000e+000 94692  6.0751e-003  1.5159e-001 -5.2778e-003 34397 94715,94519,94467
 8.0000e+000 94669  4.2748e-003  1.3411e-001 -6.8046e-003 34397 94715,94467,94597
 8.0000e+000 94646 -3.7100e-002  3.9538e-002 -1.2654e-002 34397 94545,94597,94571
 8.0000e+000 94623  4.2351e-002  2.3923e-001 -1.0414e-002 34397 94467,94519,94493
 8.0000e+000 94741  1.5121e-002  1.9422e-001  1.1304e-003 34397 94545,94519,94715
 8.0000e+000 94764 -4.3853e-003  1.4746e-001 -1.8600e-003 34397 94545,94715,94597
 8.0000e+000 94985 -2.9733e-002  2.9228e-001 -3.4389e-002 33985 94835,94913,94887
 8.0000e+000 94962  2.8202e-001  1.0637e+000 -7.7443e-002 33985 94809,94913,94835
 8.0000e+000 94939  9.1616e-002  2.9702e-001 -4.5041e-002 33985 94835,94887,94861
 8.0000e+000 95186 -2.7580e-001 -4.2174e-001 -3.0974e-001 33645 95281,95209,95036
 8.0000e+000 95163  2.8571e-002 -6.4662e-001  4.8613e-002 33645 95209,95010,95088
 8.0000e+000 95140  2.8581e-001 -2.6643e-001 -7.1738e-002 33645 95010,95114,95088
 8.0000e+000 95235 -5.7385e-001 -4.7475e-001 -2.0331e-001 33645 95062,95036,95209
 8.0000e+000 95258 -4.0256e-001 -8.1368e-001  2.5745e-001 33645 95413,95209,95088
 8.0000e+000 95307 -1.3018e-001 -3.0127e-001 -3.6160e-001 33645 95010,95209,95281
 8.0000e+000 95439 -3.5918e-001 -6.6872e-001  2.1209e-001 33645 95062,95209,95413
 8.0000e+000 95766 -4.5091e-001  2.5196e-001 -6.0404e-001 33141 95789,95593,95567
 8.0000e+000 95743 -1.1231e-001 -3.7013e-002 -2.1281e-001 33141 95861,95789,95567
 8.0000e+000 95720 -1.4994e-001  4.5533e-002 -5.7099e-002 33141 95861,95567,95671
 8.0000e+000 95697 -1.4854e-001 -2.7065e-002 -8.0454e-002 33141 95541,95671,95567
 8.0000e+000 95815 -1.5424e-001  9.9140e-001 -5.3716e-001 33141 95619,95593,95789
 8.0000e+000 95838 -3.3785e-002  3.4511e-001 -2.2609e-001 33141 95619,95789,95645
 8.0000e+000 95887  1.3227e-002  2.4001e-001 -2.4100e-001 33141 95645,95789,95861
 8.0000e+000 95910 -4.1043e-002  3.1507e-001 -6.4855e-002 33141 95645,95861,95671
 8.0000e+000 96060 -5.6373e-001 -2.5380e-001 -3.3016e-001 32487 95959,96011,95985
 8.0000e+000 96037 -1.6230e-001 -2.0395e-001 -7.9481e-002 32487 95933,96011,95959
 8.0000e+000 96570 -2.1819e-001 -8.6376e-002  9.1446e-002 32033 96665,96593,96377
 8.0000e+000 96547 -3.7908e-001  1.9863e-001 -2.8369e-001 32033 96737,96593,96325
 8.0000e+000 96524 -2.5441e-001 -1.7704e-001  2.7160e-002 32033 96665,96377,96351
 8.0000e+000 96501 -3.7917e-001  3.7559e-001 -2.2904e-001 32033 96737,96325,96299
 8.0000e+000 96478 -3.2622e-001  2.8275e-001 -2.2598e-001 32033 96247,96429,96299
 8.0000e+000 96455 -7.0716e-001 -7.6537e-001 -2.0352e-001 32033 96247,96299,96273
 8.0000e+000 96619  6.8600e-002  8.3551e-002  3.7840e-002 32033 96809,96593,96403
 8.0000e+000 96642  2.9358e-001  6.8341e-001 -6.1568e-001 32033 96403,96593,96429
 8.0000e+000 96691 -5.9042e-002 -3.0447e-001 -1.8431e-002 32033 96325,96593,96665
 8.0000e+000 96714 -1.9525e-001 -4.7194e-001 -1.0680e-001 32033 96325,96665,96351
 8.0000e+000 96763 -4.1778e-001  9.7590e-002 -3.6382e-001 32033 96429,96593,96737
 8.0000e+000 96786 -4.1580e-001  2.2032e-001 -2.8975e-001 32033 96429,96737,96299
 8.0000e+000 96835  2.4111e-002  4.6216e-002  2.1157e-002 32033 96377,96593,96809
 8.0000e+000 97064  7.0090e-002  1.1176e-001  1.7133e-003 31671 97087,96989,96963
 8.0000e+000 97041  7.1640e-002  1.3576e-001 -6.3568e-002 31671 97087,96963,96937
 8.0000e+000 97113  1.0133e-002  1.2768e-001  6.9284e-003 31671 97159,97087,97015
 8.0000e+000 97136  9.8938e-002  1.5180e-001  1.1197e-002 31671 97015,97087,96937
 8.0000e+000 97185  3.4153e-002 -1.2300e-002  2.2588e-002 31671 96989,97087,97159
 8.0000e+000 97563  1.3433e-002  1.5197e-001  1.7439e-002 31117 97586,97367,97341
 8.0000e+000 97540  4.6711e-002  1.0715e-001 -2.6716e-002 31117 97658,97586,97341
 8.0000e+000 97517  7.5627e-002  9.9312e-002 -1.4882e-002 31117 97658,97341,97315
 8.0000e+000 97494 -7.0007e-002  7.9887e-002 -9.2366e-003 31117 97289,97445,97315
 8.0000e+000 97471 -4.0518e-002  2.9171e-002  1.5140e-002 31117 97367,97419,97393
 8.0000e+000 97612 -2.1794e-002  2.6659e-004  4.6604e-002 31117 97419,97367,97586
 8.0000e+000 97635 -2.0698e-002  8.1016e-002 -5.6817e-002 31117 97419,97586,97445
 8.0000e+000 97684 -6.1969e-003  1.1115e-001 -2.7173e-002 31117 97445,97586,97658
 8.0000e+000 97707  2.7260e-002  1.0729e-001 -1.4566e-002 31117 97445,97658,97315
 8.0000e+000 98215 -2.0838e-001  4.9292e-002 -2.8277e-001 30563 98238,97996,97944
 8.0000e+000 98192 -3.2288e-001  1.2332e-001 -2.6778e-001 30563 98310,98238,97944
 8.0000e+000 98169 -4.4220e-001 -2.0876e-001 -2.7280e-001 30563 98310,97944,97918
 8.0000e+000 98146 -1.7889e-001  2.7092e-002  4.6743e-002 30563 97892,98074,97918
 8.0000e+000 98123 -1.2205e-001  4.5693e-001 -2.9491e-001 30563 97996,98048,98022
 8.0000e+000 98100 -2.7128e-001  1.8081e-001 -5.1688e-001 30563 97944,97996,97970
 8.0000e+000 98264 -2.0090e-001  1.3355e-001 -2.7987e-001 30563 98048,97996,98238
 8.0000e+000 98287 -1.6819e-001  4.3799e-001 -1.1742e-002 30563 98048,98238,98074
 8.0000e+000 98336 -3.5530e-001 -4.8191e-002 -3.9814e-002 30563 98074,98238,98310
 8.0000e+000 98359 -3.5988e-001 -1.4549e-001 -2.4363e-002 30563 98074,98310,97918
 8.0000e+000 98607 -7.6870e-001  2.4397e-001 -7.7135e-003 30073 98630,98460,98408
 8.0000e+000 98584 -1.1274e+000  2.1423e-001 -6.5346e-002 30073 98630,98408,98382
 8.0000e+000 98561 -3.2999e-001  4.0248e-001 -2.0550e-001 30073 98382,98512,98486
 8.0000e+000 98538 -5.6216e-001  1.5029e-001  1.6478e-001 30073 98408,98460,98434
 8.0000e+000 98656 -5.8475e-001  1.2471e-001 -7.8853e-002 30073 98486,98460,98630
 8.0000e+000 98679 -8.2507e-001  1.8852e-001 -1.3162e-001 30073 98486,98630,98382
 8.0000e+000 99157  2.9285e-001 -2.0512e-001  2.2168e-001 29669 99180,98837,98811
 8.0000e+000 99134  3.4860e-001 -3.9966e-002  2.2559e-001 29669 99324,99180,98811
 8.0000e+000 99111  5.5811e-001  5.1995e-001 -3.2125e-001 29669 99252,98863,98837
 8.0000e+000 99088  2.4016e-001 -3.5812e-001  3.2720e-001 29669 99324,98811,98993
 8.0000e+000 99065 -7.4147e-001  8.2795e-001  1.5906e-001 29669 98863,98941,98915
 8.0000e+000 99042 -1.1509e-001  7.2868e-001  3.3770e-001 29669 98863,98915,98889
 8.0000e+000 99019 -1.0666e-002 -4.0057e-001  6.7517e-001 29669 98785,98993,98811
 8.0000e+000 99206  3.7412e-001 -1.5238e-001 -8.2485e-002 29669 99252,98837,99180
 8.0000e+000 99229 -5.7129e-002  2.7447e-001  1.3601e-001 29669 98941,99180,98967
 8.0000e+000 99278  1.4309e-001  1.0395e+000 -2.3847e-001 29669 98941,98863,99252
 8.0000e+000 99301  2.3948e-001  7.3121e-001  8.3300e-003 29669 98941,99252,99180
 8.0000e+000 99350  1.9025e-001  3.5707e-001  1.6864e-001 29669 98967,99180,99324
 8.0000e+000 99373  1.8107e-001  1.1739e-001  2.1858e-001 29669 98967,99324,98993
 8.0000e+000 99958  3.7278e-001  7.2742e-001  1.7967e-001 29051 99981,99765,99739
 8.0000e+000 99935 -5.7835e-002  7.7058e-002 -6.5778e-003 29051 99981,99739,99661
 8.0000e+000 99912  4.9275e-001 -4.6589e-001 -3.4905e-001 29051 99765,99817,99791
 8.0000e+000 99889 -9.2823e-001 -5.0422e-001  5.7510e-001 29051 99635,99817,99661
 8.0000e+000 99866 -1.1133e+000 -9.1498e-003  7.5986e-001 29051 99661,99739,99687
 8.0000e+000 99843 -1.3531e+000  3.3499e-001  3.9479e-001 29051 99687,99739,99713
 8.0000e+000 100007  6.1322e-001  9.4380e-002  2.4169e-001 29051 99817,99765,99981
 8.0000e+000 100030  4.2389e-001 -2.0704e-001  1.5748e-001 29051 99817,99981,99661
 8.0000e+000 100278  9.6558e-001  6.7747e-001  8.2818e-002 28525 100445,100301,100131
 8.0000e+000 100255  3.7415e-001  5.3398e-001  1.0339e-002 28525 100373,100301,100079
 8.0000e+000 100232  3.5339e-001  8.7332e-002  7.9621e-002 28525 100373,100079,100053
 8.0000e+000 100209  7.7160e-001  9.1516e-001 -1.3681e-001 28525 100445,100131,100105
 8.0000e+000 100327  1.7995e+000  3.4673e-001  2.3888e-002 28525 100517,100301,100157
 8.0000e+000 100350  6.4835e-001  4.0393e-001 -3.3665e-001 28525 100157,100301,100183
 8.0000e+000 100399  3.3185e-001  7.1512e-002  2.3682e-001 28525 100183,100301,100373
 8.0000e+000 100422  4.1430e-001 -2.4644e-001  3.0012e-001 28525 100183,100373,100053
 8.0000e+000 100471  7.0558e-001  4.0747e-001 -1.2128e-001 28525 100079,100301,100445
 8.0000e+000 100494  2.4350e-001  3.9722e-001 -3.9057e-001 28525 100079,100445,100105
 8.0000e+000 100543  1.4034e+000  2.7217e-001 -7.8709e-002 28525 100131,100301,100517
 8.0000e+000 101209 -1.4885e+000  4.1325e-001  5.0386e-002 28185 100938,101016,100990
 8.0000e+000 101186 -1.6174e+000  3.5837e-002 -1.7486e-001 28185 100912,101016,100938
 8.0000e+000 101163 -4.9575e-001  3.9583e-001 -5.3144e-002 28185 100912,101068,101016
 8.0000e+000 101140 -2.0363e+000 -4.3954e-001 -4.6743e-001 28185 100886,101068,100912
 8.0000e+000 101117 -5.5975e-001  1.5829e-001 -5.4227e-002 28185 101016,101068,101042
 8.0000e+000 101094 -3.9993e+000 -4.3335e-001  1.0632e-001 28185 100938,100990,100964
 8.0000e+000 101408  1.4837e-001  8.4626e-002 -2.6020e-001 27781 101503,101431,101310
 8.0000e+000 101385 -2.0148e-001  5.8306e-001 -5.2291e-001 27781 101431,101258,101232
 8.0000e+000 101362  3.0094e-001  2.2415e-002 -3.2823e-001 27781 101503,101310,101284
 8.0000e+000 101457  7.9432e-001  4.7323e-001 -4.3304e-001 27781 101336,101310,101431
 8.0000e+000 101480  2.5922e-001  8.6355e-001 -7.6335e-001 27781 101575,101431,101232
 8.0000e+000 101529  3.7843e-001  2.1362e-001 -4.7746e-001 27781 101258,101431,101503
 8.0000e+000 101552  1.9571e-001 -2.6131e-001 -2.9830e-001 27781 101705,101503,101284
 8.0000e+000 101601  3.2286e-001  8.9317e-001 -8.1258e-001 27781 101336,101431,101575
 8.0000e+000 101731 -1.9098e-002  3.5621e-002 -4.4172e-001 27781 101258,101503,101705
 8.0000e+000 102237 -8.0222e-001 -2.1382e-001  6.1100e-002 27419 102476,102260,101992
 8.0000e+000 102214 -5.5894e-001 -3.3673e-001 -4.2833e-002 27419 102260,101940,101914
 8.0000e+000 102191 -8.5228e-001 -3.8842e-001  1.1755e-001 27419 102404,102332,102096
 8.0000e+000 102168 -7.4626e-001 -3.3779e-001  2.2265e-002 27419 102404,102096,102044
 8.0000e+000 102145 -7.4561e-001 -2.5649e-001  9.3981e-002 27419 102476,101992,101966
 8.0000e+000 102122 -4.7559e-001 -4.3607e-001  9.6267e-003 27419 102044,102096,102070
 8.0000e+000 102286 -1.0502e+000 -4.2414e-001  1.7454e-001 27419 102018,101992,102260
 8.0000e+000 102309 -8.0752e-001 -3.0026e-001  1.7471e-002 27419 102332,102018,102260
 8.0000e+000 102358 -8.7837e-001 -7.2442e-001  2.4940e-001 27419 101914,102096,102332
 8.0000e+000 102381 -7.5589e-001 -4.6984e-001  5.0624e-002 27419 101914,102332,102260
 8.0000e+000 102430 -6.4628e-001 -3.7238e-001 -1.1181e-002 27419 102018,102332,102404
 8.0000e+000 102453 -5.5883e-001 -2.8823e-001 -1.1687e-001 27419 102018,102404,102044
 8.0000e+000 102502 -6.8306e-001 -2.7473e-001  9.3953e-002 27419 101940,102260,102476
 8.0000e+000 102525 -1.9632e-001 -7.1803e-002  6.6608e-002 27419 101940,102476,101966
 8.0000e+000 103031 -1.3874e+000  1.1828e+000  9.4977e-001 26715 102708,102786,102760
 8.0000e+000 103008 -2.1412e-001 -4.1004e-001  1.6683e-001 26715 102708,102890,102786
 8.0000e+000 102985  1.0718e+000 -7.0896e-001  1.0765e-001 26715 102838,102890,102864
 8.0000e+000 102962  2.9391e-001  1.0461e+000  1.2566e-001 26715 102786,102890,102838
 8.0000e+000 102939  1.4814e+000  1.6275e+000  7.2365e-001 26715 102786,102838,102812
 8.0000e+000 102916 -2.1808e+000 -6.9471e-002  3.8979e-001 26715 102708,102760,102734
 8.0000e+000 103279  3.7859e-002  5.1951e-002 -1.1337e-001 26303 103302,103158,103080
 8.0000e+000 103256  1.8663e-001 -4.1268e-002 -1.1151e-001 26303 103302,103080,103054
 8.0000e+000 103233  3.3469e-001  2.0263e-001 -4.3340e-002 26303 103080,103158,103106
 8.0000e+000 103210 -3.9213e-001  1.2786e-002 -5.1762e-002 26303 103106,103158,103132
 8.0000e+000 103328 -2.1430e-001 -5.6928e-002 -6.4649e-002 26303 103184,103158,103302
 8.0000e+000 103351  6.5004e-002 -5.3871e-002 -8.3869e-002 26303 103184,103302,103054
 8.0000e+000 103501 -1.0121e+000 -7.9827e-002  6.2714e-002 25849 103374,103426,103400
 8.0000e+000 103478 -8.9493e-001 -3.9935e-001  4.5414e-003 25849 103374,103452,103426
 8.0000e+000 104090 -8.8125e-002  2.2135e-001  1.2349e-001 25445 103793,103871,103819
 8.0000e+000 104067  1.9902e-001  1.1415e-001  2.0684e-003 25445 103793,103949,103871
 8.0000e+000 104044  2.6879e-001  3.0370e-001 -4.6530e-003 25445 103871,103949,103923
 8.0000e+000 104021 -5.5855e-002  3.0187e-001  1.7007e-003 25445 103819,103871,103845
 8.0000e+000 103998  1.1242e-001  1.8551e-001  2.0273e-001 25445 103767,103949,103793
 8.0000e+000 103975  4.0045e-001  2.1456e-001 -1.7072e-002 25445 103871,103923,103897
 8.0000e+000 104419 -3.7371e-001 -7.6838e-002 -1.2768e-001 25083 104220,104298,104272
 8.0000e+000 104396 -7.2099e-001 -4.1005e-001  8.2778e-003 25083 104220,104324,104298
 8.0000e+000 104373 -2.7792e-001 -1.7249e-001 -2.0814e-002 25083 104220,104272,104246
 8.0000e+000 104350 -7.1910e-001 -3.3756e-001  3.0277e-002 25083 104194,104324,104220
 8.0000e+000 105102  5.2301e-002 -1.5891e-001 -1.2700e-001 24793 104785,104863,104837
 8.0000e+000 105079 -9.5325e-003 -4.4066e-001 -2.8987e-001 24793 104759,104863,104785
 8.0000e+000 105056 -9.3110e-002 -6.2070e-002 -3.0690e-001 24793 104759,104915,104863
 8.0000e+000 105033 -1.9366e-001 -7.3415e-002 -2.3014e-001 24793 104733,104915,104759
 8.0000e+000 105010  5.2236e-002 -1.2929e-002 -2.4567e-001 24793 104863,104915,104889
 8.0000e+000 104987 -3.2391e-001 -7.3835e-003 -3.2161e-001 24793 104681,104915,104733
 8.0000e+000 104964 -3.3692e-002 -2.7046e-001 -1.6718e-001 24793 104785,104837,104811
 8.0000e+000 104941 -1.9268e-001  2.8311e-001 -3.5918e-001 24793 104681,104733,104707
 8.0000e+000 105252  8.9961e-001  1.1803e+000 -9.2348e-002 24389 105477,105275,105177
 8.0000e+000 105229  9.1047e-001  1.2419e+000 -1.3647e-001 24389 105347,105275,105151
 8.0000e+000 105301  9.6186e-001  1.0730e+000 -1.2630e-001 24389 105203,105177,105275
 8.0000e+000 105324  9.7079e-001  1.0662e+000 -1.3027e-001 24389 105203,105275,105125
 8.0000e+000 105373  8.9593e-001  8.1465e-001 -4.9951e-002 24389 105125,105275,105347
 8.0000e+000 105503  1.0961e+000  1.4712e+000  2.6023e-002 24389 105151,105275,105477
 8.0000e+000 106088 -5.8330e-001  5.6737e-001  7.1823e-001 23735 105791,105921,105895
 8.0000e+000 106065 -2.0518e+000 -2.4582e-002  7.0092e-001 23735 105765,105921,105791
 8.0000e+000 106042 -3.7345e-001  6.6223e-001  3.8006e-001 23735 105765,105947,105921
 8.0000e+000 106019 -2.3677e+000  8.7061e-002  9.6344e-001 23735 105817,105895,105869
 8.0000e+000 105996 -1.4501e+000  3.3015e-001  8.5413e-001 23735 105791,105895,105817
 8.0000e+000 105973 -1.1226e+000  2.8693e-001  7.7520e-001 23735 105817,105869,105843
 8.0000e+000 106417  7.1674e-001  2.1308e+000 -4.6894e-001 23295 106218,106296,106270
 8.0000e+000 106394  2.3560e-001  7.0867e-001 -3.3400e-001 23295 106218,106322,106296
 8.0000e+000 106371  4.1281e-002  5.1194e-001 -4.1466e-001 23295 106218,106270,106244
 8.0000e+000 106348  4.7157e-001  8.0936e-001 -1.4028e-001 23295 106192,106322,106218
 8.0000e+000 106746  1.6800e-001  7.6259e-001  1.2610e-001 23005 106521,106599,106547
 8.0000e+000 106723  6.1884e-001  8.3432e-001  1.7059e-002 23005 106521,106651,106599
 8.0000e+000 106700  4.0419e-001  7.8442e-001  5.7261e-002 23005 106547,106599,106573
 8.0000e+000 106677  7.7891e-001  8.1187e-001  4.0145e-001 23005 106599,106651,106625
 8.0000e+000 107331 -4.0418e-001  2.3324e-001 -2.8979e-001 22601 107060,107190,107138
 8.0000e+000 107308 -1.2929e+000 -2.8818e-002 -6.1302e-001 22601 107034,107190,107060
 8.0000e+000 107285 -1.8707e+000 -4.3623e-001 -5.8387e-001 22601 107060,107138,107112
 8.0000e+000 107262 -1.9878e+000 -3.2156e-001 -6.3456e-001 22601 107008,107190,107034
 8.0000e+000 107239 -2.1620e-001  1.1322e+000 -1.2307e+000 22601 107060,107112,107086
 8.0000e+000 107216 -6.2480e-001  3.6832e-001 -1.2864e-001 22601 107138,107190,107164
 8.0000e+000 107807 -5.7721e-001  1.4023e-001 -1.0856e-001 22031 107974,107902,107617
 8.0000e+000 107784 -7.1977e-001  4.0732e-001 -2.6792e-001 22031 107830,107565,107513
 8.0000e+000 107761 -4.6836e-001  9.2459e-002 -2.9832e-001 22031 108046,107830,107513
 8.0000e+000 107738 -4.4476e-001  3.6545e-001  2.3086e-002 22031 107974,107617,107591
 8.0000e+000 107715 -5.0955e-001 -5.3307e-002 -2.5430e-001 22031 108046,107513,107461
 8.0000e+000 107692 -1.7789e+000  6.4410e-001 -4.9015e-001 22031 107513,107565,107539
 8.0000e+000 107669 -2.7958e-001  2.1718e-001 -3.9086e-001 22031 107461,107513,107487
 8.0000e+000 107856 -8.4681e-001  2.7486e-001 -1.8198e-001 22031 107902,107565,107830
 8.0000e+000 107879 -5.6807e-001 -1.0239e-001 -1.6787e-002 22031 107643,107830,107435
 8.0000e+000 107928 -1.1624e+000  5.4431e-001 -5.2262e-001 22031 107643,107617,107902
 8.0000e+000 107951 -8.1522e-001  2.5015e-001  3.0736e-002 22031 107643,107902,107830
 8.0000e+000 108000 -7.4829e-001  4.5942e-001 -1.3158e-001 22031 107565,107902,107974
 8.0000e+000 108023 -7.1972e-001  3.8584e-001 -9.8801e-002 22031 107565,107974,107591
 8.0000e+000 108072 -4.3052e-001 -9.6622e-002 -9.7988e-002 22031 107435,107830,108046
 8.0000e+000 108095 -5.2275e-001 -3.2794e-001 -5.2582e-002 22031 107435,108046,107461
 8.0000e+000 108196  6.0946e-002  2.6756e-002 -2.1768e-001 21783 108118,108170,108144
 8.0000e+000 108655  1.6792e-001  9.6541e-001  5.6836e-001 21379 108407,108485,108459
 8.0000e+000 108632  1.9197e+000 -2.9144e-002  7.9352e-001 21379 108407,108511,108485
 8.0000e+000 108609  1.9671e+000 -2.5452e-001  5.1235e-001 21379 108381,108511,108407
 8.0000e+000 108586  8.5551e-001  5.6233e-001 -6.3486e-001 21379 108381,108537,108511
 8.0000e+000 108563  5.1101e-001  1.3286e-001  2.5860e-001 21379 108407,108459,108433
 8.0000e+000 109082 -9.1154e-002  7.7660e-001  1.9077e-001 20974 109105,108863,108811
 8.0000e+000 109059  3.8034e-001  1.0326e+000 -1.4635e-001 20974 109105,108811,108759
 8.0000e+000 109036 -1.0523e-001  1.7310e+000 -1.8314e-001 20974 109177,108889,108863
 8.0000e+000 109013  8.3277e-001  1.4195e+000 -1.5734e-001 20974 108811,108863,108837
 8.0000e+000 108990 -4.0056e-001 -1.0050e-002 -5.9716e-002 20974 108759,108941,108915
 8.0000e+000 108967  1.2149e-001 -3.2029e-001  3.3622e-002 20974 108759,108811,108785
 8.0000e+000 109131  1.8598e-001  1.3450e+000  4.7426e-002 20974 109177,108863,109105
 8.0000e+000 109154  5.0628e-003  1.9004e-002 -3.3822e-002 20974 108915,109105,108759
 8.0000e+000 109203 -2.4077e-001  1.4085e+000  1.9948e-001 20974 108915,108889,109177
 8.0000e+000 109226 -2.0349e-001  5.7349e-001  4.0824e-001 20974 108915,109177,109105
 8.0000e+000 109496 -8.4253e-001  1.4381e-001 -6.9280e-002 20470 109271,109375,109297
 8.0000e+000 109473 -7.8614e-001  2.6631e-001 -1.3073e-001 20470 109271,109401,109375
 8.0000e+000 109450 -9.9939e-001 -8.7641e-002 -1.4908e-001 20470 109297,109375,109349
 8.0000e+000 109427 -1.3747e+000 -8.5974e-001  2.7488e-001 20470 109297,109349,109323
 8.0000e+000 109955  2.3847e-001  1.8297e+000  1.0194e+000 20123 110050,109733,109707
 8.0000e+000 109932 -7.3271e-001  8.6814e-001  5.3926e-001 20123 110050,109707,109681
 8.0000e+000 109909  2.2193e-001  5.6001e-001  6.6926e-001 20123 109978,109759,109733
 8.0000e+000 109886 -1.6961e-001  3.5392e-001  5.8176e-001 20123 110122,109978,109733
 8.0000e+000 109863  3.2707e-001  2.8402e-001  2.8362e-001 20123 109785,109837,109811
 8.0000e+000 110004  1.5816e-001  5.0063e-001  4.5854e-001 20123 109785,109759,109978
 8.0000e+000 110027  1.0940e-002  3.6395e-001  3.0928e-001 20123 109785,109978,109837
 8.0000e+000 110076 -3.6428e-001  6.4355e-001  4.6002e-001 20123 110122,109733,110050
 8.0000e+000 110099 -3.1364e-001  5.1634e-001  8.9619e-002 20123 109837,110050,109681
 8.0000e+000 110148  2.0651e-001  7.6893e-001  4.1381e-001 20123 109837,109978,110122
 8.0000e+000 110171  2.6878e-002  1.0160e+000  2.8690e-001 20123 109837,110122,110050
 8.0000e+000 110500  1.2359e+000  3.9902e-001 -2.9169e-001 19511 110301,110379,110353
 8.0000e+000 110477  1.7428e+000  1.0064e+000 -5.1021e-001 19511 110301,110405,110379
 8.0000e+000 110454  4.5634e-001  3.8459e-001 -2.9328e-001 19511 110275,110405,110301
 8.0000e+000 110431  1.0630e+000  5.4285e-001  5.1704e-001 19511 110301,110353,110327
 8.0000e+000 110957  3.6225e-001  1.2742e+000 -7.7649e-001 19107 110683,110735,110709
 8.0000e+000 110934  1.8059e-001 -2.4080e-001 -1.0417e+000 19107 110683,110813,110735
 8.0000e+000 110911  4.9233e-001  7.1704e-001 -9.7960e-001 19107 110735,110813,110761
 8.0000e+000 110888 -7.6646e-001 -7.0760e-001 -8.8342e-001 19107 110683,110839,110813
 8.0000e+000 110865  2.1582e-001  8.2592e-002 -9.4554e-001 19107 110761,110813,110787
 8.0000e+000 111335 -2.1995e-001 -2.9610e-001 -1.6811e-001 18653 111087,111165,111139
 8.0000e+000 111312 -8.9657e-002 -1.2021e-001 -2.3375e-001 18653 111087,111217,111165
 8.0000e+000 111289 -1.9728e-001 -1.8226e-001 -1.2445e-001 18653 111061,111217,111087
 8.0000e+000 111266 -6.2474e-002 -4.8323e-002 -7.4101e-002 18653 111087,111139,111113
 8.0000e+000 111243 -1.0403e-001 -2.0247e-001 -1.6703e-001 18653 111165,111217,111191
 8.0000e+000 111735 -1.1523e+000 -3.5589e-001 -7.0433e-002 18213 111461,111513,111487
 8.0000e+000 111712 -1.3245e+000 -8.1272e-001  1.0678e-002 18213 111461,111617,111513
 8.0000e+000 111689 -1.2703e+000 -7.3389e-001 -1.9010e-001 18213 111513,111617,111591
 8.0000e+000 111666 -5.9106e-001 -3.2612e-001  5.5883e-002 18213 111513,111591,111539
 8.0000e+000 111643 -3.6709e-001 -3.8805e-001 -4.4822e-003 18213 111539,111591,111565
 8.0000e+000 111885  7.3989e-001 -4.3291e-001  2.5954e-001 17659 111784,111836,111810
 8.0000e+000 111862  1.7148e+000  4.9333e-001  6.5802e-001 17659 111758,111836,111784
 8.0000e+000 112287 -6.0654e-003  8.6345e-001 -3.5496e-001 17411 112065,112169,112143
 8.0000e+000 112264 -2.1917e+000 -4.0158e-002  3.6301e-001 17411 112039,112169,112065
 8.0000e+000 112241 -2.5045e+000  2.9836e-001 -7.0948e-001 17411 112013,112169,112039
 8.0000e+000 112218  3.5617e+000  1.1723e+000 -7.0310e-001 17411 112091,112143,112117
 8.0000e+000 112195 -1.4068e-001 -1.6921e-001  3.2252e-001 17411 112065,112143,112091
 8.0000e+000 112508 -8.3922e-001  5.3465e-001  9.5353e-002 17007 112384,112436,112410
 8.0000e+000 112485 -6.4391e-001  7.2157e-001  1.7599e-001 17007 112332,112436,112384
 8.0000e+000 112462 -8.2860e-001  3.6045e-001  1.1084e-001 17007 112332,112384,112358
 8.0000e+000 112658 -2.0836e+000 -4.3293e-001  3.1924e-001 16553 112557,112609,112583
 8.0000e+000 112635 -1.9936e+000 -3.1047e-001  3.6875e-001 16553 112531,112609,112557
 8.0000e+000 112761 -5.3656e-001  1.8988e+000 -3.3176e-001 16355 112683,112735,112709
 8.0000e+000 112913 -1.3293e+000  6.9546e-001  7.8016e-002 15949 112786,112838,112812
 8.0000e+000 112890 -6.5558e-001  1.8503e+000 -2.4313e-001 15949 112786,112864,112838
 8.0000e+000 113065  1.5830e-001 -2.0670e-001 -7.7375e-002 15609 112938,112990,112964
 8.0000e+000 113042  6.1437e-001 -9.0530e-003  1.3207e-003 15609 112938,113016,112990
 8.0000e+000 113420  7.9140e-001  7.5248e-001  2.6304e-001 15284 113247,113325,113299
 8.0000e+000 113397  7.4684e-001  6.4327e-001  1.6299e-001 15284 113195,113325,113247
 8.0000e+000 113374  6.2598e-001  6.2093e-001  1.1394e-001 15284 113195,113247,113221
 8.0000e+000 113351  7.9902e-001  1.2802e+000  3.2062e-001 15284 113247,113299,113273
 8.0000e+000 113521  4.5559e-001 -4.5025e-001  2.6305e-001 202 113443,113495,113469
 8.5000e+000 65564 -1.4778e-001  3.8667e-002 -9.6331e-003 65155 65414,65466,65440
 8.5000e+000 65541 -1.2832e-001  1.0618e-001 -9.3430e-003 65155 65414,65492,65466
 8.5000e+000 65518 -2.5349e-002  1.5716e-001 -3.4022e-002 65155 65388,65492,65414
 8.5000e+000 65883 -2.3568e-001  7.6262e-001 -3.6082e-002 64957 65635,65739,65713
 8.5000e+000 65860 -7.1810e-002  1.5328e+000 -2.7077e-002 64957 65635,65765,65739
 8.5000e+000 65837  1.3004e-001  1.6166e+000 -3.2617e-002 64957 65609,65765,65635
 8.5000e+000 65814 -1.5760e-001  1.1073e+000 -3.9710e-001 64957 65635,65713,65687
 8.5000e+000 65791 -6.1816e-002  1.3613e+000 -2.5617e-001 64957 65635,65687,65661
 8.5000e+000 65984 -2.7269e-001  2.8290e-001  1.9269e-001 64781 65906,65958,65932
 8.5000e+000 66232  3.6182e-001  4.4868e-001 -4.0239e-001 64469 66007,66059,66033
 8.5000e+000 66209 -2.7559e-001 -7.1276e-002 -6.2888e-001 64469 66007,66085,66059
 8.5000e+000 66186  9.1211e-002  8.8599e-001 -1.9934e-001 64469 66007,66137,66085
 8.5000e+000 66163 -5.6709e-001  3.5086e-002 -9.7111e-001 64469 66085,66137,66111
 8.5000e+000 66504  1.0551e-002  1.5262e+000 -9.5104e-002 64271 66279,66383,66305
 8.5000e+000 66481 -1.7867e-001  1.5501e+000  5.4522e-002 64271 66279,66409,66383
 8.5000e+000 66458 -2.7608e-001  1.9519e+000 -1.2309e-001 64271 66305,66357,66331
 8.5000e+000 66435  6.1768e-002  1.9261e+000 -1.1675e-001 64271 66305,66383,66357
 8.5000e+000 66705 -4.0514e-002  1.5673e+000 -2.3834e-001 64073 66728,66581,66555
 8.5000e+000 66682  9.2476e-003  1.5907e+000 -2.2494e-001 64073 66728,66555,66529
 8.5000e+000 66659 -6.5366e-001  2.0231e+000  5.8131e-001 64073 66581,66633,66607
 8.5000e+000 66754 -8.6277e-002  1.5967e+000 -2.4914e-001 64073 66633,66581,66728
 8.5000e+000 66777 -5.0977e-002  1.6139e+000 -2.3351e-001 64073 66633,66728,66529
 8.5000e+000 66951  2.3235e-001 -3.0274e-002  3.0010e-001 63783 66824,66876,66850
 8.5000e+000 66928 -8.2731e-001  6.2940e-001 -1.0385e-001 63783 66824,66902,66876
 8.5000e+000 67201  6.0418e-001  1.7549e+000 -1.1158e-001 63585 66976,67080,67054
 8.5000e+000 67178  2.7424e-001  1.6223e+000 -1.9311e-001 63585 66976,67106,67080
 8.5000e+000 67155  3.1224e-001  8.3999e-001 -1.4100e-002 63585 66976,67054,67028
 8.5000e+000 67132  4.6050e-001  1.0781e+000  2.9462e-001 63585 66976,67028,67002
 8.5000e+000 67654 -1.6745e-001  1.0918e+000  4.2586e-002 63295 67357,67487,67383
 8.5000e+000 67631 -2.0808e-001  1.5362e+000 -3.1506e-001 63295 67331,67487,67357
 8.5000e+000 67608  8.0041e-002  1.9974e+000  7.8287e-002 63295 67331,67513,67487
 8.5000e+000 67585 -2.3869e-002  2.0882e+000 -7.9084e-002 63295 67435,67487,67461
 8.5000e+000 67562  8.2816e-002  2.0158e+000  4.3442e-002 63295 67383,67487,67435
 8.5000e+000 67539  1.7418e-004  1.5606e+000 -7.7538e-002 63295 67383,67435,67409
 8.5000e+000 67853 -3.3638e-002  1.3066e+000 -3.1401e-002 62891 67876,67703,67677
 8.5000e+000 67830  5.1814e-002  1.7025e+000 -8.9272e-003 62891 67876,67677,67781
 8.5000e+000 67807 -2.1795e-001  1.0503e+000 -1.2557e-001 62891 67948,67729,67703
 8.5000e+000 67902 -3.9594e-002  1.2234e+000 -2.2048e-001 62891 67948,67703,67876
 8.5000e+000 67925  3.3965e-001  1.3811e+000 -2.4864e-001 62891 67755,67876,67781
 8.5000e+000 67974  6.2093e-002  8.4213e-001 -8.0555e-002 62891 67755,67729,67948
 8.5000e+000 67997  1.1134e-001  9.2062e-001 -1.3941e-001 62891 67755,67948,67876
 8.5000e+000 68218  2.5325e-002 -4.8273e-002 -3.5894e-002 62693 68042,68120,68068
 8.5000e+000 68195  6.6579e-004 -3.8676e-002  9.5860e-003 62693 68042,68146,68120
 8.5000e+000 68172 -8.1671e-002  6.0903e-002 -2.5975e-002 62693 68068,68120,68094
 8.5000e+000 68468  8.8734e-002  1.2127e-005 -9.2993e-003 62289 68491,68295,68269
 8.5000e+000 68445  2.4867e-002 -1.8639e-002 -2.7128e-002 62289 68563,68491,68269
 8.5000e+000 68422  1.6324e-002  1.6691e-002  9.9838e-004 62289 68563,68269,68243
 8.5000e+000 68399 -6.2932e-002 -1.0541e-001 -7.9654e-002 62289 68295,68347,68321
 8.5000e+000 68517  5.2915e-002 -1.2445e-002 -3.3215e-002 62289 68347,68295,68491
 8.5000e+000 68540 -2.5131e-002  2.1328e-003 -5.5529e-002 62289 68347,68491,68373
 8.5000e+000 68589  5.0184e-002  5.1905e-002 -3.1243e-002 62289 68373,68491,68563
 8.5000e+000 68612  2.7250e-002  6.3114e-002 -1.5514e-003 62289 68373,68563,68243
 8.5000e+000 68911  5.2008e-002  1.1984e+000 -4.8129e-002 62091 69222,68934,68741
 8.5000e+000 68888 -2.8915e-001  1.3145e+000 -5.7915e-002 62091 69006,68934,68689
 8.5000e+000 68865 -4.5821e-001  1.1272e+000 -2.3848e-001 62091 69006,68689,68663
 8.5000e+000 68842  2.3683e-001  1.5839e+000  2.5191e-001 62091 69078,68793,68767
 8.5000e+000 68819  6.4622e-002  1.2112e+000 -1.1131e-001 62091 69222,68741,68715
 8.5000e+000 68960  2.6723e-001  1.4117e+000 -1.3587e-001 62091 68767,68741,68934
 8.5000e+000 68983  1.1177e-001  1.6788e+000  5.9059e-002 62091 69078,68767,68934
 8.5000e+000 69032 -2.1845e-001  1.4971e+000 -1.4868e-002 62091 69150,69006,68637
 8.5000e+000 69055 -2.3077e-001  1.4177e+000 -7.3911e-002 62091 68637,69006,68663
 8.5000e+000 69104  1.5061e-001  1.3819e+000  5.5281e-003 62091 68637,68793,69078
 8.5000e+000 69127 -1.9438e-001  1.4785e+000 -2.7929e-002 62091 69150,68637,69078
 8.5000e+000 69176 -1.1490e-001  1.3252e+000  1.9660e-003 62091 68934,69006,69150
 8.5000e+000 69199  2.2510e-002  1.4367e+000 -5.7558e-002 62091 68934,69150,69078
 8.5000e+000 69248  2.3590e-002  1.1252e+000 -5.4039e-002 62091 68689,68934,69222
 8.5000e+000 69271  3.2988e-002  1.1057e+000 -9.7320e-002 62091 68689,69222,68715
 8.5000e+000 69521 -2.2706e-001  7.5712e-002 -1.3672e-002 61893 69544,69348,69296
 8.5000e+000 69498 -7.3583e-002  1.0647e-001  1.1053e-002 61893 69544,69296,69400
 8.5000e+000 69475  2.4681e-002  1.0595e-001 -9.6107e-003 61893 69296,69426,69400
 8.5000e+000 69452  3.2166e-002 -5.2389e-002 -2.0021e-001 61893 69296,69348,69322
 8.5000e+000 69570 -1.4654e-001  3.6771e-003  1.0689e-001 61893 69374,69348,69544
 8.5000e+000 69593  1.2511e-001  1.0009e-001  1.2351e-001 61893 69374,69544,69400
 8.5000e+000 70046 -1.1240e-001  1.2628e+000 -2.8803e-002 61467 69749,69905,69879
 8.5000e+000 70023 -1.3796e-001  1.0404e+000 -3.0041e-001 61467 69723,69905,69749
 8.5000e+000 70000 -1.8051e-001  1.1480e+000 -1.3197e-003 61467 70069,69827,69775
 8.5000e+000 69977  1.6628e-001  1.9442e+000 -2.7619e-001 61467 70069,69775,69749
 8.5000e+000 69954  2.3405e-002  5.5688e-001 -1.6176e-003 61467 70141,69853,69827
 8.5000e+000 69931 -3.1910e-001  1.2372e+000  3.8598e-001 61467 69775,69827,69801
 8.5000e+000 70095 -8.5376e-002  7.1822e-001  1.0244e-001 61467 70141,69827,70069
 8.5000e+000 70118 -1.2727e-001  1.1570e+000 -8.2898e-003 61467 69879,70069,69749
 8.5000e+000 70167 -9.8730e-002  8.0465e-001 -9.6040e-003 61467 69879,69853,70141
 8.5000e+000 70190 -3.5993e-002  1.1871e+000  9.8414e-002 61467 69879,70141,70069
 8.5000e+000 70291  1.6705e-001  2.1035e+000  2.1905e-001 61013 70213,70265,70239
 8.5000e+000 70441 -1.1210e-001  8.7233e-002  1.0139e-001 60651 70340,70392,70366
 8.5000e+000 70418 -2.1136e-001  1.6316e-001 -4.5751e-003 60651 70314,70392,70340
 8.5000e+000 70642 -9.8492e-002  1.1341e+000  3.1266e-001 60311 70665,70492,70466
 8.5000e+000 70619  7.4745e-002  1.5382e+000  3.0347e-001 60311 70665,70466,70570
 8.5000e+000 70596 -3.4313e-001  4.0003e-001  3.8455e-002 60311 70492,70544,70518
 8.5000e+000 70691 -3.9181e-003  7.4046e-001 -1.1458e-001 60311 70544,70492,70665
 8.5000e+000 70714  2.6499e-001  1.3633e+000 -1.3682e-001 60311 70544,70665,70570
 8.5000e+000 70964 -2.8209e-001  8.9007e-001  4.9883e-002 59907 70987,70765,70739
 8.5000e+000 70941 -6.0469e-002  1.3950e+000 -5.2648e-002 59907 71059,70987,70739
 8.5000e+000 70918  8.6095e-002  2.1156e+000 -1.3536e-001 59907 71059,70739,70869
 8.5000e+000 70895  2.4368e-002  1.4224e+000 -1.0087e-001 59907 70817,70869,70843
 8.5000e+000 71013 -1.0079e-001  9.2854e-001 -2.3508e-001 59907 70791,70765,70987
 8.5000e+000 71036 -4.1152e-002  9.3710e-001 -2.0639e-001 59907 70791,70987,70817
 8.5000e+000 71085  1.0093e-001  9.1363e-001 -1.6646e-001 59907 70817,70987,71059
 8.5000e+000 71108 -4.0068e-002  1.2294e+000 -1.2101e-001 59907 70817,71059,70869
 8.5000e+000 71441  5.1474e-001  7.1707e-001 -1.0987e+000 59417 71464,71242,71216
 8.5000e+000 71418  8.8121e-001  1.0155e+000  1.1855e-001 59417 71464,71216,71320
 8.5000e+000 71395  4.6147e-001  1.1954e+000  2.7577e-001 59417 71216,71346,71320
 8.5000e+000 71372 -1.4567e+000  2.0998e-001 -1.4751e-001 59417 71268,71320,71294
 8.5000e+000 71490 -3.0175e-001  3.9401e-001 -1.3038e+000 59417 71268,71242,71464
 8.5000e+000 71513 -8.5995e-001  4.0150e-001 -9.8233e-003 59417 71268,71464,71320
 8.5000e+000 71712  1.9329e-002  1.2232e+000 -1.8057e-001 58913 71562,71614,71588
 8.5000e+000 71689  9.1394e-001  1.0825e+000 -5.5437e-001 58913 71536,71614,71562
 8.5000e+000 71666  6.5195e-001  8.6353e-001 -4.5759e-001 58913 71536,71640,71614
 8.5000e+000 72171  6.7837e-001  1.5270e+000 -3.4576e-001 58409 72194,72027,72001
 8.5000e+000 72148  5.1401e-001  8.3907e-001 -4.1219e-001 58409 72194,72001,71949
 8.5000e+000 72125  1.8602e-001  1.1751e+000 -3.8923e-001 58409 71923,72053,71949
 8.5000e+000 72102  6.9810e-002  5.6620e-001 -2.6310e-001 58409 71949,72001,71975
 8.5000e+000 72079  4.1521e-001  1.2208e+000 -4.2275e-001 58409 71897,72053,71923
 8.5000e+000 72220  5.8785e-001  1.6384e+000 -4.2890e-003 58409 72053,72027,72194
 8.5000e+000 72243  5.6025e-001  1.3007e+000 -1.3200e-001 58409 72053,72194,71949
 8.5000e+000 72491 -1.9732e+000 -8.2313e-001 -1.2856e+000 57855 72514,72318,72292
 8.5000e+000 72468  1.1224e+000  4.4617e-001 -1.4115e+000 57855 72514,72292,72266
 8.5000e+000 72445 -1.1277e+000  1.3036e-001  3.0614e-002 57855 72318,72396,72370
 8.5000e+000 72422 -3.0274e+000  9.7315e-001 -9.6080e-001 57855 72318,72370,72344
 8.5000e+000 72540 -2.2633e+000 -3.6862e-001 -8.3204e-001 57855 72396,72318,72514
 8.5000e+000 72563 -1.9682e+000 -3.4956e-001 -8.6042e-001 57855 72396,72514,72266
 8.5000e+000 72811  1.0676e+000  2.1797e-001 -6.3737e-001 57401 72612,72690,72638
 8.5000e+000 72788  1.6020e-001 -1.5072e-001  5.0288e-002 57401 72586,72690,72612
 8.5000e+000 72765 -6.0299e-001 -8.9598e-001 -1.1197e+000 57401 72638,72690,72664
 8.5000e+000 72742  2.3787e-001  9.5368e-001 -2.3142e-001 57401 72586,72716,72690
 8.5000e+000 73144  1.1681e-001  7.3037e-001 -1.8232e-001 57004 72919,72997,72945
 8.5000e+000 73121  1.8195e-001  1.4942e+000 -3.8651e-001 57004 72919,73049,72997
 8.5000e+000 73098  9.4581e-002  9.8361e-001 -3.6057e-001 57004 72945,72997,72971
 8.5000e+000 73075  2.8089e-001  1.8303e+000 -4.5475e-001 57004 72997,73049,73023
 8.5000e+000 73650 -1.2976e+000  1.6875e+000 -1.1498e+000 56592 73673,73379,73353
 8.5000e+000 73627  1.7678e+000  2.2666e+000 -1.8426e+000 56592 73673,73353,73327
 8.5000e+000 73604  1.4859e-001  1.5085e+000 -5.0398e-001 56592 73745,73509,73483
 8.5000e+000 73581 -2.3514e+000 -5.4975e-001 -3.5150e-001 56592 73379,73457,73405
 8.5000e+000 73558  3.9637e-001  3.3241e-001  1.3736e-001 56592 73379,73483,73457
 8.5000e+000 73535  2.2777e+000  5.2365e-001 -1.1368e-001 56592 73405,73457,73431
 8.5000e+000 73699 -1.0471e+000  1.1488e+000  2.7895e-001 56592 73483,73379,73673
 8.5000e+000 73722 -1.8855e-002  1.8173e+000 -6.0255e-001 56592 73745,73483,73673
 8.5000e+000 73771 -3.8828e-003  1.1662e+000 -5.5128e-001 56592 73327,73509,73745
 8.5000e+000 73794 -2.3104e-001  1.4022e+000 -6.9401e-001 56592 73327,73745,73673
 8.5000e+000 74123  1.2416e+000  8.7670e-001 -1.8826e-001 56152 74146,74002,73924
 8.5000e+000 74100  1.0584e+000  6.7955e-001 -3.0849e-002 56152 74146,73924,73898
 8.5000e+000 74077  1.4319e+000  1.1297e+000 -2.8557e-001 56152 73924,74002,73976
 8.5000e+000 74054  1.0609e+000  2.8117e-001  1.6653e-001 56152 73924,73976,73950
 8.5000e+000 74172  1.6440e+000  1.1689e+000 -3.8899e-001 56152 74028,74002,74146
 8.5000e+000 74195  1.2658e+000  7.8279e-001 -1.8569e-001 56152 74028,74146,73898
 8.5000e+000 74345 -8.7802e-001  1.3417e-001  3.9505e-001 55634 74218,74270,74244
 8.5000e+000 74322 -1.1844e-001  2.2787e-001  1.8518e-001 55634 74218,74296,74270
 8.5000e+000 74823  4.3568e-001 -1.2748e+000  4.9790e-001 55016 74918,74846,74581
 8.5000e+000 74800 -1.0169e-001  8.4234e-002  2.7920e-001 55016 74846,74477,74633
 8.5000e+000 74777 -3.9633e-001 -2.1778e+000  8.5241e-001 55016 74918,74581,74555
 8.5000e+000 74754 -8.0642e-001 -1.2745e+000  9.3596e-001 55016 74990,74503,74477
 8.5000e+000 74731 -1.3884e+000 -1.5205e-001  6.8034e-001 55016 74451,74633,74477
 8.5000e+000 74708 -1.4631e+000  9.4358e-001  2.7578e-001 55016 74451,74659,74633
 8.5000e+000 74685 -1.8909e+000 -2.4344e+000  1.7723e+000 55016 74503,74555,74529
 8.5000e+000 74872  4.1681e-001 -1.4033e+000  3.7139e-001 55016 74607,74581,74846
 8.5000e+000 74895 -8.3628e-002 -1.0980e+000  2.9354e-001 55016 74607,74846,74633
 8.5000e+000 74944 -7.8797e-001 -1.1848e+000  7.4322e-001 55016 74477,74846,74918
 8.5000e+000 74967 -8.7901e-001 -1.2646e+000  8.2721e-001 55016 74990,74477,74918
 8.5000e+000 75016 -5.5347e-001 -1.1605e+000  1.0195e+000 55016 74555,74503,74990
 8.5000e+000 75039 -6.4492e-001 -1.2019e+000  8.9329e-001 55016 74555,74990,74918
 8.5000e+000 75287 -1.9659e+000 -3.3439e+000 -5.5577e-002 54726 75310,75140,75114
 8.5000e+000 75264 -2.4679e+000 -2.1306e+000 -3.6229e-001 54726 75310,75114,75088
 8.5000e+000 75241 -2.4818e+000 -1.6232e+000 -1.3621e+000 54726 75088,75192,75166
 8.5000e+000 75218 -3.9958e+000  5.4741e-002 -1.1573e+000 54726 75062,75192,75088
 8.5000e+000 75336 -1.3435e+000 -2.6548e+000 -7.7898e-001 54726 75166,75140,75310
 8.5000e+000 75359 -2.3342e+000 -1.4521e+000 -7.8814e-001 54726 75166,75310,75088
 8.5000e+000 75946 -1.7084e-001  1.8866e-002  1.5456e-001 54322 75969,75701,75649
 8.5000e+000 75923 -5.8706e-001 -2.7019e-001  2.8314e-001 54322 75969,75649,75623
 8.5000e+000 75900 -3.4064e-001 -1.8261e-001 -6.4626e-002 54322 76041,75753,75701
 8.5000e+000 75877 -1.9045e-001  6.3254e-001  8.5537e-004 54322 75623,75805,75779
 8.5000e+000 75854 -4.3722e-001 -1.7355e-001 -1.8877e-001 54322 75701,75753,75727
 8.5000e+000 75831 -2.1026e-001 -1.6793e-001 -8.6329e-003 54322 75649,75701,75675
 8.5000e+000 75995 -4.6784e-001 -1.0344e-001  5.0023e-002 54322 76041,75701,75969
 8.5000e+000 76018 -4.4416e-001  1.0578e-001  1.4276e-001 54322 75779,75969,75623
 8.5000e+000 76067 -2.8519e-001  2.8586e-002 -1.0892e-001 54322 75779,75753,76041
 8.5000e+000 76090 -3.6218e-001  1.8375e-001  8.5651e-003 54322 75779,76041,75969
 8.5000e+000 76468 -8.0022e-002  1.6035e-001 -3.2140e-002 53868 76491,76272,76220
 8.5000e+000 76445 -7.4552e-002  1.7837e-001 -4.8418e-002 53868 76491,76220,76324
 8.5000e+000 76422  2.5235e-002  1.0419e-001 -1.0260e-001 53868 76220,76272,76246
 8.5000e+000 76399 -1.0276e-001  5.0148e-001  1.0449e-001 53868 76194,76324,76220
 8.5000e+000 76376 -5.9122e-001  3.0232e-001  8.3752e-003 53868 76194,76350,76324
 8.5000e+000 76517 -8.1968e-002  1.3391e-001 -2.0520e-002 53868 76298,76272,76491
 8.5000e+000 76540 -7.2217e-002  1.5745e-001 -3.7112e-002 53868 76298,76491,76324
 8.5000e+000 76690 -5.6863e-002  2.2344e-001 -4.0647e-002 53356 76589,76641,76615
 8.5000e+000 76667  5.2055e-002  6.9529e-001  8.7110e-003 53356 76563,76641,76589
 8.5000e+000 76938 -5.0842e-001  2.2739e-001 -6.8165e-001 53009 77105,76961,76765
 8.5000e+000 76915  3.0726e-002  4.6159e-001 -3.7213e-001 53009 76961,76713,76843
 8.5000e+000 76892 -3.1843e-001  3.7027e-001 -1.7553e-001 53009 77033,76817,76791
 8.5000e+000 76869 -1.1127e+000 -1.7842e-001 -1.2728e+000 53009 77105,76765,76739
 8.5000e+000 76987 -1.7683e-001  9.4346e-001 -4.9059e-001 53009 76791,76765,76961
 8.5000e+000 77010 -3.6754e-001  4.0239e-001 -4.0026e-001 53009 77033,76791,76961
 8.5000e+000 77059  2.2145e-002  5.1753e-001 -1.8898e-001 53009 76843,76817,77033
 8.5000e+000 77082 -4.5712e-002  5.3886e-001 -3.9605e-001 53009 76843,77033,76961
 8.5000e+000 77131  1.4316e-001  6.3391e-001 -4.2348e-001 53009 76713,76961,77105
 8.5000e+000 77154  4.3661e-002  5.8823e-001 -9.1913e-001 53009 76713,77105,76739
 8.5000e+000 77355  1.5446e+000 -1.9983e+000  8.6666e-001 52390 77378,77257,77231
 8.5000e+000 77332  1.1134e+000 -1.5029e+000  5.7791e-001 52390 77378,77231,77179
 8.5000e+000 77309  1.3482e+000 -1.7561e+000  5.7570e-002 52390 77179,77231,77205
 8.5000e+000 77404  1.9841e+000 -1.6862e+000  7.2781e-001 52390 77283,77257,77378
 8.5000e+000 77427  1.5406e+000 -1.1613e+000  4.3014e-001 52390 77283,77378,77179
 8.5000e+000 77677 -1.9566e+000  2.2253e+000 -1.8804e+000 51986 77700,77504,77478
 8.5000e+000 77654  1.4245e-001  3.1605e+000 -2.1868e+000 51986 77700,77478,77452
 8.5000e+000 77631 -8.5236e-002  1.4292e+000 -5.8246e-001 51986 77772,77556,77530
 8.5000e+000 77608 -1.9328e-001  1.3481e+000 -7.5199e-001 51986 77452,77582,77556
 8.5000e+000 77726 -4.9008e-001  2.2926e+000 -7.7748e-001 51986 77530,77504,77700
 8.5000e+000 77749  1.0275e-001  1.7849e+000 -8.8201e-001 51986 77772,77530,77700
 8.5000e+000 77798  3.2427e-001  1.6852e+000 -9.2656e-001 51986 77452,77556,77772
 8.5000e+000 77821  5.3931e-001  1.7821e+000 -1.1829e+000 51986 77452,77772,77700
 8.5000e+000 78282  5.9795e-001  8.1766e-001 -1.6909e-001 51738 78008,78138,78060
 8.5000e+000 78259  1.8926e+000  1.9147e+000 -1.7107e+000 51738 78008,78164,78138
 8.5000e+000 78236  4.0331e-001  1.3031e-001 -3.8839e-002 51738 78086,78138,78112
 8.5000e+000 78213  3.3911e-001  5.4940e-001 -2.7858e-001 51738 78060,78138,78086
 8.5000e+000 78190  8.2974e-001  1.4166e-002 -3.4902e-001 51738 78008,78060,78034
 8.5000e+000 78432 -1.7669e-001 -1.3718e-001  3.9004e-003 51148 78305,78357,78331
 8.5000e+000 78409 -1.5255e-001  6.5742e-002 -3.0209e-002 51148 78305,78383,78357
 8.5000e+000 78891 -3.0084e-001 -2.3897e-001  1.3340e-001 50808 78914,78695,78669
 8.5000e+000 78868 -2.3163e-001 -1.0850e-001  5.6885e-002 50808 78914,78669,78643
 8.5000e+000 78845 -6.4286e-002 -1.8082e-002  2.9516e-002 50808 78643,78773,78747
 8.5000e+000 78822 -5.6453e-002 -6.0035e-002  3.4496e-002 50808 78617,78773,78643
 8.5000e+000 78799 -1.4049e-001  8.4346e-002  1.7444e-001 50808 78695,78747,78721
 8.5000e+000 78940 -1.5066e-001 -1.1557e-001  6.6523e-002 50808 78747,78695,78914
 8.5000e+000 78963 -2.1742e-001 -7.7991e-002  1.6165e-002 50808 78747,78914,78643
 8.5000e+000 79260 -1.9644e-001 -2.5849e-001 -1.8748e-001 50468 79283,79090,79012
 8.5000e+000 79237 -1.9554e-001 -1.6418e-001 -1.7488e-001 50468 79283,79012,78986
 8.5000e+000 79214 -3.7552e-001 -3.3508e-001 -1.8727e-001 50468 79012,79090,79038
 8.5000e+000 79191 -1.2429e-001 -2.4236e-002 -2.2685e-001 50468 78986,79142,79116
 8.5000e+000 79168 -2.3963e-001 -3.4341e-001 -2.5109e-001 50468 79038,79090,79064
 8.5000e+000 79309 -2.3812e-001 -1.9368e-001 -2.1436e-001 50468 79116,79090,79283
 8.5000e+000 79332 -2.2074e-001 -7.7767e-002 -1.9344e-001 50468 79116,79283,78986
 8.5000e+000 79889  1.4557e+000  1.9230e+000 -8.1748e-001 50064 79569,79725,79699
 8.5000e+000 79866  2.9154e-001  1.2796e+000 -1.5919e+000 50064 79543,79725,79569
 8.5000e+000 79843  1.4590e+000  9.5503e-001 -7.4972e-001 50064 79621,79699,79673
 8.5000e+000 79820  1.5975e+000  1.2636e+000 -9.4022e-001 50064 79595,79699,79621
 8.5000e+000 79797  9.6846e-001  1.5142e+000 -1.1713e+000 50064 79569,79699,79595
 8.5000e+000 79774  1.1422e+000  2.8402e+000 -3.8597e-001 50064 79517,79725,79543
 8.5000e+000 79751  6.9204e-001  9.8947e-001 -8.2623e-001 50064 79621,79673,79647
 8.5000e+000 80169  1.5280e+000  2.0963e+000 -9.5551e-001 49724 80019,80097,80071
 8.5000e+000 80146  1.2592e+000  3.2379e+000 -1.2423e+000 49724 79993,80097,80019
 8.5000e+000 80123  9.6577e-001  1.9292e+000 -1.1279e+000 49724 80019,80071,80045
 8.5000e+000 80626 -1.0695e+000 -4.4812e-001 -2.4644e-001 49277 80352,80482,80378
 8.5000e+000 80603 -7.0771e-001 -3.4751e-001  6.9618e-002 49277 80352,80508,80482
 8.5000e+000 80580 -8.4449e-001 -3.3230e-001 -1.7559e-001 49277 80378,80482,80456
 8.5000e+000 80557 -1.0535e+000 -8.0275e-001 -1.7762e-001 49277 80378,80430,80404
 8.5000e+000 80534 -1.4134e+000 -5.6289e-001 -1.2793e-001 49277 80378,80456,80430
 8.5000e+000 81230 -1.9969e+000 -1.0821e+000  8.2166e-001 48716 81253,80835,80809
 8.5000e+000 81207 -1.2405e+000 -1.4466e-002 -4.2020e-001 48716 81397,81253,80809
 8.5000e+000 81184 -1.0141e+000  1.2948e+000 -4.2509e-001 48716 81325,80913,80887
 8.5000e+000 81161 -8.0633e-001 -8.9118e-001 -3.4622e-001 48716 81397,80809,81017
 8.5000e+000 81138 -1.6437e+000  7.3714e-001 -7.8974e-001 48716 81469,80965,80913
 8.5000e+000 81115 -8.2041e-001  2.4078e-001  1.1555e+000 48716 80835,80887,80861
 8.5000e+000 81092  4.0856e-001 -1.6946e+000  1.7536e+000 48716 80809,81043,81017
 8.5000e+000 81069 -1.7477e+000 -7.5506e-001 -1.8096e+000 48716 80913,80965,80939
 8.5000e+000 81279  7.0738e-001  4.9774e-001  1.2598e-001 48716 80887,80835,81253
 8.5000e+000 81302 -1.5704e+000  9.7175e-001 -6.8527e-001 48716 81325,80887,81253
 8.5000e+000 81351 -1.2550e+000  8.6900e-001 -6.3236e-001 48716 81469,80913,81325
 8.5000e+000 81374 -1.4597e+000  1.4564e+000 -6.3996e-001 48716 80991,81325,81253
 8.5000e+000 81423 -1.1756e+000  1.1711e+000  1.0708e-002 48716 80991,81253,81397
 8.5000e+000 81446 -9.0172e-001  8.0419e-002  1.0549e-001 48716 80991,81397,81017
 8.5000e+000 81495 -2.3507e+000  1.0590e+000 -9.2796e-001 48716 80991,80965,81469
 8.5000e+000 81518 -2.0533e+000  1.1009e+000 -7.9119e-001 48716 80991,81469,81325
 8.5000e+000 81717 -1.0248e-001 -4.7487e-003 -7.1365e-002 48262 81740,81567,81541
 8.5000e+000 81694  5.3028e-003  5.6650e-002 -9.8086e-002 48262 81740,81541,81645
 8.5000e+000 81671 -1.0967e-001 -2.2449e-001 -6.2083e-002 48262 81567,81619,81593
 8.5000e+000 81766 -4.1663e-002 -5.7534e-002  3.7394e-003 48262 81619,81567,81740
 8.5000e+000 81789  5.7441e-002 -7.2019e-003 -1.8770e-002 48262 81619,81740,81645
 8.5000e+000 81939  1.5540e+000  2.7681e+000 -5.1140e-001 47957 82034,81962,81864
 8.5000e+000 81916  4.8711e-001  2.0524e+000 -7.0613e-001 47957 82166,81962,81838
 8.5000e+000 81988  1.8939e+000  2.4246e+000  3.3604e-001 47957 82294,81962,81890
 8.5000e+000 82011  1.4449e+000  2.1325e+000  2.2216e-002 47957 81890,81962,81812
 8.5000e+000 82060  1.5249e+000  3.0298e+000 -2.9561e-001 47957 81838,81962,82034
 8.5000e+000 82192  3.2366e-002  1.9686e+000  4.4325e-001 47957 81812,81962,82166
 8.5000e+000 82320  2.5776e+000  2.3292e+000  3.5405e-002 47957 81864,81962,82294
 8.5000e+000 82549 -2.2055e-001 -1.6353e-001 -1.3232e-001 47617 82448,82500,82474
 8.5000e+000 82526  2.3112e-002  3.5261e-001 -3.8386e-002 47617 82422,82500,82448
 8.5000e+000 82902  7.3845e-001  4.0462e-001 -1.8995e-001 47255 82729,82807,82755
 8.5000e+000 82879  9.5323e-001  6.2242e-001 -8.3704e-002 47255 82703,82807,82729
 8.5000e+000 82856  4.6248e-001  2.8973e-001  8.4670e-002 47255 82755,82807,82781
 8.5000e+000 82833  9.9873e-001  6.4179e-001 -7.9135e-002 47255 82677,82807,82703
 8.5000e+000 83182  1.5271e-001 -8.2451e-001  3.7866e-001 46680 83032,83084,83058
 8.5000e+000 83159  5.5702e-001 -4.8328e-001  6.0067e-001 46680 83205,83084,83032
 8.5000e+000 83136 -4.4829e-001  1.7148e-002  4.7777e-001 46680 83006,83110,83084
 8.5000e+000 83231  1.0094e+000 -4.7057e-002  8.3238e-001 46680 83006,83084,83205
 8.5000e+000 83737 -1.8139e+000 -5.5823e-001  3.3212e-001 46290 83832,83760,83492
 8.5000e+000 83714 -1.8190e+000 -2.7142e-001  2.7759e-001 46290 83760,83440,83414
 8.5000e+000 83691 -1.4022e+000 -8.1600e-001  2.5700e-001 46290 83832,83492,83466
 8.5000e+000 83668 -1.4932e+000 -1.3922e+000  4.8502e-001 46290 83492,83570,83544
 8.5000e+000 83645 -2.3717e+000 -7.7216e-001  6.5006e-002 46290 83414,83596,83570
 8.5000e+000 83622 -1.3519e+000 -1.0009e+000  7.4651e-001 46290 83492,83544,83518
 8.5000e+000 83786 -1.7267e+000 -5.1163e-001  2.5557e-001 46290 83570,83492,83760
 8.5000e+000 83809 -1.8139e+000 -6.7608e-001  8.1039e-002 46290 83570,83760,83414
 8.5000e+000 83858 -1.2901e+000 -2.3497e-001  4.8473e-001 46290 83440,83760,83832
 8.5000e+000 83881 -5.8490e-001 -4.6303e-001  3.3400e-001 46290 83440,83832,83466
 8.5000e+000 84161  1.1159e-002 -5.3612e-001  1.0076e-002 45829 84011,84063,84037
 8.5000e+000 84138 -2.4563e-001 -5.2316e-001 -7.7174e-002 45829 84011,84089,84063
 8.5000e+000 84115 -3.0866e-002 -4.2701e-001  4.3775e-003 45829 83985,84089,84011
 8.5000e+000 84311  8.9046e-001  1.3016e+000  2.0490e-001 45631 84184,84236,84210
 8.5000e+000 84288  6.1980e-001  1.6681e-001 -9.7028e-002 45631 84184,84262,84236
 8.5000e+000 84657 -2.0667e-001 -2.8630e-001 -7.1646e-002 45155 84680,84490,84412
 8.5000e+000 84634 -2.5421e-001 -1.9214e-001 -3.5835e-002 45155 84680,84412,84360
 8.5000e+000 84611 -3.4174e-001 -3.8353e-001  4.3928e-002 45155 84412,84490,84438
 8.5000e+000 84588 -4.3277e-002 -4.7432e-003 -6.7569e-002 45155 84334,84516,84360
 8.5000e+000 84565 -2.0948e-001 -6.1543e-002 -3.4942e-001 45155 84360,84412,84386
 8.5000e+000 84542 -3.0247e-001 -4.2431e-001  1.5380e-002 45155 84438,84490,84464
 8.5000e+000 84706 -2.1163e-001 -1.9582e-001 -9.1038e-002 45155 84516,84490,84680
 8.5000e+000 84729 -2.5074e-001 -9.3388e-002 -6.9192e-002 45155 84516,84680,84360
 8.5000e+000 85077 -8.0775e-002 -4.5493e-001 -2.3960e-001 44508 85100,84754,84910
 8.5000e+000 85054 -1.6903e-001  2.4082e-002 -9.0450e-002 44508 84754,84936,84910
 8.5000e+000 85031 -4.8484e-001 -8.2279e-001  8.5846e-002 44508 85100,84910,84884
 8.5000e+000 85008 -3.7121e-001 -3.3967e-002 -4.3879e-001 44508 84780,84884,84832
 8.5000e+000 84985 -4.2360e-001 -1.5238e-001 -4.2954e-001 44508 84780,84832,84806
 8.5000e+000 84962 -1.1397e+000 -8.3134e-001 -5.7534e-002 44508 84832,84884,84858
 8.5000e+000 85126 -4.1117e-001  8.2099e-002 -5.3595e-001 44508 84780,84754,85100
 8.5000e+000 85149 -7.1766e-001 -2.7989e-001 -2.3963e-001 44508 84780,85100,84884
 8.5000e+000 85482  8.5615e-002 -1.1389e-001 -1.1127e-001 44104 85335,85387,85361
 8.5000e+000 85459  3.2814e-002 -3.8475e-001 -5.5559e-002 44104 85309,85387,85335
 8.5000e+000 85436 -2.4215e-002 -2.7792e-001 -1.5407e-001 44104 85257,85387,85309
 8.5000e+000 85413 -1.1378e-001 -1.3970e-001 -2.3462e-002 44104 85257,85309,85283
 8.5000e+000 85811 -2.8371e-001 -3.3872e-001 -1.5794e-001 43600 85586,85664,85612
 8.5000e+000 85788 -2.3852e-001 -6.9535e-002 -1.1467e-001 43600 85586,85690,85664
 8.5000e+000 85765 -1.3036e-001  1.4030e-001 -2.1485e-001 43600 85586,85716,85690
 8.5000e+000 85742 -3.1924e-001 -2.8013e-001 -2.7963e-001 43600 85612,85664,85638
 8.5000e+000 86010  2.2435e-001  6.8449e-002 -2.1599e-001 43224 85886,85938,85912
 8.5000e+000 85987  2.4020e-001  4.3414e-002 -1.8406e-001 43224 85834,85938,85886
 8.5000e+000 85964  1.9782e-001 -7.1422e-001 -1.3924e-001 43224 85834,85886,85860
 8.5000e+000 86420  2.5473e+000  1.0424e+000 -1.2957e-002 42820 86195,86299,86221
 8.5000e+000 86397  2.4220e+000  2.1605e+000 -8.3601e-001 42820 86195,86325,86299
 8.5000e+000 86374  1.6546e+000  1.2923e+000  4.0111e-001 42820 86221,86299,86273
 8.5000e+000 86351  1.2153e+000  9.4206e-001 -5.0818e-002 42820 86221,86273,86247
 8.5000e+000 86749  4.8953e-001 -4.9158e-001 -1.4304e-001 42223 86550,86602,86576
 8.5000e+000 86726  2.1454e+000 -1.1292e+000  1.5277e-001 42223 86550,86628,86602
 8.5000e+000 86703  5.6831e-001 -1.5894e+000  9.1747e-001 42223 86524,86628,86550
 8.5000e+000 86680  1.5432e+000  5.1527e-001  6.2843e-001 42223 86524,86654,86628
 8.5000e+000 87078  7.2107e-001 -2.5553e-001  2.6343e-001 41883 87173,87101,86905
 8.5000e+000 87055  5.2600e-001  8.2544e-001  1.0338e-001 41883 87101,86879,86853
 8.5000e+000 87032  1.3041e-001  1.4692e-001 -7.0024e-002 41883 86853,86983,86931
 8.5000e+000 87009  1.6835e-001  4.1682e-001 -1.9986e-001 41883 86931,86983,86957
 8.5000e+000 87127  1.1181e+000  3.7801e-001 -1.9175e-001 41883 86931,86905,87101
 8.5000e+000 87150  1.4134e-001 -5.6703e-002 -7.5169e-002 41883 86931,87101,86853
 8.5000e+000 87199  2.5354e-001  1.2482e-001  3.5695e-001 41883 86879,87101,87173
 8.5000e+000 87558 -7.8204e-002  8.2962e-001 -3.0526e-001 41471 87382,87460,87408
 8.5000e+000 87535 -1.3307e+000  9.4964e-001 -1.3036e-001 41471 87382,87486,87460
 8.5000e+000 87512  2.4698e-001  1.2134e-001 -1.3386e-001 41471 87408,87460,87434
 8.5000e+000 87806  1.3677e-001  1.1072e-001 -4.6341e-001 41017 87829,87607,87581
 8.5000e+000 87783  1.2202e-001 -2.0667e-001 -1.0521e-001 41017 87829,87581,87685
 8.5000e+000 87760  4.5681e-001 -2.5583e-002 -2.1664e-001 41017 87581,87711,87685
 8.5000e+000 87737  2.7355e-001 -7.7298e-001 -2.6934e-002 41017 87633,87685,87659
 8.5000e+000 87855 -8.5398e-002 -7.2401e-002 -2.4780e-001 41017 87633,87607,87829
 8.5000e+000 87878 -1.7963e-001 -4.3149e-001  1.2043e-001 41017 87633,87829,87685
 8.5000e+000 88258  1.1846e-002  2.2258e-002 -4.9808e-003 40613 88281,88036,88010
 8.5000e+000 88235  1.4122e-003  2.5061e-002 -7.9688e-004 40613 88281,88010,88088
 8.5000e+000 88212  5.2156e-005  2.4095e-002 -3.5979e-004 40613 87984,88088,88010
 8.5000e+000 88189 -5.1133e-003  8.9877e-003  1.1206e-002 40613 87984,88114,88088
 8.5000e+000 88166 -6.6813e-003  3.3181e-002  2.9221e-003 40613 87984,88140,88114
 8.5000e+000 88307  4.3585e-003  1.8685e-002 -6.1161e-003 40613 88062,88036,88281
 8.5000e+000 88330 -8.1288e-003  2.0757e-002 -1.5882e-003 40613 88062,88281,88088
 8.5000e+000 88649  2.4873e-002  7.5725e-002  7.6574e-004 40095 88375,88505,88401
 8.5000e+000 88626  1.3936e-002  4.1252e-002  1.7485e-002 40095 88375,88531,88505
 8.5000e+000 88603 -1.2960e-002  1.0273e-001  1.8392e-002 40095 88401,88505,88479
 8.5000e+000 88580  1.2348e-001  3.2163e-001  7.0553e-002 40095 88427,88479,88453
 8.5000e+000 88557  1.6912e-002  2.1125e-001 -1.6828e-003 40095 88401,88479,88427
 8.5000e+000 89078  7.6924e-001 -1.3098e+000 -6.4918e-001 39897 89101,88833,88807
 8.5000e+000 89055  1.0202e-001 -1.6032e+000 -7.5362e-001 39897 89101,88807,88911
 8.5000e+000 89032 -7.0920e-001 -1.2347e+000 -1.3423e+000 39897 88781,88911,88807
 8.5000e+000 89009 -1.2747e+000 -1.6657e+000 -1.6423e+000 39897 88781,88937,88911
 8.5000e+000 88986  2.7543e+000  3.1553e-001 -4.8855e-001 39897 88833,88885,88859
 8.5000e+000 88963 -1.8395e+000 -1.4346e+000 -1.9860e+000 39897 88755,88937,88781
 8.5000e+000 89127  1.3746e+000 -1.7330e+000 -1.2614e+000 39897 88885,88833,89101
 8.5000e+000 89150  3.3310e-001 -2.2473e+000 -1.4751e+000 39897 88885,89101,88911
 8.5000e+000 89300 -1.6358e+000 -1.5844e+000  6.2054e-001 39607 89453,89323,89199
 8.5000e+000 89277 -2.4195e+000 -9.9907e-001  4.8479e-001 39607 89525,89453,89199
 8.5000e+000 89349 -1.1765e+000 -1.4590e+000 -1.5269e-002 39607 89225,89199,89323
 8.5000e+000 89479 -1.2315e+000 -6.7721e-001  4.2218e-001 39607 89251,89323,89453
 8.5000e+000 89502 -1.2781e+000 -1.1497e-001  1.0857e+000 39607 89251,89453,89173
 8.5000e+000 89551 -1.0526e+000 -6.6032e-001  6.5147e-001 39607 89173,89453,89525
 8.5000e+000 90264 -1.1130e+000 -1.7685e+000 -4.0402e-001 39039 89996,90074,90048
 8.5000e+000 90241 -6.6596e-001 -8.5020e-001 -2.4734e-001 39039 89918,90074,89996
 8.5000e+000 90218 -1.0805e+000 -1.0439e+000 -3.0124e-002 39039 89918,89996,89944
 8.5000e+000 90195 -1.3732e+000 -9.6711e-001  9.9190e-003 39039 89892,90074,89918
 8.5000e+000 90172 -1.9729e-001 -1.6890e+000 -4.4998e-001 39039 89996,90048,90022
 8.5000e+000 90149 -1.9700e+000  7.2864e-001 -1.0379e-001 39039 89892,90100,90074
 8.5000e+000 90126 -1.2450e+000 -1.1090e+000 -1.3308e-001 39039 89944,89996,89970
 8.5000e+000 90770 -4.0842e-001 -4.7064e-001 -7.7865e-002 38635 90473,90603,90577
 8.5000e+000 90747 -2.6817e-001 -4.4591e-001 -8.4613e-003 38635 90447,90603,90473
 8.5000e+000 90724 -3.9373e-001 -6.3866e-001 -7.7811e-002 38635 90499,90577,90551
 8.5000e+000 90701 -3.8396e-001 -6.3824e-001 -7.2078e-002 38635 90473,90577,90499
 8.5000e+000 90678 -3.0045e-001 -7.8094e-001 -9.1134e-002 38635 90499,90551,90525
 8.5000e+000 90655 -3.8231e-001 -3.4634e-001  2.7557e-002 38635 90447,90629,90603
 8.5000e+000 90871 -1.2693e-001 -3.0502e-001 -1.5066e-001 38231 90793,90845,90819
 8.5000e+000 91458  2.2442e-001 -2.1367e-001 -1.0216e-001 37534 91161,91317,91291
 8.5000e+000 91435  6.2653e-002  1.0040e-002  5.8944e-002 37534 91135,91317,91161
 8.5000e+000 91412 -1.9162e-001 -9.6190e-001 -4.9478e-001 37534 91187,91291,91239
 8.5000e+000 91389  4.6363e-002 -9.9182e-001  4.6912e-002 37534 91161,91291,91187
 8.5000e+000 91366  8.3472e-002 -5.7297e-001 -3.4686e-001 37534 91239,91291,91265
 8.5000e+000 91343  7.3950e-001 -9.5324e-001 -8.9474e-001 37534 91187,91239,91213
 8.5000e+000 91915 -6.5305e-001 -6.5863e-001  1.7671e-002 37080 91938,91745,91667
 8.5000e+000 91892 -6.3993e-001 -5.6433e-001  1.4790e-001 37080 91938,91667,91797
 8.5000e+000 91869 -8.8095e-001  1.8399e-001 -1.5547e-001 37080 91641,91797,91667
 8.5000e+000 91846 -8.0654e-001 -7.2513e-001  9.1888e-002 37080 91667,91719,91693
 8.5000e+000 91823 -7.8010e-001 -6.8818e-001  3.2199e-002 37080 91667,91745,91719
 8.5000e+000 91964 -5.6022e-001 -4.4119e-001  1.0537e-002 37080 91771,91745,91938
 8.5000e+000 91987 -6.1191e-001 -4.9311e-001  1.4738e-001 37080 91771,91938,91797
 8.5000e+000 92235 -4.6380e-001 -5.1314e-001 -3.2654e-002 36397 92036,92088,92062
 8.5000e+000 92212 -3.4196e-001 -3.7869e-001 -8.4664e-002 36397 92036,92114,92088
 8.5000e+000 92189 -1.9234e-001 -2.6707e-001 -5.2177e-003 36397 92036,92140,92114
 8.5000e+000 92166 -2.8883e-001 -1.8296e-001  2.8858e-003 36397 92010,92140,92036
 8.5000e+000 92694 -1.8473e-001 -5.8913e-003  3.3602e-002 36057 92446,92498,92472
 8.5000e+000 92671 -8.5589e-002  1.9682e-001  6.6964e-002 36057 92446,92550,92498
 8.5000e+000 92648  1.1237e-001 -2.3462e-002  2.7882e-002 36057 92446,92576,92550
 8.5000e+000 92625 -2.5581e-002 -1.0086e-001  6.4404e-002 36057 92420,92576,92446
 8.5000e+000 92602 -1.2059e-001 -7.2928e-002 -2.2345e-001 36057 92498,92550,92524
 8.5000e+000 93023 -5.0965e-001 -4.2280e-001 -1.1567e-001 35717 92876,92928,92902
 8.5000e+000 93000 -4.5356e-001 -4.5576e-001 -1.2796e-001 35717 92824,92928,92876
 8.5000e+000 92977 -2.2504e-001 -4.3193e-001 -7.5285e-002 35717 92798,92928,92824
 8.5000e+000 92954 -3.7925e-001 -5.3817e-001 -4.9810e-001 35717 92824,92876,92850
 8.5000e+000 93499  1.7837e-001 -6.3709e-001  3.0224e-001 35405 93522,93309,93257
 8.5000e+000 93476  3.5665e-001 -3.9216e-001  2.2441e-001 35405 93666,93522,93257
 8.5000e+000 93453  2.0667e-001 -2.1366e+000  3.0056e-001 35405 93594,93127,93335
 8.5000e+000 93430  4.7239e-002 -3.1205e-001  3.9593e-002 35405 93666,93257,93231
 8.5000e+000 93407 -7.3599e-001 -2.6650e+000 -6.2843e-001 35405 93127,93179,93153
 8.5000e+000 93384 -1.0729e+000  1.4358e-001  4.1507e-001 35405 93179,93231,93205
 8.5000e+000 93361  5.3657e-001  6.5204e-001  1.6972e-001 35405 93257,93309,93283
 8.5000e+000 93548  8.5228e-001 -1.5898e-001  8.2335e-001 35405 93335,93309,93522
 8.5000e+000 93571  3.9233e-001 -1.0873e+000  4.9709e-001 35405 93594,93335,93522
 8.5000e+000 93620  1.9048e-001 -1.0042e+000  1.8618e-001 35405 93179,93127,93594
 8.5000e+000 93643 -3.9611e-002 -5.4853e-001  1.7936e-001 35405 93738,93594,93522
 8.5000e+000 93692  5.9389e-002 -5.6223e-001  1.0466e-001 35405 93738,93522,93666
 8.5000e+000 93715 -1.5441e-001 -5.6684e-001 -7.4032e-002 35405 93179,93666,93231
 8.5000e+000 93764 -8.6145e-002 -6.4142e-001  2.2684e-001 35405 93179,93594,93738
 8.5000e+000 93787 -4.4209e-002 -6.7987e-001  1.5876e-001 35405 93179,93738,93666
 8.5000e+000 94372  5.3016e-001 -1.5871e-002 -2.9830e-002 34951 94395,94127,94075
 8.5000e+000 94349  1.0003e+000 -7.5976e-002  1.2986e-001 34951 94395,94075,94231
 8.5000e+000 94326  4.7501e-002 -4.9030e-001  5.9056e-002 34951 94049,94231,94075
 8.5000e+000 94303 -4.0427e-001 -5.0260e-001  5.7006e-001 34951 94075,94127,94101
 8.5000e+000 94280  1.2539e+000  2.0826e-001  4.2222e-001 34951 94127,94205,94153
 8.5000e+000 94257  1.4434e+000  2.6951e-001  6.4172e-001 34951 94153,94205,94179
 8.5000e+000 94421  9.0824e-001 -1.4342e-001  2.5382e-001 34951 94205,94127,94395
 8.5000e+000 94444  1.7714e+000  4.2523e-002  3.8907e-001 34951 94205,94395,94231
 8.5000e+000 94692  8.5873e-003  1.5954e-001 -7.2894e-004 34397 94715,94519,94467
 8.5000e+000 94669  1.0396e-002  1.6093e-001 -1.7560e-003 34397 94715,94467,94597
 8.5000e+000 94646 -2.8537e-002 -8.6902e-004 -1.7655e-002 34397 94545,94597,94571
 8.5000e+000 94623  6.2353e-002  2.8929e-001 -8.0621e-003 34397 94467,94519,94493
 8.5000e+000 94741  1.1235e-002  1.4649e-001 -7.8843e-004 34397 94545,94519,94715
 8.5000e+000 94764  1.5540e-002  1.5555e-001 -3.7241e-003 34397 94545,94715,94597
 8.5000e+000 94985 -4.8674e-002  2.5561e-001 -1.4708e-002 33985 94835,94913,94887
 8.5000e+000 94962  1.4035e-002  3.9690e-001  2.5030e-003 33985 94809,94913,94835
 8.5000e+000 94939  8.3111e-002  3.0306e-001 -4.0622e-002 33985 94835,94887,94861
 8.5000e+000 95186 -2.7724e-001 -4.2523e-001 -3.0894e-001 33645 95281,95209,95036
 8.5000e+000 95163  2.6220e-002 -6.4813e-001  4.9089e-002 33645 95209,95010,95088
 8.5000e+000 95140  2.8278e-001 -2.6674e-001 -7.1241e-002 33645 95010,95114,95088
 8.5000e+000 95235 -5.7612e-001 -4.7966e-001 -2.0435e-001 33645 95062,95036,95209
 8.5000e+000 95258 -4.0509e-001 -8.1535e-001  2.5681e-001 33645 95413,95209,95088
 8.5000e+000 95307 -1.3268e-001 -3.0312e-001 -3.6114e-001 33645 95010,95209,95281
 8.5000e+000 95439 -3.6010e-001 -6.7053e-001  2.1127e-001 33645 95062,95209,95413
 8.5000e+000 95766 -4.5000e-001  2.4691e-001 -6.0132e-001 33141 95789,95593,95567
 8.5000e+000 95743 -1.1215e-001 -4.0358e-002 -2.1199e-001 33141 95861,95789,95567
 8.5000e+000 95720 -1.4954e-001  4.2087e-002 -5.6592e-002 33141 95861,95567,95671
 8.5000e+000 95697 -1.4916e-001 -2.8738e-002 -7.9464e-002 33141 95541,95671,95567
 8.5000e+000 95815 -1.5405e-001  9.8208e-001 -5.3399e-001 33141 95619,95593,95789
 8.5000e+000 95838 -3.3329e-002  3.3971e-001 -2.2478e-001 33141 95619,95789,95645
 8.5000e+000 95887  1.2873e-002  2.3604e-001 -2.3951e-001 33141 95645,95789,95861
 8.5000e+000 95910 -4.0541e-002  3.1127e-001 -6.3691e-002 33141 95645,95861,95671
 8.5000e+000 96060 -5.6137e-001 -2.5787e-001 -3.2999e-001 32487 95959,96011,95985
 8.5000e+000 96037 -1.5948e-001 -2.0648e-001 -7.9216e-002 32487 95933,96011,95959
 8.5000e+000 96570 -2.2251e-001 -9.0451e-002  9.3980e-002 32033 96665,96593,96377
 8.5000e+000 96547 -3.8269e-001  1.9277e-001 -2.8197e-001 32033 96737,96593,96325
 8.5000e+000 96524 -2.5888e-001 -1.8179e-001  2.9195e-002 32033 96665,96377,96351
 8.5000e+000 96501 -3.8466e-001  3.6522e-001 -2.2691e-001 32033 96737,96325,96299
 8.5000e+000 96478 -3.3079e-001  2.8440e-001 -2.2301e-001 32033 96247,96429,96299
 8.5000e+000 96455 -7.1465e-001 -7.7110e-001 -2.0013e-001 32033 96247,96299,96273
 8.5000e+000 96619  6.3160e-002  8.1027e-002  4.1185e-002 32033 96809,96593,96403
 8.5000e+000 96642  2.8849e-001  6.8177e-001 -6.1276e-001 32033 96403,96593,96429
 8.5000e+000 96691 -6.2400e-002 -3.1008e-001 -1.6579e-002 32033 96325,96593,96665
 8.5000e+000 96714 -1.9942e-001 -4.7875e-001 -1.0560e-001 32033 96325,96665,96351
 8.5000e+000 96763 -4.2341e-001  9.3441e-002 -3.5998e-001 32033 96429,96593,96737
 8.5000e+000 96786 -4.2216e-001  2.1398e-001 -2.8612e-001 32033 96429,96737,96299
 8.5000e+000 96835  2.2302e-002  4.3005e-002  2.3998e-002 32033 96377,96593,96809
 8.5000e+000 97064  5.1187e-002  1.0776e-001  1.1610e-002 31671 97087,96989,96963
 8.5000e+000 97041  5.1809e-002  1.2800e-001 -4.4222e-002 31671 97087,96963,96937
 8.5000e+000 97113 -2.0208e-002  9.7527e-002  1.9001e-002 31671 97159,97087,97015
 8.5000e+000 97136  4.2190e-002  7.7025e-002 -1.0513e-003 31671 97015,97087,96937
 8.5000e+000 97185  3.0243e-002  5.1291e-002  1.3632e-002 31671 96989,97087,97159
 8.5000e+000 97563 -1.1985e-002  1.0631e-001 -1.1821e-002 31117 97586,97367,97341
 8.5000e+000 97540  1.7133e-002  1.0251e-001 -2.1716e-002 31117 97658,97586,97341
 8.5000e+000 97517  4.7470e-002  8.9444e-002 -9.3817e-003 31117 97658,97341,97315
 8.5000e+000 97494 -7.5188e-002  5.5881e-002 -1.4328e-002 31117 97289,97445,97315
 8.5000e+000 97471 -1.8380e-002 -7.0758e-003  7.3753e-003 31117 97367,97419,97393
 8.5000e+000 97612 -5.1485e-003  7.5873e-002 -9.8150e-003 31117 97419,97367,97586
 8.5000e+000 97635 -4.1468e-002  8.5879e-002 -3.9910e-002 31117 97419,97586,97445
 8.5000e+000 97684 -3.4762e-002  9.8920e-002 -1.9112e-002 31117 97445,97586,97658
 8.5000e+000 97707 -9.7354e-005  8.9346e-002 -6.2788e-003 31117 97445,97658,97315
 8.5000e+000 98215 -2.0939e-001  4.5445e-002 -2.8171e-001 30563 98238,97996,97944
 8.5000e+000 98192 -3.2463e-001  1.1955e-001 -2.6676e-001 30563 98310,98238,97944
 8.5000e+000 98169 -4.4455e-001 -2.1154e-001 -2.7280e-001 30563 98310,97944,97918
 8.5000e+000 98146 -1.7816e-001  2.5370e-002  4.6737e-002 30563 97892,98074,97918
 8.5000e+000 98123 -1.2186e-001  4.5031e-001 -2.9117e-001 30563 97996,98048,98022
 8.5000e+000 98100 -2.7513e-001  1.7501e-001 -5.1454e-001 30563 97944,97996,97970
 8.5000e+000 98264 -2.0249e-001  1.3016e-001 -2.7845e-001 30563 98048,97996,98238
 8.5000e+000 98287 -1.6858e-001  4.3505e-001 -1.0253e-002 30563 98048,98238,98074
 8.5000e+000 98336 -3.5519e-001 -5.0917e-002 -3.9278e-002 30563 98074,98238,98310
 8.5000e+000 98359 -3.6081e-001 -1.4770e-001 -2.4698e-002 30563 98074,98310,97918
 8.5000e+000 98607 -7.6554e-001  2.3803e-001 -7.5722e-003 30073 98630,98460,98408
 8.5000e+000 98584 -1.1237e+000  2.0903e-001 -6.4940e-002 30073 98630,98408,98382
 8.5000e+000 98561 -3.2789e-001  3.9747e-001 -2.0463e-001 30073 98382,98512,98486
 8.5000e+000 98538 -5.6019e-001  1.4453e-001  1.6430e-001 30073 98408,98460,98434
 8.5000e+000 98656 -5.8195e-001  1.1955e-001 -7.8584e-002 30073 98486,98460,98630
 8.5000e+000 98679 -8.2197e-001  1.8395e-001 -1.3119e-001 30073 98486,98630,98382
 8.5000e+000 99157  2.9148e-001 -2.0379e-001  2.2074e-001 29669 99180,98837,98811
 8.5000e+000 99134  3.4342e-001 -3.9181e-002  2.2888e-001 29669 99324,99180,98811
 8.5000e+000 99111  5.4782e-001  5.1185e-001 -3.1579e-001 29669 99252,98863,98837
 8.5000e+000 99088  2.3502e-001 -3.5322e-001  3.2935e-001 29669 99324,98811,98993
 8.5000e+000 99065 -7.4607e-001  8.1126e-001  1.5528e-001 29669 98863,98941,98915
 8.5000e+000 99042 -1.4539e-001  7.1445e-001  3.2774e-001 29669 98863,98915,98889
 8.5000e+000 99019 -1.3536e-002 -3.9501e-001  6.7565e-001 29669 98785,98993,98811
 8.5000e+000 99206  3.6674e-001 -1.5386e-001 -7.9466e-002 29669 99252,98837,99180
 8.5000e+000 99229 -6.4998e-002  2.6825e-001  1.4069e-001 29669 98941,99180,98967
 8.5000e+000 99278  1.3822e-001  1.0260e+000 -2.3373e-001 29669 98941,98863,99252
 8.5000e+000 99301  2.3483e-001  7.2086e-001  1.0790e-002 29669 98941,99252,99180
 8.5000e+000 99350  1.8557e-001  3.5279e-001  1.7203e-001 29669 98967,99180,99324
 8.5000e+000 99373  1.7570e-001  1.1662e-001  2.2140e-001 29669 98967,99324,98993
 8.5000e+000 99958  3.7037e-001  7.1269e-001  1.7531e-001 29051 99981,99765,99739
 8.5000e+000 99935 -5.3787e-002  7.5644e-002 -8.3262e-003 29051 99981,99739,99661
 8.5000e+000 99912  4.8748e-001 -4.6197e-001 -3.4227e-001 29051 99765,99817,99791
 8.5000e+000 99889 -9.0887e-001 -4.9511e-001  5.6269e-001 29051 99635,99817,99661
 8.5000e+000 99866 -1.0891e+000 -7.7546e-003  7.4368e-001 29051 99661,99739,99687
 8.5000e+000 99843 -1.3195e+000  3.3143e-001  3.8545e-001 29051 99687,99739,99713
 8.5000e+000 100007  6.0775e-001  9.1922e-002  2.3578e-001 29051 99817,99765,99981
 8.5000e+000 100030  4.2032e-001 -2.0276e-001  1.5254e-001 29051 99817,99981,99661
 8.5000e+000 100278  9.5603e-001  6.6314e-001  8.5057e-002 28525 100445,100301,100131
 8.5000e+000 100255  3.6739e-001  5.2768e-001  1.4087e-002 28525 100373,100301,100079
 8.5000e+000 100232  3.4695e-001  8.5456e-002  8.2770e-002 28525 100373,100079,100053
 8.5000e+000 100209  7.6186e-001  8.9985e-001 -1.3388e-001 28525 100445,100131,100105
 8.5000e+000 100327  1.7854e+000  3.3975e-001  2.8135e-002 28525 100517,100301,100157
 8.5000e+000 100350  6.4087e-001  4.0395e-001 -3.2966e-001 28525 100157,100301,100183
 8.5000e+000 100399  3.2533e-001  6.9812e-002  2.3831e-001 28525 100183,100301,100373
 8.5000e+000 100422  4.0710e-001 -2.4499e-001  3.0106e-001 28525 100183,100373,100053
 8.5000e+000 100471  6.9578e-001  3.9582e-001 -1.2062e-001 28525 100079,100301,100445
 8.5000e+000 100494  2.3209e-001  3.8423e-001 -3.8879e-001 28525 100079,100445,100105
 8.5000e+000 100543  1.3936e+000  2.6843e-001 -7.6689e-002 28525 100131,100301,100517
 8.5000e+000 101209 -1.4923e+000  4.0364e-001  5.0096e-002 28185 100938,101016,100990
 8.5000e+000 101186 -1.6183e+000  3.1595e-002 -1.7208e-001 28185 100912,101016,100938
 8.5000e+000 101163 -4.9920e-001  3.9071e-001 -5.0556e-002 28185 100912,101068,101016
 8.5000e+000 101140 -2.0304e+000 -4.3522e-001 -4.6100e-001 28185 100886,101068,100912
 8.5000e+000 101117 -5.6333e-001  1.5783e-001 -5.0536e-002 28185 101016,101068,101042
 8.5000e+000 101094 -3.9947e+000 -4.3881e-001  1.0462e-001 28185 100938,100990,100964
 8.5000e+000 101408  1.4419e-001  7.9241e-002 -2.5905e-001 27781 101503,101431,101310
 8.5000e+000 101385 -2.0663e-001  5.7574e-001 -5.2240e-001 27781 101431,101258,101232
 8.5000e+000 101362  2.9646e-001  1.6599e-002 -3.2733e-001 27781 101503,101310,101284
 8.5000e+000 101457  7.9040e-001  4.6722e-001 -4.3118e-001 27781 101336,101310,101431
 8.5000e+000 101480  2.5535e-001  8.5642e-001 -7.6191e-001 27781 101575,101431,101232
 8.5000e+000 101529  3.7407e-001  2.0683e-001 -4.7669e-001 27781 101258,101431,101503
 8.5000e+000 101552  1.9177e-001 -2.6614e-001 -2.9761e-001 27781 101705,101503,101284
 8.5000e+000 101601  3.1905e-001  8.8766e-001 -8.1073e-001 27781 101336,101431,101575
 8.5000e+000 101731 -2.4536e-002  2.8639e-002 -4.4168e-001 27781 101258,101503,101705
 8.5000e+000 102237 -7.9841e-001 -2.1715e-001  6.0404e-002 27419 102476,102260,101992
 8.5000e+000 102214 -5.5676e-001 -3.3998e-001 -4.2517e-002 27419 102260,101940,101914
 8.5000e+000 102191 -8.4831e-001 -3.9115e-001  1.1693e-001 27419 102404,102332,102096
 8.5000e+000 102168 -7.4309e-001 -3.4067e-001  2.2434e-002 27419 102404,102096,102044
 8.5000e+000 102145 -7.4247e-001 -2.5935e-001  9.2916e-002 27419 102476,101992,101966
 8.5000e+000 102122 -4.7521e-001 -4.3648e-001  9.5442e-003 27419 102044,102096,102070
 8.5000e+000 102286 -1.0442e+000 -4.2598e-001  1.7283e-001 27419 102018,101992,102260
 8.5000e+000 102309 -8.0400e-001 -3.0333e-001  1.7140e-002 27419 102332,102018,102260
 8.5000e+000 102358 -8.7439e-001 -7.2597e-001  2.4822e-001 27419 101914,102096,102332
 8.5000e+000 102381 -7.5234e-001 -4.7244e-001  5.0282e-002 27419 101914,102332,102260
 8.5000e+000 102430 -6.4397e-001 -3.7546e-001 -1.1211e-002 27419 102018,102332,102404
 8.5000e+000 102453 -5.5707e-001 -2.9157e-001 -1.1603e-001 27419 102018,102404,102044
 8.5000e+000 102502 -6.8000e-001 -2.7870e-001  9.2957e-002 27419 101940,102260,102476
 8.5000e+000 102525 -1.9569e-001 -7.6120e-002  6.4858e-002 27419 101940,102476,101966
 8.5000e+000 103031 -1.3469e+000  1.1515e+000  9.2264e-001 26715 102708,102786,102760
 8.5000e+000 103008 -2.0676e-001 -4.0141e-001  1.6144e-001 26715 102708,102890,102786
 8.5000e+000 102985  1.0515e+000 -6.9895e-001  1.0210e-001 26715 102838,102890,102864
 8.5000e+000 102962  2.8730e-001  1.0158e+000  1.2086e-001 26715 102786,102890,102838
 8.5000e+000 102939  1.4512e+000  1.5861e+000  7.1060e-001 26715 102786,102838,102812
 8.5000e+000 102916 -2.1205e+000 -7.1428e-002  3.7817e-001 26715 102708,102760,102734
 8.5000e+000 103279  1.1567e-002  3.9689e-002 -9.4287e-002 26303 103302,103158,103080
 8.5000e+000 103256  1.4286e-001 -3.8503e-002 -9.1669e-002 26303 103302,103080,103054
 8.5000e+000 103233  2.5688e-001  1.6157e-001 -4.2982e-002 26303 103080,103158,103106
 8.5000e+000 103210 -3.5179e-001  1.1602e-002 -4.3670e-002 26303 103106,103158,103132
 8.5000e+000 103328 -2.0646e-001 -5.6807e-002 -5.1170e-002 26303 103184,103158,103302
 8.5000e+000 103351  3.7509e-002 -5.2588e-002 -6.7115e-002 26303 103184,103302,103054
 8.5000e+000 103501 -1.0044e+000 -8.8208e-002  6.1824e-002 25849 103374,103426,103400
 8.5000e+000 103478 -8.8878e-001 -3.9972e-001  4.4515e-003 25849 103374,103452,103426
 8.5000e+000 104090 -8.7920e-002  2.1716e-001  1.2281e-001 25445 103793,103871,103819
 8.5000e+000 104067  1.9690e-001  1.1082e-001  2.3744e-003 25445 103793,103949,103871
 8.5000e+000 104044  2.6753e-001  2.9985e-001 -2.6396e-003 25445 103871,103949,103923
 8.5000e+000 104021 -5.9835e-002  2.9683e-001 -4.3378e-004 25445 103819,103871,103845
 8.5000e+000 103998  1.1327e-001  1.8332e-001  2.0294e-001 25445 103767,103949,103793
 8.5000e+000 103975  3.9773e-001  2.1182e-001 -1.4883e-002 25445 103871,103923,103897
 8.5000e+000 104419 -3.7340e-001 -8.1137e-002 -1.2695e-001 25083 104220,104298,104272
 8.5000e+000 104396 -7.1750e-001 -4.1190e-001  7.8996e-003 25083 104220,104324,104298
 8.5000e+000 104373 -2.7936e-001 -1.7516e-001 -2.2005e-002 25083 104220,104272,104246
 8.5000e+000 104350 -7.1532e-001 -3.3982e-001  2.9806e-002 25083 104194,104324,104220
 8.5000e+000 105102  4.9985e-002 -1.6131e-001 -1.2517e-001 24793 104785,104863,104837
 8.5000e+000 105079 -1.2490e-002 -4.4510e-001 -2.8864e-001 24793 104759,104863,104785
 8.5000e+000 105056 -9.4817e-002 -6.4978e-002 -3.0513e-001 24793 104759,104915,104863
 8.5000e+000 105033 -1.9501e-001 -7.9368e-002 -2.2932e-001 24793 104733,104915,104759
 8.5000e+000 105010  5.2250e-002 -1.5155e-002 -2.4366e-001 24793 104863,104915,104889
 8.5000e+000 104987 -3.2542e-001 -1.0129e-002 -3.2131e-001 24793 104681,104915,104733
 8.5000e+000 104964 -3.6260e-002 -2.7241e-001 -1.6557e-001 24793 104785,104837,104811
 8.5000e+000 104941 -1.9583e-001  2.7969e-001 -3.5766e-001 24793 104681,104733,104707
 8.5000e+000 105252  8.9349e-001  1.1634e+000 -9.0014e-002 24389 105477,105275,105177
 8.5000e+000 105229  8.9725e-001  1.2243e+000 -1.3128e-001 24389 105347,105275,105151
 8.5000e+000 105301  9.5591e-001  1.0578e+000 -1.2399e-001 24389 105203,105177,105275
 8.5000e+000 105324  9.6904e-001  1.0616e+000 -1.2276e-001 24389 105203,105275,105125
 8.5000e+000 105373  8.9055e-001  8.0634e-001 -4.8195e-002 24389 105125,105275,105347
 8.5000e+000 105503  1.0843e+000  1.4469e+000  2.4402e-002 24389 105151,105275,105477
 8.5000e+000 106088 -5.8654e-001  5.6296e-001  7.1465e-001 23735 105791,105921,105895
 8.5000e+000 106065 -2.0513e+000 -2.5912e-002  7.0017e-001 23735 105765,105921,105791
 8.5000e+000 106042 -3.7761e-001  6.6111e-001  3.7935e-001 23735 105765,105947,105921
 8.5000e+000 106019 -2.3663e+000  8.1533e-002  9.5852e-001 23735 105817,105895,105869
 8.5000e+000 105996 -1.4523e+000  3.2468e-001  8.5087e-001 23735 105791,105895,105817
 8.5000e+000 105973 -1.1297e+000  2.7930e-001  7.7179e-001 23735 105817,105869,105843
 8.5000e+000 106417  7.1054e-001  2.1163e+000 -4.6532e-001 23295 106218,106296,106270
 8.5000e+000 106394  2.3395e-001  7.0195e-001 -3.3227e-001 23295 106218,106322,106296
 8.5000e+000 106371  3.7540e-002  5.0476e-001 -4.1408e-001 23295 106218,106270,106244
 8.5000e+000 106348  4.6944e-001  8.0244e-001 -1.3827e-001 23295 106192,106322,106218
 8.5000e+000 106746  1.5458e-001  7.5397e-001  1.2875e-001 23005 106521,106599,106547
 8.5000e+000 106723  6.1225e-001  8.3477e-001  1.6559e-002 23005 106521,106651,106599
 8.5000e+000 106700  3.9461e-001  7.7269e-001  5.4905e-002 23005 106547,106599,106573
 8.5000e+000 106677  7.7183e-001  8.1037e-001  4.0166e-001 23005 106599,106651,106625
 8.5000e+000 107331 -3.9650e-001  2.2661e-001 -2.8421e-001 22601 107060,107190,107138
 8.5000e+000 107308 -1.2558e+000 -2.0152e-002 -5.9381e-001 22601 107034,107190,107060
 8.5000e+000 107285 -1.8410e+000 -4.2522e-001 -5.3592e-001 22601 107060,107138,107112
 8.5000e+000 107262 -1.9244e+000 -3.0329e-001 -6.1692e-001 22601 107008,107190,107034
 8.5000e+000 107239 -2.6513e-001  9.9456e-001 -1.1304e+000 22601 107060,107112,107086
 8.5000e+000 107216 -6.5172e-001  3.6110e-001 -9.8640e-002 22601 107138,107190,107164
 8.5000e+000 107807 -5.7530e-001  1.3526e-001 -1.0773e-001 22031 107974,107902,107617
 8.5000e+000 107784 -7.1629e-001  4.0189e-001 -2.6625e-001 22031 107830,107565,107513
 8.5000e+000 107761 -4.6747e-001  8.7603e-002 -2.9696e-001 22031 108046,107830,107513
 8.5000e+000 107738 -4.4373e-001  3.5910e-001  2.2874e-002 22031 107974,107617,107591
 8.5000e+000 107715 -5.0869e-001 -5.7311e-002 -2.5382e-001 22031 108046,107513,107461
 8.5000e+000 107692 -1.7672e+000  6.3614e-001 -4.8637e-001 22031 107513,107565,107539
 8.5000e+000 107669 -2.7953e-001  2.1545e-001 -3.8888e-001 22031 107461,107513,107487
 8.5000e+000 107856 -8.4292e-001  2.6892e-001 -1.8092e-001 22031 107902,107565,107830
 8.5000e+000 107879 -5.6531e-001 -1.0548e-001 -1.6964e-002 22031 107643,107830,107435
 8.5000e+000 107928 -1.1550e+000  5.3546e-001 -5.1791e-001 22031 107643,107617,107902
 8.5000e+000 107951 -8.1089e-001  2.4468e-001  3.0226e-002 22031 107643,107902,107830
 8.5000e+000 108000 -7.4489e-001  4.5250e-001 -1.3070e-001 22031 107565,107902,107974
 8.5000e+000 108023 -7.1661e-001  3.7945e-001 -9.8219e-002 22031 107565,107974,107591
 8.5000e+000 108072 -4.2881e-001 -1.0022e-001 -9.7602e-002 22031 107435,107830,108046
 8.5000e+000 108095 -5.2059e-001 -3.3019e-001 -5.3150e-002 22031 107435,108046,107461
 8.5000e+000 108196  2.2598e-002  2.1638e-002 -1.7168e-001 21783 108118,108170,108144
 8.5000e+000 108655  1.6854e-001  9.6154e-001  5.6294e-001 21379 108407,108485,108459
 8.5000e+000 108632  1.8967e+000 -2.9458e-002  7.8850e-001 21379 108407,108511,108485
 8.5000e+000 108609  1.9436e+000 -2.5827e-001  5.0356e-001 21379 108381,108511,108407
 8.5000e+000 108586  8.5065e-001  5.6143e-001 -6.4049e-001 21379 108381,108537,108511
 8.5000e+000 108563  5.0583e-001  1.3160e-001  2.5706e-001 21379 108407,108459,108433
 8.5000e+000 109082 -7.9171e-002  6.7119e-001  1.6549e-001 20974 109105,108863,108811
 8.5000e+000 109059  3.0908e-001  8.8349e-001 -1.2094e-001 20974 109105,108811,108759
 8.5000e+000 109036 -8.4706e-002  1.5036e+000 -1.6059e-001 20974 109177,108889,108863
 8.5000e+000 109013  6.9558e-001  1.1778e+000 -1.2309e-001 20974 108811,108863,108837
 8.5000e+000 108990 -3.5067e-001  8.4851e-003 -6.3484e-002 20974 108759,108941,108915
 8.5000e+000 108967  1.0133e-001 -2.3085e-001  3.2598e-002 20974 108759,108811,108785
 8.5000e+000 109131  1.6300e-001  1.1657e+000  3.6716e-002 20974 109177,108863,109105
 8.5000e+000 109154  2.1929e-004  1.8113e-002 -3.1862e-002 20974 108915,109105,108759
 8.5000e+000 109203 -1.9732e-001  1.2259e+000  1.7114e-001 20974 108915,108889,109177
 8.5000e+000 109226 -1.7000e-001  4.9824e-001  3.4901e-001 20974 108915,109177,109105
 8.5000e+000 109496 -8.3919e-001  1.3848e-001 -6.9025e-002 20470 109271,109375,109297
 8.5000e+000 109473 -7.8271e-001  2.5990e-001 -1.2991e-001 20470 109271,109401,109375
 8.5000e+000 109450 -9.9447e-001 -9.0456e-002 -1.4797e-001 20470 109297,109375,109349
 8.5000e+000 109427 -1.3670e+000 -8.5631e-001  2.7252e-001 20470 109297,109349,109323
 8.5000e+000 109955  2.3479e-001  1.8141e+000  1.0139e+000 20123 110050,109733,109707
 8.5000e+000 109932 -7.3180e-001  8.6018e-001  5.3793e-001 20123 110050,109707,109681
 8.5000e+000 109909  2.1753e-001  5.5012e-001  6.6371e-001 20123 109978,109759,109733
 8.5000e+000 109886 -1.7021e-001  3.4948e-001  5.7870e-001 20123 110122,109978,109733
 8.5000e+000 109863  3.2349e-001  2.8106e-001  2.8342e-001 20123 109785,109837,109811
 8.5000e+000 110004  1.5611e-001  4.9530e-001  4.5518e-001 20123 109785,109759,109978
 8.5000e+000 110027  9.6094e-003  3.6046e-001  3.0890e-001 20123 109785,109978,109837
 8.5000e+000 110076 -3.6350e-001  6.3706e-001  4.5782e-001 20123 110122,109733,110050
 8.5000e+000 110099 -3.1422e-001  5.1269e-001  9.0677e-002 20123 109837,110050,109681
 8.5000e+000 110148  2.0319e-001  7.6153e-001  4.1195e-001 20123 109837,109978,110122
 8.5000e+000 110171  2.4829e-002  1.0068e+000  2.8593e-001 20123 109837,110122,110050
 8.5000e+000 110500  1.2222e+000  3.9212e-001 -2.8874e-001 19511 110301,110379,110353
 8.5000e+000 110477  1.7325e+000  9.9872e-001 -5.0853e-001 19511 110301,110405,110379
 8.5000e+000 110454  4.5243e-001  3.7870e-001 -2.8961e-001 19511 110275,110405,110301
 8.5000e+000 110431  1.0517e+000  5.3440e-001  5.0952e-001 19511 110301,110353,110327
 8.5000e+000 110957  3.3680e-001  1.2652e+000 -7.6605e-001 19107 110683,110735,110709
 8.5000e+000 110934  1.6451e-001 -2.4396e-001 -1.0381e+000 19107 110683,110813,110735
 8.5000e+000 110911  4.8384e-001  7.1198e-001 -9.7058e-001 19107 110735,110813,110761
 8.5000e+000 110888 -7.6046e-001 -7.0528e-001 -8.7429e-001 19107 110683,110839,110813
 8.5000e+000 110865  2.1032e-001  8.1879e-002 -9.4085e-001 19107 110761,110813,110787
 8.5000e+000 111335 -2.2575e-001 -3.0828e-001 -1.6308e-001 18653 111087,111165,111139
 8.5000e+000 111312 -9.1899e-002 -1.2520e-001 -2.3120e-001 18653 111087,111217,111165
 8.5000e+000 111289 -2.0624e-001 -1.9155e-001 -1.1217e-001 18653 111061,111217,111087
 8.5000e+000 111266 -6.7611e-002 -6.4462e-002 -6.5735e-002 18653 111087,111139,111113
 8.5000e+000 111243 -1.0457e-001 -2.0184e-001 -1.6661e-001 18653 111165,111217,111191
 8.5000e+000 111735 -1.1518e+000 -3.5938e-001 -6.7967e-002 18213 111461,111513,111487
 8.5000e+000 111712 -1.3191e+000 -8.1283e-001  1.1068e-002 18213 111461,111617,111513
 8.5000e+000 111689 -1.2645e+000 -7.3247e-001 -1.8761e-001 18213 111513,111617,111591
 8.5000e+000 111666 -5.8702e-001 -3.2700e-001  5.7584e-002 18213 111513,111591,111539
 8.5000e+000 111643 -3.6081e-001 -3.8661e-001 -3.6999e-003 18213 111539,111591,111565
 8.5000e+000 111885  7.1272e-001 -4.5866e-001  2.5717e-001 17659 111784,111836,111810
 8.5000e+000 111862  1.6795e+000  4.5533e-001  6.5049e-001 17659 111758,111836,111784
 8.5000e+000 112287  2.1713e-003  8.1016e-001 -3.4298e-001 17411 112065,112169,112143
 8.5000e+000 112264 -2.1076e+000 -6.8957e-002  3.5098e-001 17411 112039,112169,112065
 8.5000e+000 112241 -2.4216e+000  2.9691e-001 -7.5101e-001 17411 112013,112169,112039
 8.5000e+000 112218  3.5118e+000  1.1053e+000 -6.9613e-001 17411 112091,112143,112117
 8.5000e+000 112195 -1.3196e-001 -1.9530e-001  3.0947e-001 17411 112065,112143,112091
 8.5000e+000 112508 -8.3566e-001  5.2736e-001  9.4584e-002 17007 112384,112436,112410
 8.5000e+000 112485 -6.4182e-001  7.1271e-001  1.7455e-001 17007 112332,112436,112384
 8.5000e+000 112462 -8.2500e-001  3.5463e-001  1.0991e-001 17007 112332,112384,112358
 8.5000e+000 112658 -2.0807e+000 -4.3762e-001  3.1927e-001 16553 112557,112609,112583
 8.5000e+000 112635 -2.0011e+000 -3.0893e-001  3.7048e-001 16553 112531,112609,112557
 8.5000e+000 112761 -4.3568e-001  1.6403e+000 -2.8157e-001 16355 112683,112735,112709
 8.5000e+000 112913 -1.3219e+000  6.8686e-001  7.7385e-002 15949 112786,112838,112812
 8.5000e+000 112890 -6.5353e-001  1.8324e+000 -2.4124e-001 15949 112786,112864,112838
 8.5000e+000 113065  1.6333e-001 -1.3724e-001 -6.5626e-002 15609 112938,112990,112964
 8.5000e+000 113042  5.3970e-001  5.9883e-003 -1.0587e-002 15609 112938,113016,112990
 8.5000e+000 113420  7.8557e-001  7.4450e-001  2.6192e-001 15284 113247,113325,113299
 8.5000e+000 113397  7.4100e-001  6.3527e-001  1.6188e-001 15284 113195,113325,113247
 8.5000e+000 113374  6.1706e-001  6.1194e-001  1.1237e-001 15284 113195,113247,113221
 8.5000e+000 113351  7.9144e-001  1.2672e+000  3.1845e-001 15284 113247,113299,113273
 8.5000e+000 113521  4.0865e-001 -3.2990e-001  2.3110e-001 202 113443,113495,113469
 9.0000e+000 65564 -3.8561e-002  5.8138e-002  3.3234e-003 65155 65414,65466,65440
 9.0000e+000 65541 -6.2227e-002  6.4453e-002  2.4478e-002 65155 65414,65492,65466
 9.0000e+000 65518 -5.8112e-002  9.6023e-002 -5.2583e-002 65155 65388,65492,65414
 9.0000e+000 65883 -2.3780e-001  7.7187e-001 -3.6970e-002 64957 65635,65739,65713
 9.0000e+000 65860 -7.3956e-002  1.5527e+000 -2.6285e-002 64957 65635,65765,65739
 9.0000e+000 65837  1.3257e-001  1.6396e+000 -3.4062e-002 64957 65609,65765,65635
 9.0000e+000 65814 -1.5935e-001  1.1195e+000 -4.0284e-001 64957 65635,65713,65687
 9.0000e+000 65791 -6.3906e-002  1.3801e+000 -2.5799e-001 64957 65635,65687,65661
 9.0000e+000 65984 -2.8292e-001  2.9441e-001  2.0044e-001 64781 65906,65958,65932
 9.0000e+000 66232  3.7464e-001  4.6213e-001 -4.1477e-001 64469 66007,66059,66033
 9.0000e+000 66209 -2.8610e-001 -7.2373e-002 -6.4840e-001 64469 66007,66085,66059
 9.0000e+000 66186  8.8835e-002  9.0858e-001 -1.9883e-001 64469 66007,66137,66085
 9.0000e+000 66163 -5.8671e-001  3.1293e-002 -9.8662e-001 64469 66085,66137,66111
 9.0000e+000 66504  1.1393e-002  1.5384e+000 -9.5925e-002 64271 66279,66383,66305
 9.0000e+000 66481 -1.8033e-001  1.5636e+000  5.7225e-002 64271 66279,66409,66383
 9.0000e+000 66458 -2.7865e-001  1.9689e+000 -1.2369e-001 64271 66305,66357,66331
 9.0000e+000 66435  6.3246e-002  1.9412e+000 -1.1785e-001 64271 66305,66383,66357
 9.0000e+000 66705 -3.1810e-002  1.5829e+000 -2.4131e-001 64073 66728,66581,66555
 9.0000e+000 66682  1.5652e-002  1.6166e+000 -2.2569e-001 64073 66728,66555,66529
 9.0000e+000 66659 -6.5758e-001  2.0605e+000  5.8847e-001 64073 66581,66633,66607
 9.0000e+000 66754 -8.2732e-002  1.6216e+000 -2.5572e-001 64073 66633,66581,66728
 9.0000e+000 66777 -4.6195e-002  1.6528e+000 -2.3964e-001 64073 66633,66728,66529
 9.0000e+000 66951  2.3886e-001 -2.5424e-002  3.0532e-001 63783 66824,66876,66850
 9.0000e+000 66928 -8.4471e-001  6.4171e-001 -1.0796e-001 63783 66824,66902,66876
 9.0000e+000 67201  6.1092e-001  1.7801e+000 -1.1403e-001 63585 66976,67080,67054
 9.0000e+000 67178  2.8362e-001  1.6490e+000 -1.9883e-001 63585 66976,67106,67080
 9.0000e+000 67155  3.2169e-001  8.4353e-001 -1.9277e-002 63585 66976,67054,67028
 9.0000e+000 67132  4.7179e-001  1.0834e+000  2.9667e-001 63585 66976,67028,67002
 9.0000e+000 67654 -1.6872e-001  1.1006e+000  4.3060e-002 63295 67357,67487,67383
 9.0000e+000 67631 -2.0970e-001  1.5480e+000 -3.1713e-001 63295 67331,67487,67357
 9.0000e+000 67608  8.0663e-002  2.0117e+000  7.8070e-002 63295 67331,67513,67487
 9.0000e+000 67585 -2.3825e-002  2.1025e+000 -7.9219e-002 63295 67435,67487,67461
 9.0000e+000 67562  8.3501e-002  2.0301e+000  4.3539e-002 63295 67383,67487,67435
 9.0000e+000 67539  1.9573e-004  1.5733e+000 -7.7910e-002 63295 67383,67435,67409
 9.0000e+000 67853 -2.6370e-002  1.3247e+000 -3.4224e-002 62891 67876,67703,67677
 9.0000e+000 67830  5.5537e-002  1.7199e+000 -9.0373e-003 62891 67876,67677,67781
 9.0000e+000 67807 -2.1782e-001  1.0642e+000 -1.2565e-001 62891 67948,67729,67703
 9.0000e+000 67902 -3.7142e-002  1.2400e+000 -2.2216e-001 62891 67948,67703,67876
 9.0000e+000 67925  3.4400e-001  1.3975e+000 -2.4949e-001 62891 67755,67876,67781
 9.0000e+000 67974  6.6095e-002  8.5264e-001 -8.0074e-002 62891 67755,67729,67948
 9.0000e+000 67997  1.1576e-001  9.3242e-001 -1.4001e-001 62891 67755,67948,67876
 9.0000e+000 68218  3.1892e-002 -4.1798e-002 -3.6181e-002 62693 68042,68120,68068
 9.0000e+000 68195  3.3725e-003 -3.6386e-002  3.3992e-003 62693 68042,68146,68120
 9.0000e+000 68172 -8.2785e-002  6.4421e-002 -2.3904e-002 62693 68068,68120,68094
 9.0000e+000 68468  1.1618e-001 -7.2049e-004 -1.0236e-002 62289 68491,68295,68269
 9.0000e+000 68445  3.3364e-002 -2.4081e-002 -3.5307e-002 62289 68563,68491,68269
 9.0000e+000 68422  2.0327e-002  1.2723e-002 -5.1940e-003 62289 68563,68269,68243
 9.0000e+000 68399 -8.6141e-002 -1.2938e-001 -9.2425e-002 62289 68295,68347,68321
 9.0000e+000 68517  6.7108e-002 -2.1562e-002 -4.2293e-002 62289 68347,68295,68491
 9.0000e+000 68540 -2.2359e-002 -2.5755e-003 -6.9428e-002 62289 68347,68491,68373
 9.0000e+000 68589  6.3702e-002  4.9545e-002 -4.2775e-002 62289 68373,68491,68563
 9.0000e+000 68612  3.6472e-002  6.0888e-002 -1.0449e-002 62289 68373,68563,68243
 9.0000e+000 68911  5.3086e-002  1.2134e+000 -4.7450e-002 62091 69222,68934,68741
 9.0000e+000 68888 -2.9121e-001  1.3293e+000 -5.7112e-002 62091 69006,68934,68689
 9.0000e+000 68865 -4.6204e-001  1.1403e+000 -2.3977e-001 62091 69006,68689,68663
 9.0000e+000 68842  2.3948e-001  1.5990e+000  2.5428e-001 62091 69078,68793,68767
 9.0000e+000 68819  6.7110e-002  1.2269e+000 -1.1117e-001 62091 69222,68741,68715
 9.0000e+000 68960  2.7007e-001  1.4266e+000 -1.3532e-001 62091 68767,68741,68934
 9.0000e+000 68983  1.1344e-001  1.6944e+000  6.0248e-002 62091 69078,68767,68934
 9.0000e+000 69032 -2.1948e-001  1.5121e+000 -1.4106e-002 62091 69150,69006,68637
 9.0000e+000 69055 -2.3126e-001  1.4331e+000 -7.4124e-002 62091 68637,69006,68663
 9.0000e+000 69104  1.5220e-001  1.3946e+000  6.5334e-003 62091 68637,68793,69078
 9.0000e+000 69127 -1.9483e-001  1.4927e+000 -2.7498e-002 62091 69150,68637,69078
 9.0000e+000 69176 -1.1467e-001  1.3405e+000  3.1542e-003 62091 68934,69006,69150
 9.0000e+000 69199  2.3899e-002  1.4516e+000 -5.6867e-002 62091 68934,69150,69078
 9.0000e+000 69248  2.4376e-002  1.1401e+000 -5.2779e-002 62091 68689,68934,69222
 9.0000e+000 69271  3.3878e-002  1.1203e+000 -9.6482e-002 62091 68689,69222,68715
 9.0000e+000 69521 -2.2298e-001  6.9892e-002 -2.1472e-002 61893 69544,69348,69296
 9.0000e+000 69498 -7.1750e-002  9.5942e-002  7.5416e-003 61893 69544,69296,69400
 9.0000e+000 69475  2.7037e-002  1.0099e-001 -8.9612e-003 61893 69296,69426,69400
 9.0000e+000 69452  5.8060e-002 -8.2582e-002 -2.2560e-001 61893 69296,69348,69322
 9.0000e+000 69570 -1.4285e-001  4.2604e-003  9.6077e-002 61893 69374,69348,69544
 9.0000e+000 69593  1.2407e-001  9.5678e-002  1.1786e-001 61893 69374,69544,69400
 9.0000e+000 70046 -1.1315e-001  1.2740e+000 -2.8901e-002 61467 69749,69905,69879
 9.0000e+000 70023 -1.3894e-001  1.0496e+000 -3.0294e-001 61467 69723,69905,69749
 9.0000e+000 70000 -1.8158e-001  1.1595e+000 -6.4173e-004 61467 70069,69827,69775
 9.0000e+000 69977  1.6782e-001  1.9626e+000 -2.7786e-001 61467 70069,69775,69749
 9.0000e+000 69954  2.4089e-002  5.6384e-001 -1.0387e-003 61467 70141,69853,69827
 9.0000e+000 69931 -3.2105e-001  1.2517e+000  3.9128e-001 61467 69775,69827,69801
 9.0000e+000 70095 -8.5810e-002  7.2644e-001  1.0386e-001 61467 70141,69827,70069
 9.0000e+000 70118 -1.2854e-001  1.1682e+000 -8.2706e-003 61467 69879,70069,69749
 9.0000e+000 70167 -9.8660e-002  8.1346e-001 -9.1597e-003 61467 69879,69853,70141
 9.0000e+000 70190 -3.5751e-002  1.1989e+000  9.9655e-002 61467 69879,70141,70069
 9.0000e+000 70291  1.6848e-001  2.1207e+000  2.2090e-001 61013 70213,70265,70239
 9.0000e+000 70441 -1.2800e-001  8.2469e-002  2.5729e-003 60651 70340,70392,70366
 9.0000e+000 70418 -1.1752e-001  1.0260e-001  6.4703e-003 60651 70314,70392,70340
 9.0000e+000 70642 -8.9704e-002  1.1539e+000  3.0788e-001 60311 70665,70492,70466
 9.0000e+000 70619  8.4249e-002  1.5641e+000  3.0711e-001 60311 70665,70466,70570
 9.0000e+000 70596 -3.4909e-001  4.0485e-001  3.1609e-002 60311 70492,70544,70518
 9.0000e+000 70691 -3.1026e-003  7.5234e-001 -1.2461e-001 60311 70544,70492,70665
 9.0000e+000 70714  2.6815e-001  1.3839e+000 -1.3817e-001 60311 70544,70665,70570
 9.0000e+000 70964 -2.7952e-001  9.1554e-001  4.4113e-002 59907 70987,70765,70739
 9.0000e+000 70941 -5.8001e-002  1.4208e+000 -5.3530e-002 59907 71059,70987,70739
 9.0000e+000 70918  9.0759e-002  2.1503e+000 -1.3742e-001 59907 71059,70739,70869
 9.0000e+000 70895  2.6479e-002  1.4443e+000 -1.0156e-001 59907 70817,70869,70843
 9.0000e+000 71013 -1.1050e-001  9.4871e-001 -2.4125e-001 59907 70791,70765,70987
 9.0000e+000 71036 -4.0130e-002  9.5395e-001 -2.0722e-001 59907 70791,70987,70817
 9.0000e+000 71085  1.0591e-001  9.3344e-001 -1.6870e-001 59907 70817,70987,71059
 9.0000e+000 71108 -3.6730e-002  1.2529e+000 -1.2272e-001 59907 70817,71059,70869
 9.0000e+000 71441  5.2501e-001  7.3604e-001 -1.1582e+000 59417 71464,71242,71216
 9.0000e+000 71418  9.0938e-001  1.0511e+000  1.1428e-001 59417 71464,71216,71320
 9.0000e+000 71395  4.5947e-001  1.2432e+000  2.8282e-001 59417 71216,71346,71320
 9.0000e+000 71372 -1.5560e+000  2.0573e-001 -1.7257e-001 59417 71268,71320,71294
 9.0000e+000 71490 -3.2919e-001  3.9849e-001 -1.3763e+000 59417 71268,71242,71464
 9.0000e+000 71513 -9.1044e-001  4.1174e-001 -2.3904e-002 59417 71268,71464,71320
 9.0000e+000 71712  1.6690e-002  1.2400e+000 -2.0091e-001 58913 71562,71614,71588
 9.0000e+000 71689  9.4367e-001  1.1138e+000 -5.7072e-001 58913 71536,71614,71562
 9.0000e+000 71666  6.7010e-001  8.9087e-001 -4.7239e-001 58913 71536,71640,71614
 9.0000e+000 72171  7.0521e-001  1.6350e+000 -3.3966e-001 58409 72194,72027,72001
 9.0000e+000 72148  5.5155e-001  9.3417e-001 -4.2120e-001 58409 72194,72001,71949
 9.0000e+000 72125  2.1291e-001  1.2851e+000 -4.1309e-001 58409 71923,72053,71949
 9.0000e+000 72102  2.1855e-002  6.1859e-001 -2.5756e-001 58409 71949,72001,71975
 9.0000e+000 72079  4.9306e-001  1.3261e+000 -4.6955e-001 58409 71897,72053,71923
 9.0000e+000 72220  6.3207e-001  1.7554e+000  6.0473e-003 58409 72053,72027,72194
 9.0000e+000 72243  6.1145e-001  1.4058e+000 -1.3651e-001 58409 72053,72194,71949
 9.0000e+000 72491 -2.0011e+000 -8.3970e-001 -1.3194e+000 57855 72514,72318,72292
 9.0000e+000 72468  1.1564e+000  4.5067e-001 -1.4416e+000 57855 72514,72292,72266
 9.0000e+000 72445 -1.1315e+000  1.4017e-001  2.9512e-002 57855 72318,72396,72370
 9.0000e+000 72422 -3.0608e+000  9.8530e-001 -9.7690e-001 57855 72318,72370,72344
 9.0000e+000 72540 -2.2973e+000 -3.7351e-001 -8.5570e-001 57855 72396,72318,72514
 9.0000e+000 72563 -1.9963e+000 -3.5089e-001 -8.8258e-001 57855 72396,72514,72266
 9.0000e+000 72811  1.0570e+000  2.3451e-001 -6.4617e-001 57401 72612,72690,72638
 9.0000e+000 72788  1.7382e-001 -1.2370e-001  4.4918e-002 57401 72586,72690,72612
 9.0000e+000 72765 -6.0920e-001 -8.8130e-001 -1.1297e+000 57401 72638,72690,72664
 9.0000e+000 72742  2.5192e-001  9.8996e-001 -2.3912e-001 57401 72586,72716,72690
 9.0000e+000 73144  1.2249e-001  7.4638e-001 -1.8349e-001 57004 72919,72997,72945
 9.0000e+000 73121  1.8790e-001  1.5160e+000 -3.8920e-001 57004 72919,73049,72997
 9.0000e+000 73098  9.9764e-002  1.0001e+000 -3.6215e-001 57004 72945,72997,72971
 9.0000e+000 73075  2.8796e-001  1.8539e+000 -4.5664e-001 57004 72997,73049,73023
 9.0000e+000 73650 -1.3850e+000  1.8312e+000 -1.2448e+000 56592 73673,73379,73353
 9.0000e+000 73627  1.9512e+000  2.4548e+000 -2.0070e+000 56592 73673,73353,73327
 9.0000e+000 73604  1.0974e-001  1.6441e+000 -5.7962e-001 56592 73745,73509,73483
 9.0000e+000 73581 -2.5031e+000 -6.0371e-001 -3.6949e-001 56592 73379,73457,73405
 9.0000e+000 73558  3.8749e-001  3.3267e-001  1.2739e-001 56592 73379,73483,73457
 9.0000e+000 73535  2.3191e+000  5.3204e-001 -1.1207e-001 56592 73405,73457,73431
 9.0000e+000 73699 -1.1216e+000  1.2378e+000  2.9212e-001 56592 73483,73379,73673
 9.0000e+000 73722 -4.2564e-002  1.9514e+000 -6.7861e-001 56592 73745,73483,73673
 9.0000e+000 73771 -2.5061e-002  1.2843e+000 -6.1081e-001 56592 73327,73509,73745
 9.0000e+000 73794 -2.2320e-001  1.5282e+000 -7.5581e-001 56592 73327,73745,73673
 9.0000e+000 74123  1.2717e+000  8.9430e-001 -2.0180e-001 56152 74146,74002,73924
 9.0000e+000 74100  1.0938e+000  6.9458e-001 -3.9027e-002 56152 74146,73924,73898
 9.0000e+000 74077  1.4666e+000  1.1629e+000 -3.0438e-001 56152 73924,74002,73976
 9.0000e+000 74054  1.0731e+000  2.6188e-001  1.4786e-001 56152 73924,73976,73950
 9.0000e+000 74172  1.6714e+000  1.1968e+000 -4.0010e-001 56152 74028,74002,74146
 9.0000e+000 74195  1.2998e+000  8.0387e-001 -1.9104e-001 56152 74028,74146,73898
 9.0000e+000 74345 -1.1430e+000  1.0918e-001  3.7835e-001 55634 74218,74270,74244
 9.0000e+000 74322 -1.3699e-001  2.1045e-001  1.0371e-001 55634 74218,74296,74270
 9.0000e+000 74823  4.5710e-001 -1.2686e+000  4.8124e-001 55016 74918,74846,74581
 9.0000e+000 74800 -7.6416e-002  1.6152e-001  2.7067e-001 55016 74846,74477,74633
 9.0000e+000 74777 -3.9119e-001 -2.1611e+000  8.3516e-001 55016 74918,74581,74555
 9.0000e+000 74754 -8.1703e-001 -1.2795e+000  9.3520e-001 55016 74990,74503,74477
 9.0000e+000 74731 -1.4452e+000 -7.0664e-002  7.2674e-001 55016 74451,74633,74477
 9.0000e+000 74708 -1.5130e+000  1.0218e+000  3.2300e-001 55016 74451,74659,74633
 9.0000e+000 74685 -1.9328e+000 -2.4394e+000  1.7413e+000 55016 74503,74555,74529
 9.0000e+000 74872  4.4141e-001 -1.3770e+000  3.7381e-001 55016 74607,74581,74846
 9.0000e+000 74895 -4.2392e-002 -1.0645e+000  2.9235e-001 55016 74607,74846,74633
 9.0000e+000 74944 -7.7593e-001 -1.1478e+000  7.4862e-001 55016 74477,74846,74918
 9.0000e+000 74967 -8.8157e-001 -1.2630e+000  8.3431e-001 55016 74990,74477,74918
 9.0000e+000 75016 -5.9240e-001 -1.1801e+000  9.8332e-001 55016 74555,74503,74990
 9.0000e+000 75039 -6.6583e-001 -1.1918e+000  8.6771e-001 55016 74555,74990,74918
 9.0000e+000 75287 -1.9706e+000 -3.3142e+000 -6.4561e-002 54726 75310,75140,75114
 9.0000e+000 75264 -2.4777e+000 -2.0907e+000 -3.7428e-001 54726 75310,75114,75088
 9.0000e+000 75241 -2.4905e+000 -1.5820e+000 -1.3957e+000 54726 75088,75192,75166
 9.0000e+000 75218 -4.0542e+000  7.7429e-002 -1.2029e+000 54726 75062,75192,75088
 9.0000e+000 75336 -1.3413e+000 -2.6189e+000 -7.9348e-001 54726 75166,75140,75310
 9.0000e+000 75359 -2.3421e+000 -1.4070e+000 -8.0328e-001 54726 75166,75310,75088
 9.0000e+000 75946 -1.6923e-001  2.4249e-002  1.5904e-001 54322 75969,75701,75649
 9.0000e+000 75923 -5.9046e-001 -2.6795e-001  2.8896e-001 54322 75969,75649,75623
 9.0000e+000 75900 -3.4114e-001 -1.7820e-001 -6.2198e-002 54322 76041,75753,75701
 9.0000e+000 75877 -1.9122e-001  6.4163e-001  3.2858e-003 54322 75623,75805,75779
 9.0000e+000 75854 -4.3680e-001 -1.6843e-001 -1.8718e-001 54322 75701,75753,75727
 9.0000e+000 75831 -2.0912e-001 -1.6512e-001 -6.6944e-003 54322 75649,75701,75675
 9.0000e+000 75995 -4.6974e-001 -9.8521e-002  5.3369e-002 54322 76041,75701,75969
 9.0000e+000 76018 -4.4649e-001  1.1127e-001  1.4612e-001 54322 75779,75969,75623
 9.0000e+000 76067 -2.8414e-001  3.4268e-002 -1.0708e-001 54322 75779,75753,76041
 9.0000e+000 76090 -3.6253e-001  1.9029e-001  1.1214e-002 54322 75779,76041,75969
 9.0000e+000 76468 -7.9554e-002  1.6510e-001 -2.9871e-002 53868 76491,76272,76220
 9.0000e+000 76445 -7.4945e-002  1.8387e-001 -4.7186e-002 53868 76491,76220,76324
 9.0000e+000 76422  2.5787e-002  1.1061e-001 -1.0019e-001 53868 76220,76272,76246
 9.0000e+000 76399 -1.0253e-001  5.0908e-001  1.0670e-001 53868 76194,76324,76220
 9.0000e+000 76376 -5.9831e-001  3.0695e-001  9.1178e-003 53868 76194,76350,76324
 9.0000e+000 76517 -8.2149e-002  1.3742e-001 -1.8503e-002 53868 76298,76272,76491
 9.0000e+000 76540 -7.3130e-002  1.6201e-001 -3.6094e-002 53868 76298,76491,76324
 9.0000e+000 76690 -5.6761e-002  2.2843e-001 -4.0954e-002 53356 76589,76641,76615
 9.0000e+000 76667  5.4855e-002  7.0534e-001  9.5885e-003 53356 76563,76641,76589
 9.0000e+000 76938 -5.1129e-001  2.4465e-001 -6.8234e-001 53009 77105,76961,76765
 9.0000e+000 76915  3.5622e-002  4.8345e-001 -3.7455e-001 53009 76961,76713,76843
 9.0000e+000 76892 -3.1746e-001  3.8374e-001 -1.7161e-001 53009 77033,76817,76791
 9.0000e+000 76869 -1.1207e+000 -1.5908e-001 -1.2812e+000 53009 77105,76765,76739
 9.0000e+000 76987 -1.7444e-001  9.5835e-001 -4.9031e-001 53009 76791,76765,76961
 9.0000e+000 77010 -3.6603e-001  4.1934e-001 -3.9968e-001 53009 77033,76791,76961
 9.0000e+000 77059  2.8534e-002  5.3401e-001 -1.8815e-001 53009 76843,76817,77033
 9.0000e+000 77082 -3.9866e-002  5.5681e-001 -3.9833e-001 53009 76843,77033,76961
 9.0000e+000 77131  1.5078e-001  6.5390e-001 -4.2663e-001 53009 76713,76961,77105
 9.0000e+000 77154  5.1060e-002  6.1024e-001 -9.2899e-001 53009 76713,77105,76739
 9.0000e+000 77355  1.5605e+000 -1.9823e+000  8.7387e-001 52390 77378,77257,77231
 9.0000e+000 77332  1.1140e+000 -1.4495e+000  5.7316e-001 52390 77378,77231,77179
 9.0000e+000 77309  1.3382e+000 -1.7278e+000  5.4215e-002 52390 77179,77231,77205
 9.0000e+000 77404  2.0072e+000 -1.6428e+000  7.1949e-001 52390 77283,77257,77378
 9.0000e+000 77427  1.5525e+000 -1.0717e+000  4.1140e-001 52390 77283,77378,77179
 9.0000e+000 77677 -1.9721e+000  2.2434e+000 -1.8861e+000 51986 77700,77504,77478
 9.0000e+000 77654  1.3397e-001  3.1814e+000 -2.1934e+000 51986 77700,77478,77452
 9.0000e+000 77631 -8.7591e-002  1.4495e+000 -5.8685e-001 51986 77772,77556,77530
 9.0000e+000 77608 -1.9414e-001  1.3792e+000 -7.5666e-001 51986 77452,77582,77556
 9.0000e+000 77726 -5.0125e-001  2.3019e+000 -7.7809e-001 51986 77530,77504,77700
 9.0000e+000 77749  9.8928e-002  1.8020e+000 -8.8564e-001 51986 77772,77530,77700
 9.0000e+000 77798  3.2030e-001  1.7042e+000 -9.2834e-001 51986 77452,77556,77772
 9.0000e+000 77821  5.3459e-001  1.8003e+000 -1.1841e+000 51986 77452,77772,77700
 9.0000e+000 78282  7.1205e-001  1.0102e+000 -2.3379e-001 51738 78008,78138,78060
 9.0000e+000 78259  1.8606e+000  2.0818e+000 -1.8725e+000 51738 78008,78164,78138
 9.0000e+000 78236  3.8443e-001 -4.6909e-002 -1.1989e-001 51738 78086,78138,78112
 9.0000e+000 78213  2.3007e-001  4.0159e-001 -4.7323e-001 51738 78060,78138,78086
 9.0000e+000 78190  7.2484e-001  7.9686e-002 -3.0521e-001 51738 78008,78060,78034
 9.0000e+000 78432 -1.7732e-001 -1.3632e-001  4.2504e-003 51148 78305,78357,78331
 9.0000e+000 78409 -1.5290e-001  6.7773e-002 -3.0091e-002 51148 78305,78383,78357
 9.0000e+000 78891 -2.9922e-001 -2.3348e-001  1.4153e-001 50808 78914,78695,78669
 9.0000e+000 78868 -2.2877e-001 -1.0066e-001  6.3669e-002 50808 78914,78669,78643
 9.0000e+000 78845 -5.8420e-002 -8.1183e-003  3.6216e-002 50808 78643,78773,78747
 9.0000e+000 78822 -4.9615e-002 -5.0150e-002  4.1662e-002 50808 78617,78773,78643
 9.0000e+000 78799 -1.3662e-001  9.0499e-002  1.8104e-001 50808 78695,78747,78721
 9.0000e+000 78940 -1.4641e-001 -1.0789e-001  7.3459e-002 50808 78747,78695,78914
 9.0000e+000 78963 -2.1432e-001 -6.9619e-002  2.2220e-002 50808 78747,78914,78643
 9.0000e+000 79260 -1.9743e-001 -2.5715e-001 -1.8442e-001 50468 79283,79090,79012
 9.0000e+000 79237 -1.9940e-001 -1.6104e-001 -1.7237e-001 50468 79283,79012,78986
 9.0000e+000 79214 -3.7381e-001 -3.3258e-001 -1.8415e-001 50468 79012,79090,79038
 9.0000e+000 79191 -1.2524e-001 -1.9563e-002 -2.2613e-001 50468 78986,79142,79116
 9.0000e+000 79168 -2.3662e-001 -3.4066e-001 -2.4821e-001 50468 79038,79090,79064
 9.0000e+000 79309 -2.3697e-001 -1.9162e-001 -2.1162e-001 50468 79116,79090,79283
 9.0000e+000 79332 -2.2280e-001 -7.4128e-002 -1.9132e-001 50468 79116,79283,78986
 9.0000e+000 79889  1.4728e+000  1.9308e+000 -8.1743e-001 50064 79569,79725,79699
 9.0000e+000 79866  2.8824e-001  1.2748e+000 -1.6052e+000 50064 79543,79725,79569
 9.0000e+000 79843  1.4712e+000  9.5744e-001 -7.5390e-001 50064 79621,79699,79673
 9.0000e+000 79820  1.6088e+000  1.2634e+000 -9.4729e-001 50064 79595,79699,79621
 9.0000e+000 79797  9.7660e-001  1.5134e+000 -1.1796e+000 50064 79569,79699,79595
 9.0000e+000 79774  1.1659e+000  2.8691e+000 -3.7591e-001 50064 79517,79725,79543
 9.0000e+000 79751  6.9506e-001  9.9312e-001 -8.3109e-001 50064 79621,79673,79647
 9.0000e+000 80169  1.5409e+000  2.1059e+000 -9.6176e-001 49724 80019,80097,80071
 9.0000e+000 80146  1.2666e+000  3.2593e+000 -1.2531e+000 49724 79993,80097,80019
 9.0000e+000 80123  9.7083e-001  1.9347e+000 -1.1320e+000 49724 80019,80071,80045
 9.0000e+000 80626 -1.0765e+000 -4.4462e-001 -2.4650e-001 49277 80352,80482,80378
 9.0000e+000 80603 -7.1151e-001 -3.4274e-001  7.0045e-002 49277 80352,80508,80482
 9.0000e+000 80580 -8.4689e-001 -3.3054e-001 -1.7494e-001 49277 80378,80482,80456
 9.0000e+000 80557 -1.0618e+000 -8.0293e-001 -1.7658e-001 49277 80378,80430,80404
 9.0000e+000 80534 -1.4164e+000 -5.6165e-001 -1.2839e-001 49277 80378,80456,80430
 9.0000e+000 81230 -2.1021e+000 -1.1680e+000  8.5831e-001 48716 81253,80835,80809
 9.0000e+000 81207 -1.2992e+000 -2.9382e-002 -4.5080e-001 48716 81397,81253,80809
 9.0000e+000 81184 -1.0339e+000  1.2882e+000 -4.4314e-001 48716 81325,80913,80887
 9.0000e+000 81161 -8.1019e-001 -9.2171e-001 -3.8544e-001 48716 81397,80809,81017
 9.0000e+000 81138 -1.6605e+000  7.2932e-001 -8.1883e-001 48716 81469,80965,80913
 9.0000e+000 81115 -8.6336e-001  1.0843e-001  1.1599e+000 48716 80835,80887,80861
 9.0000e+000 81092  4.4279e-001 -1.7317e+000  1.7499e+000 48716 80809,81043,81017
 9.0000e+000 81069 -1.7617e+000 -7.6734e-001 -1.8423e+000 48716 80913,80965,80939
 9.0000e+000 81279  6.9995e-001  4.8040e-001  1.2512e-001 48716 80887,80835,81253
 9.0000e+000 81302 -1.6157e+000  9.5570e-001 -6.9996e-001 48716 81325,80887,81253
 9.0000e+000 81351 -1.2804e+000  8.5933e-001 -6.6488e-001 48716 81469,80913,81325
 9.0000e+000 81374 -1.4877e+000  1.4335e+000 -6.7338e-001 48716 80991,81325,81253
 9.0000e+000 81423 -1.1674e+000  1.1579e+000 -1.5425e-002 48716 80991,81253,81397
 9.0000e+000 81446 -8.3625e-001  5.4146e-002  6.6899e-002 48716 80991,81397,81017
 9.0000e+000 81495 -2.3529e+000  1.0453e+000 -9.5454e-001 48716 80991,80965,81469
 9.0000e+000 81518 -2.0621e+000  1.0873e+000 -8.2084e-001 48716 80991,81469,81325
 9.0000e+000 81717 -9.9446e-002 -1.0423e-003 -6.9996e-002 48262 81740,81567,81541
 9.0000e+000 81694  8.8686e-003  6.0770e-002 -9.6980e-002 48262 81740,81541,81645
 9.0000e+000 81671 -1.0677e-001 -2.2311e-001 -6.1080e-002 48262 81567,81619,81593
 9.0000e+000 81766 -3.8348e-002 -5.4204e-002  5.4967e-003 48262 81619,81567,81740
 9.0000e+000 81789  6.1213e-002 -3.5782e-003 -1.7260e-002 48262 81619,81740,81645
 9.0000e+000 81939  1.5419e+000  2.7581e+000 -5.3160e-001 47957 82034,81962,81864
 9.0000e+000 81916  4.6139e-001  2.0456e+000 -7.3242e-001 47957 82166,81962,81838
 9.0000e+000 81988  1.9188e+000  2.4229e+000  3.4012e-001 47957 82294,81962,81890
 9.0000e+000 82011  1.4375e+000  2.1064e+000  4.5543e-003 47957 81890,81962,81812
 9.0000e+000 82060  1.5216e+000  3.0470e+000 -3.1265e-001 47957 81838,81962,82034
 9.0000e+000 82192 -2.9172e-002  1.9487e+000  4.4018e-001 47957 81812,81962,82166
 9.0000e+000 82320  2.5890e+000  2.3100e+000  2.7089e-002 47957 81864,81962,82294
 9.0000e+000 82549 -2.1911e-001 -1.6169e-001 -1.3145e-001 47617 82448,82500,82474
 9.0000e+000 82526  2.4271e-002  3.6108e-001 -3.8188e-002 47617 82422,82500,82448
 9.0000e+000 82902  7.0625e-001  2.5835e-001 -1.9699e-001 47255 82729,82807,82755
 9.0000e+000 82879  1.0441e+000  8.8779e-001 -6.3679e-002 47255 82703,82807,82729
 9.0000e+000 82856  6.0032e-001  2.9681e-001 -5.7469e-002 47255 82755,82807,82781
 9.0000e+000 82833  1.1510e+000  9.3345e-001 -5.2933e-002 47255 82677,82807,82703
 9.0000e+000 83182  1.5338e-001 -8.2716e-001  3.8134e-001 46680 83032,83084,83058
 9.0000e+000 83159  5.5599e-001 -4.8311e-001  6.0173e-001 46680 83205,83084,83032
 9.0000e+000 83136 -4.4679e-001  2.0965e-002  4.8079e-001 46680 83006,83110,83084
 9.0000e+000 83231  1.0114e+000 -4.3244e-002  8.3550e-001 46680 83006,83084,83205
 9.0000e+000 83737 -1.8258e+000 -5.5742e-001  3.2981e-001 46290 83832,83760,83492
 9.0000e+000 83714 -1.8315e+000 -2.7026e-001  2.7568e-001 46290 83760,83440,83414
 9.0000e+000 83691 -1.4099e+000 -8.1783e-001  2.5394e-001 46290 83832,83492,83466
 9.0000e+000 83668 -1.5023e+000 -1.3983e+000  4.8449e-001 46290 83492,83570,83544
 9.0000e+000 83645 -2.3817e+000 -7.7198e-001  6.1048e-002 46290 83414,83596,83570
 9.0000e+000 83622 -1.3623e+000 -1.0067e+000  7.4647e-001 46290 83492,83544,83518
 9.0000e+000 83786 -1.7383e+000 -5.1097e-001  2.5289e-001 46290 83570,83492,83760
 9.0000e+000 83809 -1.8254e+000 -6.7629e-001  7.7135e-002 46290 83570,83760,83414
 9.0000e+000 83858 -1.2965e+000 -2.3216e-001  4.8359e-001 46290 83440,83760,83832
 9.0000e+000 83881 -5.8296e-001 -4.6074e-001  3.3076e-001 46290 83440,83832,83466
 9.0000e+000 84161  8.1111e-003 -5.3502e-001  1.2493e-002 45829 84011,84063,84037
 9.0000e+000 84138 -2.4498e-001 -5.2245e-001 -7.3322e-002 45829 84011,84089,84063
 9.0000e+000 84115 -2.9061e-002 -4.2584e-001  7.2170e-003 45829 83985,84089,84011
 9.0000e+000 84311  1.2694e+000  1.7653e+000  1.9770e-001 45631 84184,84236,84210
 9.0000e+000 84288  7.3481e-001  1.0012e-001 -1.1204e-002 45631 84184,84262,84236
 9.0000e+000 84657 -2.0323e-001 -2.8614e-001 -7.0686e-002 45155 84680,84490,84412
 9.0000e+000 84634 -2.5116e-001 -1.9120e-001 -3.4579e-002 45155 84680,84412,84360
 9.0000e+000 84611 -3.3778e-001 -3.8303e-001  4.4552e-002 45155 84412,84490,84438
 9.0000e+000 84588 -4.0865e-002 -3.2830e-003 -6.6622e-002 45155 84334,84516,84360
 9.0000e+000 84565 -2.0588e-001 -5.9478e-002 -3.4630e-001 45155 84360,84412,84386
 9.0000e+000 84542 -2.9830e-001 -4.2333e-001  1.6269e-002 45155 84438,84490,84464
 9.0000e+000 84706 -2.0822e-001 -1.9491e-001 -9.0240e-002 45155 84516,84490,84680
 9.0000e+000 84729 -2.4766e-001 -9.1636e-002 -6.8213e-002 45155 84516,84680,84360
 9.0000e+000 85077 -7.8915e-002 -4.5770e-001 -2.3730e-001 44508 85100,84754,84910
 9.0000e+000 85054 -1.6702e-001  2.1832e-002 -8.8160e-002 44508 84754,84936,84910
 9.0000e+000 85031 -4.8426e-001 -8.2553e-001  8.7332e-002 44508 85100,84910,84884
 9.0000e+000 85008 -3.7667e-001 -4.2889e-002 -4.3516e-001 44508 84780,84884,84832
 9.0000e+000 84985 -4.2561e-001 -1.5513e-001 -4.2903e-001 44508 84780,84832,84806
 9.0000e+000 84962 -1.1362e+000 -8.3020e-001 -5.8774e-002 44508 84832,84884,84858
 9.0000e+000 85126 -4.1036e-001  7.8593e-002 -5.3423e-001 44508 84780,84754,85100
 9.0000e+000 85149 -7.1787e-001 -2.8311e-001 -2.3869e-001 44508 84780,85100,84884
 9.0000e+000 85482  9.5104e-002 -1.0629e-001 -1.0761e-001 44104 85335,85387,85361
 9.0000e+000 85459  4.0764e-002 -3.7639e-001 -5.1648e-002 44104 85309,85387,85335
 9.0000e+000 85436 -1.9480e-002 -2.7366e-001 -1.5207e-001 44104 85257,85387,85309
 9.0000e+000 85413 -1.0764e-001 -1.3327e-001 -2.2130e-002 44104 85257,85309,85283
 9.0000e+000 85811 -2.8046e-001 -3.3951e-001 -1.5504e-001 43600 85586,85664,85612
 9.0000e+000 85788 -2.3625e-001 -7.0690e-002 -1.1092e-001 43600 85586,85690,85664
 9.0000e+000 85765 -1.2792e-001  1.4154e-001 -2.1230e-001 43600 85586,85716,85690
 9.0000e+000 85742 -3.1546e-001 -2.8065e-001 -2.7683e-001 43600 85612,85664,85638
 9.0000e+000 86010  2.2712e-001  6.9511e-002 -2.1027e-001 43224 85886,85938,85912
 9.0000e+000 85987  2.4057e-001  3.9467e-002 -1.7905e-001 43224 85834,85938,85886
 9.0000e+000 85964  2.0164e-001 -7.1495e-001 -1.3568e-001 43224 85834,85886,85860
 9.0000e+000 86420  2.5523e+000  1.0499e+000 -2.5378e-002 42820 86195,86299,86221
 9.0000e+000 86397  2.4329e+000  2.1751e+000 -8.4380e-001 42820 86195,86325,86299
 9.0000e+000 86374  1.6485e+000  1.2890e+000  3.9359e-001 42820 86221,86299,86273
 9.0000e+000 86351  1.2142e+000  9.4512e-001 -5.4499e-002 42820 86221,86273,86247
 9.0000e+000 86749  4.8973e-001 -4.9611e-001 -1.5299e-001 42223 86550,86602,86576
 9.0000e+000 86726  2.1467e+000 -1.1377e+000  1.4462e-001 42223 86550,86628,86602
 9.0000e+000 86703  5.7354e-001 -1.5945e+000  9.1603e-001 42223 86524,86628,86550
 9.0000e+000 86680  1.5481e+000  5.3091e-001  6.3288e-001 42223 86524,86654,86628
 9.0000e+000 87078  7.0715e-001 -2.6291e-001  2.6067e-001 41883 87173,87101,86905
 9.0000e+000 87055  5.2183e-001  8.3245e-001  9.8883e-002 41883 87101,86879,86853
 9.0000e+000 87032  1.2605e-001  1.4655e-001 -6.8534e-002 41883 86853,86983,86931
 9.0000e+000 87009  1.6388e-001  4.0803e-001 -1.9233e-001 41883 86931,86983,86957
 9.0000e+000 87127  1.1017e+000  3.7035e-001 -1.8615e-001 41883 86931,86905,87101
 9.0000e+000 87150  1.3357e-001 -5.8757e-002 -7.2185e-002 41883 86931,87101,86853
 9.0000e+000 87199  2.4361e-001  1.2222e-001  3.5611e-001 41883 86879,87101,87173
 9.0000e+000 87558 -9.3032e-002  8.1493e-001 -3.2445e-001 41471 87382,87460,87408
 9.0000e+000 87535 -1.3728e+000  8.6147e-001 -1.8857e-001 41471 87382,87486,87460
 9.0000e+000 87512  2.4700e-001  1.6458e-001 -1.4749e-001 41471 87408,87460,87434
 9.0000e+000 87806  1.3662e-001  1.0628e-001 -4.6186e-001 41017 87829,87607,87581
 9.0000e+000 87783  1.2265e-001 -2.0958e-001 -1.0327e-001 41017 87829,87581,87685
 9.0000e+000 87760  4.5509e-001 -2.8721e-002 -2.1408e-001 41017 87581,87711,87685
 9.0000e+000 87737  2.7312e-001 -7.7600e-001 -2.6430e-002 41017 87633,87685,87659
 9.0000e+000 87855 -8.6077e-002 -7.6539e-002 -2.4747e-001 41017 87633,87607,87829
 9.0000e+000 87878 -1.7958e-001 -4.3407e-001  1.2113e-001 41017 87633,87829,87685
 9.0000e+000 88258  5.6162e-002  3.5507e-002 -3.1235e-003 40613 88281,88036,88010
 9.0000e+000 88235  1.8178e-002  4.3995e-002  1.2146e-002 40613 88281,88010,88088
 9.0000e+000 88212 -3.6760e-003  5.8632e-002 -2.6739e-003 40613 87984,88088,88010
 9.0000e+000 88189 -2.1432e-002  1.2867e-002  1.3162e-002 40613 87984,88114,88088
 9.0000e+000 88166 -8.5864e-003  5.1482e-002 -1.0824e-003 40613 87984,88140,88114
 9.0000e+000 88307  2.6871e-002  3.1511e-002  1.3494e-004 40613 88062,88036,88281
 9.0000e+000 88330 -2.3018e-002  2.9543e-002  1.8709e-002 40613 88062,88281,88088
 9.0000e+000 88649  1.6707e-002  4.9760e-002  3.3262e-003 40095 88375,88505,88401
 9.0000e+000 88626  2.8702e-002  2.2379e-002  1.7542e-002 40095 88375,88531,88505
 9.0000e+000 88603 -5.0016e-002  4.8303e-002  7.5777e-003 40095 88401,88505,88479
 9.0000e+000 88580 -1.6673e-001  3.2617e-001  1.4063e-001 40095 88427,88479,88453
 9.0000e+000 88557 -1.6448e-002  1.2278e-001 -1.0247e-002 40095 88401,88479,88427
 9.0000e+000 89078  7.5608e-001 -1.3261e+000 -6.6795e-001 39897 89101,88833,88807
 9.0000e+000 89055  8.5769e-002 -1.6195e+000 -7.7204e-001 39897 89101,88807,88911
 9.0000e+000 89032 -7.2493e-001 -1.2489e+000 -1.3607e+000 39897 88781,88911,88807
 9.0000e+000 89009 -1.3139e+000 -1.7003e+000 -1.6766e+000 39897 88781,88937,88911
 9.0000e+000 88986  2.7535e+000  3.0655e-001 -5.0088e-001 39897 88833,88885,88859
 9.0000e+000 88963 -1.8589e+000 -1.4533e+000 -2.0105e+000 39897 88755,88937,88781
 9.0000e+000 89127  1.3639e+000 -1.7497e+000 -1.2823e+000 39897 88885,88833,89101
 9.0000e+000 89150  3.1824e-001 -2.2643e+000 -1.4961e+000 39897 88885,89101,88911
 9.0000e+000 89300 -1.6367e+000 -1.5859e+000  6.2084e-001 39607 89453,89323,89199
 9.0000e+000 89277 -2.4199e+000 -9.9731e-001  4.8569e-001 39607 89525,89453,89199
 9.0000e+000 89349 -1.1872e+000 -1.4651e+000 -1.7887e-002 39607 89225,89199,89323
 9.0000e+000 89479 -1.2383e+000 -6.7438e-001  4.2430e-001 39607 89251,89323,89453
 9.0000e+000 89502 -1.2784e+000 -1.0647e-001  1.0917e+000 39607 89251,89453,89173
 9.0000e+000 89551 -1.0521e+000 -6.5957e-001  6.5386e-001 39607 89173,89453,89525
 9.0000e+000 90264 -1.1128e+000 -1.7670e+000 -3.9726e-001 39039 89996,90074,90048
 9.0000e+000 90241 -6.7183e-001 -8.5159e-001 -2.4429e-001 39039 89918,90074,89996
 9.0000e+000 90218 -1.0874e+000 -1.0497e+000 -2.6854e-002 39039 89918,89996,89944
 9.0000e+000 90195 -1.3790e+000 -9.6790e-001  1.3893e-002 39039 89892,90074,89918
 9.0000e+000 90172 -1.9870e-001 -1.6932e+000 -4.4644e-001 39039 89996,90048,90022
 9.0000e+000 90149 -1.9713e+000  7.3960e-001 -1.0274e-001 39039 89892,90100,90074
 9.0000e+000 90126 -1.2555e+000 -1.1161e+000 -1.3422e-001 39039 89944,89996,89970
 9.0000e+000 90770 -4.0439e-001 -4.6991e-001 -7.6338e-002 38635 90473,90603,90577
 9.0000e+000 90747 -2.6262e-001 -4.4411e-001 -7.9057e-003 38635 90447,90603,90473
 9.0000e+000 90724 -3.8848e-001 -6.3723e-001 -7.7921e-002 38635 90499,90577,90551
 9.0000e+000 90701 -3.7984e-001 -6.3825e-001 -7.0520e-002 38635 90473,90577,90499
 9.0000e+000 90678 -2.9727e-001 -7.8173e-001 -9.0387e-002 38635 90499,90551,90525
 9.0000e+000 90655 -3.7938e-001 -3.4497e-001  2.9092e-002 38635 90447,90629,90603
 9.0000e+000 90871 -1.2329e-001 -3.0400e-001 -1.5042e-001 38231 90793,90845,90819
 9.0000e+000 91458  2.2126e-001 -2.1319e-001 -1.0080e-001 37534 91161,91317,91291
 9.0000e+000 91435  6.2146e-002  1.1917e-002  6.0841e-002 37534 91135,91317,91161
 9.0000e+000 91412 -1.9787e-001 -9.6338e-001 -4.9085e-001 37534 91187,91291,91239
 9.0000e+000 91389  4.4606e-002 -9.9066e-001  4.7798e-002 37534 91161,91291,91187
 9.0000e+000 91366  7.8487e-002 -5.7962e-001 -3.4441e-001 37534 91239,91291,91265
 9.0000e+000 91343  7.3030e-001 -9.5998e-001 -8.8952e-001 37534 91187,91239,91213
 9.0000e+000 91915 -6.5115e-001 -6.6116e-001  2.0045e-002 37080 91938,91745,91667
 9.0000e+000 91892 -6.3582e-001 -5.6603e-001  1.5026e-001 37080 91938,91667,91797
 9.0000e+000 91869 -8.7535e-001  1.8399e-001 -1.5235e-001 37080 91641,91797,91667
 9.0000e+000 91846 -8.0333e-001 -7.3184e-001  9.2647e-002 37080 91667,91719,91693
 9.0000e+000 91823 -7.7499e-001 -6.8989e-001  3.4178e-002 37080 91667,91745,91719
 9.0000e+000 91964 -5.5891e-001 -4.4348e-001  1.4741e-002 37080 91771,91745,91938
 9.0000e+000 91987 -6.0873e-001 -4.9457e-001  1.5134e-001 37080 91771,91938,91797
 9.0000e+000 92235 -4.5874e-001 -5.1262e-001 -3.2563e-002 36397 92036,92088,92062
 9.0000e+000 92212 -3.3743e-001 -3.7778e-001 -8.4387e-002 36397 92036,92114,92088
 9.0000e+000 92189 -1.8813e-001 -2.6605e-001 -4.5947e-003 36397 92036,92140,92114
 9.0000e+000 92166 -2.8263e-001 -1.8262e-001  3.6165e-003 36397 92010,92140,92036
 9.0000e+000 92694 -1.8232e-001 -6.3904e-003  3.3892e-002 36057 92446,92498,92472
 9.0000e+000 92671 -8.4677e-002  1.9382e-001  6.6332e-002 36057 92446,92550,92498
 9.0000e+000 92648  1.1214e-001 -2.2981e-002  2.7255e-002 36057 92446,92576,92550
 9.0000e+000 92625 -2.8579e-002 -1.0087e-001  6.2906e-002 36057 92420,92576,92446
 9.0000e+000 92602 -1.1971e-001 -7.2278e-002 -2.1994e-001 36057 92498,92550,92524
 9.0000e+000 93023 -5.0368e-001 -4.2369e-001 -1.1477e-001 35717 92876,92928,92902
 9.0000e+000 93000 -4.4872e-001 -4.5600e-001 -1.2681e-001 35717 92824,92928,92876
 9.0000e+000 92977 -2.1965e-001 -4.3141e-001 -7.4719e-002 35717 92798,92928,92824
 9.0000e+000 92954 -3.7598e-001 -5.4028e-001 -4.9425e-001 35717 92824,92876,92850
 9.0000e+000 93499  1.6945e-001 -6.4161e-001  3.0299e-001 35405 93522,93309,93257
 9.0000e+000 93476  3.5240e-001 -3.9590e-001  2.2321e-001 35405 93666,93522,93257
 9.0000e+000 93453  2.0226e-001 -2.1393e+000  2.9354e-001 35405 93594,93127,93335
 9.0000e+000 93430  3.9302e-002 -3.1960e-001  4.0990e-002 35405 93666,93257,93231
 9.0000e+000 93407 -7.4446e-001 -2.6619e+000 -6.4764e-001 35405 93127,93179,93153
 9.0000e+000 93384 -1.0775e+000  1.3519e-001  4.1020e-001 35405 93179,93231,93205
 9.0000e+000 93361  5.3424e-001  6.5827e-001  1.7372e-001 35405 93257,93309,93283
 9.0000e+000 93548  8.5428e-001 -1.5878e-001  8.2460e-001 35405 93335,93309,93522
 9.0000e+000 93571  3.9259e-001 -1.0880e+000  4.9158e-001 35405 93594,93335,93522
 9.0000e+000 93620  1.8431e-001 -1.0038e+000  1.7936e-001 35405 93179,93127,93594
 9.0000e+000 93643 -4.6456e-002 -5.5050e-001  1.7405e-001 35405 93738,93594,93522
 9.0000e+000 93692  4.9816e-002 -5.6373e-001  1.0155e-001 35405 93738,93522,93666
 9.0000e+000 93715 -1.6385e-001 -5.6777e-001 -7.6130e-002 35405 93179,93666,93231
 9.0000e+000 93764 -9.1667e-002 -6.4074e-001  2.2019e-001 35405 93179,93594,93738
 9.0000e+000 93787 -5.0845e-002 -6.7801e-001  1.5412e-001 35405 93179,93738,93666
 9.0000e+000 94372  5.3259e-001 -9.6606e-003 -3.7113e-002 34951 94395,94127,94075
 9.0000e+000 94349  1.0019e+000 -6.6427e-002  1.1966e-001 34951 94395,94075,94231
 9.0000e+000 94326  5.1703e-002 -4.7845e-001  5.0805e-002 34951 94049,94231,94075
 9.0000e+000 94303 -3.8675e-001 -4.8879e-001  5.5303e-001 34951 94075,94127,94101
 9.0000e+000 94280  1.2461e+000  2.0668e-001  4.1527e-001 34951 94127,94205,94153
 9.0000e+000 94257  1.4364e+000  2.6289e-001  6.3837e-001 34951 94153,94205,94179
 9.0000e+000 94421  9.1079e-001 -1.4234e-001  2.4748e-001 34951 94205,94127,94395
 9.0000e+000 94444  1.7745e+000  4.7158e-002  3.7890e-001 34951 94205,94395,94231
 9.0000e+000 94692 -5.9814e-003  9.2606e-002  7.0078e-003 34397 94715,94519,94467
 9.0000e+000 94669 -5.5501e-004  7.8656e-002  1.1419e-003 34397 94715,94467,94597
 9.0000e+000 94646 -3.5048e-002 -2.8596e-002 -7.6300e-003 34397 94545,94597,94571
 9.0000e+000 94623  3.1953e-002  1.9264e-001 -1.7476e-002 34397 94467,94519,94493
 9.0000e+000 94741  1.4496e-002  1.2287e-001  1.6295e-002 34397 94545,94519,94715
 9.0000e+000 94764  7.7344e-004  8.6771e-002  4.3502e-003 34397 94545,94715,94597
 9.0000e+000 94985 -3.6018e-002  2.5738e-001 -1.7719e-002 33985 94835,94913,94887
 9.0000e+000 94962  1.7499e-001  8.0576e-001 -8.5255e-002 33985 94809,94913,94835
 9.0000e+000 94939  9.7366e-002  2.8035e-001 -3.5450e-002 33985 94835,94887,94861
 9.0000e+000 95186 -2.7650e-001 -4.2991e-001 -3.0597e-001 33645 95281,95209,95036
 9.0000e+000 95163  2.7525e-002 -6.4879e-001  4.9969e-002 33645 95209,95010,95088
 9.0000e+000 95140  2.8193e-001 -2.6631e-001 -6.9928e-002 33645 95010,95114,95088
 9.0000e+000 95235 -5.7467e-001 -4.8621e-001 -2.0493e-001 33645 95062,95036,95209
 9.0000e+000 95258 -4.0361e-001 -8.1603e-001  2.5657e-001 33645 95413,95209,95088
 9.0000e+000 95307 -1.3046e-001 -3.0169e-001 -3.6009e-001 33645 95010,95209,95281
 9.0000e+000 95439 -3.5633e-001 -6.7091e-001  2.1066e-001 33645 95062,95209,95413
 9.0000e+000 95766 -4.4626e-001  2.4145e-001 -5.9672e-001 33141 95789,95593,95567
 9.0000e+000 95743 -1.0973e-001 -4.3235e-002 -2.1033e-001 33141 95861,95789,95567
 9.0000e+000 95720 -1.4670e-001  3.8796e-002 -5.5853e-002 33141 95861,95567,95671
 9.0000e+000 95697 -1.4704e-001 -3.0703e-002 -7.8358e-002 33141 95541,95671,95567
 9.0000e+000 95815 -1.5168e-001  9.7050e-001 -5.2905e-001 33141 95619,95593,95789
 9.0000e+000 95838 -3.0983e-002  3.3360e-001 -2.2244e-001 33141 95619,95789,95645
 9.0000e+000 95887  1.4263e-002  2.3147e-001 -2.3700e-001 33141 95645,95789,95861
 9.0000e+000 95910 -3.7985e-002  3.0661e-001 -6.2180e-002 33141 95645,95861,95671
 9.0000e+000 96060 -5.5477e-001 -2.6034e-001 -3.2875e-001 32487 95959,96011,95985
 9.0000e+000 96037 -1.5368e-001 -2.0789e-001 -7.8635e-002 32487 95933,96011,95959
 9.0000e+000 96570 -2.2676e-001 -9.7805e-002  9.8963e-002 32033 96665,96593,96377
 9.0000e+000 96547 -3.8632e-001  1.8149e-001 -2.7915e-001 32033 96737,96593,96325
 9.0000e+000 96524 -2.6388e-001 -1.8993e-001  3.3716e-002 32033 96665,96377,96351
 9.0000e+000 96501 -3.9138e-001  3.4553e-001 -2.2374e-001 32033 96737,96325,96299
 9.0000e+000 96478 -3.3722e-001  2.8370e-001 -2.1897e-001 32033 96247,96429,96299
 9.0000e+000 96455 -7.2281e-001 -7.8002e-001 -1.9724e-001 32033 96247,96299,96273
 9.0000e+000 96619  5.9116e-002  7.6648e-002  4.8702e-002 32033 96809,96593,96403
 9.0000e+000 96642  2.8442e-001  6.7757e-001 -6.0746e-001 32033 96403,96593,96429
 9.0000e+000 96691 -6.4483e-002 -3.1954e-001 -1.3019e-002 32033 96325,96593,96665
 9.0000e+000 96714 -2.0338e-001 -4.8978e-001 -1.0280e-001 32033 96325,96665,96351
 9.0000e+000 96763 -4.3010e-001  8.5575e-002 -3.5322e-001 32033 96429,96593,96737
 9.0000e+000 96786 -4.3006e-001  2.0184e-001 -2.8012e-001 32033 96429,96737,96299
 9.0000e+000 96835  2.1992e-002  3.6588e-002  3.0330e-002 32033 96377,96593,96809
 9.0000e+000 97064  7.3171e-002  7.2558e-002  5.6408e-002 31671 97087,96989,96963
 9.0000e+000 97041 -1.2811e-002  7.5918e-002 -5.2933e-002 31671 97087,96963,96937
 9.0000e+000 97113 -6.9508e-002  8.6635e-002 -1.4383e-003 31671 97159,97087,97015
 9.0000e+000 97136 -1.7526e-002  4.9970e-002 -3.0198e-002 31671 97015,97087,96937
 9.0000e+000 97185 -1.7629e-002 -9.1810e-002  1.3283e-002 31671 96989,97087,97159
 9.0000e+000 97563 -2.1974e-002  2.0604e-001  1.9995e-002 31117 97586,97367,97341
 9.0000e+000 97540 -1.0690e-002  1.6886e-001 -1.2843e-002 31117 97658,97586,97341
 9.0000e+000 97517  1.6295e-002  1.2279e-001 -2.4429e-003 31117 97658,97341,97315
 9.0000e+000 97494 -5.3076e-002  8.0388e-003 -3.0727e-002 31117 97289,97445,97315
 9.0000e+000 97471  3.1587e-003  6.5220e-002  2.3338e-002 31117 97367,97419,97393
 9.0000e+000 97612  1.7706e-002  1.1317e-001  2.0933e-002 31117 97419,97367,97586
 9.0000e+000 97635 -3.8191e-002  1.2704e-001 -2.3478e-002 31117 97419,97586,97445
 9.0000e+000 97684 -4.0557e-002  1.1747e-001  8.6974e-003 31117 97445,97586,97658
 9.0000e+000 97707 -1.1978e-002  7.0695e-002  1.7680e-002 31117 97445,97658,97315
 9.0000e+000 98215 -2.0698e-001  4.0779e-002 -2.7890e-001 30563 98238,97996,97944
 9.0000e+000 98192 -3.2354e-001  1.1453e-001 -2.6417e-001 30563 98310,98238,97944
 9.0000e+000 98169 -4.4455e-001 -2.1405e-001 -2.7231e-001 30563 98310,97944,97918
 9.0000e+000 98146 -1.7090e-001  2.3134e-002  4.6448e-002 30563 97892,98074,97918
 9.0000e+000 98123 -1.1850e-001  4.3978e-001 -2.8416e-001 30563 97996,98048,98022
 9.0000e+000 98100 -2.7722e-001  1.6636e-001 -5.0834e-001 30563 97944,97996,97970
 9.0000e+000 98264 -2.0134e-001  1.2586e-001 -2.7490e-001 30563 98048,97996,98238
 9.0000e+000 98287 -1.6496e-001  4.3102e-001 -7.1706e-003 30563 98048,98238,98074
 9.0000e+000 98336 -3.5022e-001 -5.3550e-002 -3.8001e-002 30563 98074,98238,98310
 9.0000e+000 98359 -3.5799e-001 -1.4912e-001 -2.5248e-002 30563 98074,98310,97918
 9.0000e+000 98607 -7.5822e-001  2.3234e-001 -7.2747e-003 30073 98630,98460,98408
 9.0000e+000 98584 -1.1147e+000  2.0380e-001 -6.4289e-002 30073 98630,98408,98382
 9.0000e+000 98561 -3.2304e-001  3.9147e-001 -2.0275e-001 30073 98382,98512,98486
 9.0000e+000 98538 -5.5439e-001  1.3933e-001  1.6353e-001 30073 98408,98460,98434
 9.0000e+000 98656 -5.7553e-001  1.1469e-001 -7.7945e-002 30073 98486,98460,98630
 9.0000e+000 98679 -8.1445e-001  1.7912e-001 -1.3026e-001 30073 98486,98630,98382
 9.0000e+000 99157  2.9070e-001 -2.0139e-001  2.1800e-001 29669 99180,98837,98811
 9.0000e+000 99134  3.3660e-001 -4.0269e-002  2.3175e-001 29669 99324,99180,98811
 9.0000e+000 99111  5.2192e-001  4.9515e-001 -3.0676e-001 29669 99252,98863,98837
 9.0000e+000 99088  2.3167e-001 -3.4689e-001  3.2972e-001 29669 99324,98811,98993
 9.0000e+000 99065 -7.3696e-001  7.8599e-001  1.5133e-001 29669 98863,98941,98915
 9.0000e+000 99042 -1.6637e-001  6.9268e-001  3.1610e-001 29669 98863,98915,98889
 9.0000e+000 99019 -1.0857e-002 -3.8702e-001  6.7109e-001 29669 98785,98993,98811
 9.0000e+000 99206  3.5179e-001 -1.5794e-001 -7.5510e-002 29669 99252,98837,99180
 9.0000e+000 99229 -6.6553e-002  2.5794e-001  1.4554e-001 29669 98941,99180,98967
 9.0000e+000 99278  1.2919e-001  9.9797e-001 -2.2545e-001 29669 98941,98863,99252
 9.0000e+000 99301  2.3190e-001  6.9939e-001  1.5394e-002 29669 98941,99252,99180
 9.0000e+000 99350  1.8353e-001  3.4240e-001  1.7667e-001 29669 98967,99180,99324
 9.0000e+000 99373  1.7444e-001  1.1153e-001  2.2482e-001 29669 98967,99324,98993
 9.0000e+000 99958  3.7290e-001  6.8818e-001  1.6870e-001 29051 99981,99765,99739
 9.0000e+000 99935 -4.2844e-002  7.2592e-002 -1.1729e-002 29051 99981,99739,99661
 9.0000e+000 99912  4.8799e-001 -4.5760e-001 -3.3762e-001 29051 99765,99817,99791
 9.0000e+000 99889 -8.8041e-001 -4.8274e-001  5.4592e-001 29051 99635,99817,99661
 9.0000e+000 99866 -1.0605e+000 -8.7981e-003  7.2755e-001 29051 99661,99739,99687
 9.0000e+000 99843 -1.2894e+000  3.2166e-001  3.7734e-001 29051 99687,99739,99713
 9.0000e+000 100007  6.0697e-001  8.6700e-002  2.2641e-001 29051 99817,99765,99981
 9.0000e+000 100030  4.2092e-001 -1.9668e-001  1.4410e-001 29051 99817,99981,99661
 9.0000e+000 100278  9.3754e-001  6.3498e-001  8.8723e-002 28525 100445,100301,100131
 9.0000e+000 100255  3.5315e-001  5.1442e-001  1.7383e-002 28525 100373,100301,100079
 9.0000e+000 100232  3.3236e-001  7.9132e-002  8.4493e-002 28525 100373,100079,100053
 9.0000e+000 100209  7.4332e-001  8.6789e-001 -1.2734e-001 28525 100445,100131,100105
 9.0000e+000 100327  1.7561e+000  3.2254e-001  3.2984e-002 28525 100517,100301,100157
 9.0000e+000 100350  6.2598e-001  3.9990e-001 -3.1902e-001 28525 100157,100301,100183
 9.0000e+000 100399  3.1285e-001  6.3585e-002  2.3821e-001 28525 100183,100301,100373
 9.0000e+000 100422  3.9257e-001 -2.4625e-001  2.9957e-001 28525 100183,100373,100053
 9.0000e+000 100471  6.7737e-001  3.7625e-001 -1.2086e-001 28525 100079,100301,100445
 9.0000e+000 100494  2.1046e-001  3.6071e-001 -3.8477e-001 28525 100079,100445,100105
 9.0000e+000 100543  1.3799e+000  2.5978e-001 -7.5506e-002 28525 100131,100301,100517
 9.0000e+000 101209 -1.4899e+000  3.8499e-001  4.8742e-002 28185 100938,101016,100990
 9.0000e+000 101186 -1.6117e+000  2.4123e-002 -1.6682e-001 28185 100912,101016,100938
 9.0000e+000 101163 -4.9993e-001  3.8104e-001 -4.6320e-002 28185 100912,101068,101016
 9.0000e+000 101140 -2.0146e+000 -4.2792e-001 -4.4988e-001 28185 100886,101068,100912
 9.0000e+000 101117 -5.6460e-001  1.5713e-001 -4.3966e-002 28185 101016,101068,101042
 9.0000e+000 101094 -3.9663e+000 -4.4488e-001  9.9258e-002 28185 100938,100990,100964
 9.0000e+000 101408  1.4162e-001  7.3682e-002 -2.5676e-001 27781 101503,101431,101310
 9.0000e+000 101385 -2.0931e-001  5.6608e-001 -5.2039e-001 27781 101431,101258,101232
 9.0000e+000 101362  2.9288e-001  1.0956e-002 -3.2493e-001 27781 101503,101310,101284
 9.0000e+000 101457  7.8739e-001  4.6005e-001 -4.2744e-001 27781 101336,101310,101431
 9.0000e+000 101480  2.5181e-001  8.4545e-001 -7.5731e-001 27781 101575,101431,101232
 9.0000e+000 101529  3.7074e-001  1.9908e-001 -4.7444e-001 27781 101258,101431,101503
 9.0000e+000 101552  1.8954e-001 -2.6879e-001 -2.9568e-001 27781 101705,101503,101284
 9.0000e+000 101601  3.1716e-001  8.8123e-001 -8.0635e-001 27781 101336,101431,101575
 9.0000e+000 101731 -2.8963e-002  2.0808e-002 -4.4055e-001 27781 101258,101503,101705
 9.0000e+000 102237 -7.9041e-001 -2.1869e-001  5.9957e-002 27419 102476,102260,101992
 9.0000e+000 102214 -5.5122e-001 -3.4126e-001 -4.1541e-002 27419 102260,101940,101914
 9.0000e+000 102191 -8.4039e-001 -3.9183e-001  1.1618e-001 27419 102404,102332,102096
 9.0000e+000 102168 -7.3612e-001 -3.4175e-001  2.2568e-002 27419 102404,102096,102044
 9.0000e+000 102145 -7.3531e-001 -2.6032e-001  9.2021e-002 27419 102476,101992,101966
 9.0000e+000 102122 -4.7183e-001 -4.3485e-001  9.4778e-003 27419 102044,102096,102070
 9.0000e+000 102286 -1.0330e+000 -4.2541e-001  1.7093e-001 27419 102018,101992,102260
 9.0000e+000 102309 -7.9640e-001 -3.0451e-001  1.7117e-002 27419 102332,102018,102260
 9.0000e+000 102358 -8.6620e-001 -7.2439e-001  2.4670e-001 27419 101914,102096,102332
 9.0000e+000 102381 -7.4470e-001 -4.7263e-001  5.0239e-002 27419 101914,102332,102260
 9.0000e+000 102430 -6.3795e-001 -3.7636e-001 -1.0889e-002 27419 102018,102332,102404
 9.0000e+000 102453 -5.5182e-001 -2.9313e-001 -1.1473e-001 27419 102018,102404,102044
 9.0000e+000 102502 -6.7300e-001 -2.8085e-001  9.2134e-002 27419 101940,102260,102476
 9.0000e+000 102525 -1.9207e-001 -7.8954e-002  6.3240e-002 27419 101940,102476,101966
 9.0000e+000 103031 -1.3147e+000  1.1434e+000  9.0270e-001 26715 102708,102786,102760
 9.0000e+000 103008 -1.9534e-001 -3.9168e-001  1.5459e-001 26715 102708,102890,102786
 9.0000e+000 102985  1.0534e+000 -6.8094e-001  9.6857e-002 26715 102838,102890,102864
 9.0000e+000 102962  2.9227e-001  9.9783e-001  1.1895e-001 26715 102786,102890,102838
 9.0000e+000 102939  1.4592e+000  1.5703e+000  7.1534e-001 26715 102786,102838,102812
 9.0000e+000 102916 -2.0766e+000 -7.1236e-002  3.7433e-001 26715 102708,102760,102734
 9.0000e+000 103279  2.9934e-002  4.4974e-002 -9.8981e-002 26303 103302,103158,103080
 9.0000e+000 103256  1.4908e-001 -5.4343e-002 -1.0338e-001 26303 103302,103080,103054
 9.0000e+000 103233  3.0012e-001  1.8173e-001 -3.6216e-002 26303 103080,103158,103106
 9.0000e+000 103210 -3.3701e-001  7.3454e-003 -4.9197e-002 26303 103106,103158,103132
 9.0000e+000 103328 -1.7632e-001 -4.3088e-002 -5.9549e-002 26303 103184,103158,103302
 9.0000e+000 103351  5.4912e-002 -5.5528e-002 -8.3629e-002 26303 103184,103302,103054
 9.0000e+000 103501 -9.9140e-001 -9.5645e-002  6.0661e-002 25849 103374,103426,103400
 9.0000e+000 103478 -8.7792e-001 -3.9779e-001  4.4130e-003 25849 103374,103452,103426
 9.0000e+000 104090 -8.4581e-002  2.1015e-001  1.2176e-001 25445 103793,103871,103819
 9.0000e+000 104067  1.9591e-001  1.0629e-001  3.1398e-003 25445 103793,103949,103871
 9.0000e+000 104044  2.6731e-001  2.9278e-001  9.4028e-004 25445 103871,103949,103923
 9.0000e+000 104021 -6.4094e-002  2.8819e-001 -4.0020e-003 25445 103819,103871,103845
 9.0000e+000 103998  1.1746e-001  1.8031e-001  2.0265e-001 25445 103767,103949,103793
 9.0000e+000 103975  3.9368e-001  2.0672e-001 -1.1126e-002 25445 103871,103923,103897
 9.0000e+000 104419 -3.7029e-001 -8.3783e-002 -1.2576e-001 25083 104220,104298,104272
 9.0000e+000 104396 -7.1006e-001 -4.1119e-001  7.5650e-003 25083 104220,104324,104298
 9.0000e+000 104373 -2.7808e-001 -1.7573e-001 -2.2921e-002 25083 104220,104272,104246
 9.0000e+000 104350 -7.0764e-001 -3.3993e-001  2.9253e-002 25083 104194,104324,104220
 9.0000e+000 105102  4.8755e-002 -1.6294e-001 -1.2156e-001 24793 104785,104863,104837
 9.0000e+000 105079 -1.3939e-002 -4.4774e-001 -2.8563e-001 24793 104759,104863,104785
 9.0000e+000 105056 -9.4214e-002 -6.6483e-002 -3.0128e-001 24793 104759,104915,104863
 9.0000e+000 105033 -1.9309e-001 -8.5227e-002 -2.2748e-001 24793 104733,104915,104759
 9.0000e+000 105010  5.5293e-002 -1.5448e-002 -2.4068e-001 24793 104863,104915,104889
 9.0000e+000 104987 -3.2278e-001 -1.1100e-002 -3.1966e-001 24793 104681,104915,104733
 9.0000e+000 104964 -3.7358e-002 -2.7361e-001 -1.6193e-001 24793 104785,104837,104811
 9.0000e+000 104941 -1.9479e-001  2.7787e-001 -3.5485e-001 24793 104681,104733,104707
 9.0000e+000 105252  8.8566e-001  1.1349e+000 -8.8316e-002 24389 105477,105275,105177
 9.0000e+000 105229  8.7456e-001  1.1917e+000 -1.2092e-001 24389 105347,105275,105151
 9.0000e+000 105301  9.4664e-001  1.0298e+000 -1.2158e-001 24389 105203,105177,105275
 9.0000e+000 105324  9.6636e-001  1.0551e+000 -1.0959e-001 24389 105203,105275,105125
 9.0000e+000 105373  8.7966e-001  7.8706e-001 -4.2842e-002 24389 105125,105275,105347
 9.0000e+000 105503  1.0670e+000  1.4023e+000  2.1467e-002 24389 105151,105275,105477
 9.0000e+000 106088 -5.8585e-001  5.5227e-001  7.0452e-001 23735 105791,105921,105895
 9.0000e+000 106065 -2.0372e+000 -2.7691e-002  6.9627e-001 23735 105765,105921,105791
 9.0000e+000 106042 -3.7845e-001  6.5608e-001  3.7717e-001 23735 105765,105947,105921
 9.0000e+000 106019 -2.3488e+000  7.2039e-002  9.4523e-001 23735 105817,105895,105869
 9.0000e+000 105996 -1.4438e+000  3.1411e-001  8.4024e-001 23735 105791,105895,105817
 9.0000e+000 105973 -1.1338e+000  2.6487e-001  7.6220e-001 23735 105817,105869,105843
 9.0000e+000 106417  7.0247e-001  2.0928e+000 -4.5851e-001 23295 106218,106296,106270
 9.0000e+000 106394  2.3339e-001  6.9229e-001 -3.2845e-001 23295 106218,106322,106296
 9.0000e+000 106371  3.4446e-002  4.9525e-001 -4.1190e-001 23295 106218,106270,106244
 9.0000e+000 106348  4.6717e-001  7.9205e-001 -1.3600e-001 23295 106192,106322,106218
 9.0000e+000 106746  1.4680e-001  7.3869e-001  1.2921e-001 23005 106521,106599,106547
 9.0000e+000 106723  6.0335e-001  8.2630e-001  1.5977e-002 23005 106521,106651,106599
 9.0000e+000 106700  3.9753e-001  7.5157e-001  4.4589e-002 23005 106547,106599,106573
 9.0000e+000 106677  7.6375e-001  8.0430e-001  4.0072e-001 23005 106599,106651,106625
 9.0000e+000 107331 -4.0281e-001  2.1508e-001 -2.7220e-001 22601 107060,107190,107138
 9.0000e+000 107308 -1.2171e+000 -4.2971e-002 -5.6516e-001 22601 107034,107190,107060
 9.0000e+000 107285 -1.7307e+000 -3.8784e-001 -5.4525e-001 22601 107060,107138,107112
 9.0000e+000 107262 -1.8894e+000 -3.3651e-001 -6.0704e-001 22601 107008,107190,107034
 9.0000e+000 107239 -2.7694e-001  9.5641e-001 -1.1033e+000 22601 107060,107112,107086
 9.0000e+000 107216 -6.1625e-001  2.8686e-001 -1.2112e-001 22601 107138,107190,107164
 9.0000e+000 107807 -5.7008e-001  1.3107e-001 -1.0624e-001 22031 107974,107902,107617
 9.0000e+000 107784 -7.0853e-001  3.9627e-001 -2.6337e-001 22031 107830,107565,107513
 9.0000e+000 107761 -4.6277e-001  8.3638e-002 -2.9421e-001 22031 108046,107830,107513
 9.0000e+000 107738 -4.3981e-001  3.5297e-001  2.2676e-002 22031 107974,107617,107591
 9.0000e+000 107715 -5.0382e-001 -5.9898e-002 -2.5203e-001 22031 108046,107513,107461
 9.0000e+000 107692 -1.7459e+000  6.2716e-001 -4.8047e-001 22031 107513,107565,107539
 9.0000e+000 107669 -2.7556e-001  2.1443e-001 -3.8573e-001 22031 107461,107513,107487
 9.0000e+000 107856 -8.3432e-001  2.6343e-001 -1.7887e-001 22031 107902,107565,107830
 9.0000e+000 107879 -5.5879e-001 -1.0720e-001 -1.6679e-002 22031 107643,107830,107435
 9.0000e+000 107928 -1.1424e+000  5.2557e-001 -5.1115e-001 22031 107643,107617,107902
 9.0000e+000 107951 -8.0231e-001  2.3959e-001  3.0006e-002 22031 107643,107902,107830
 9.0000e+000 108000 -7.3714e-001  4.4560e-001 -1.2925e-001 22031 107565,107902,107974
 9.0000e+000 108023 -7.0938e-001  3.7339e-001 -9.7273e-002 22031 107565,107974,107591
 9.0000e+000 108072 -4.2356e-001 -1.0225e-001 -9.6592e-002 22031 107435,107830,108046
 9.0000e+000 108095 -5.1456e-001 -3.3005e-001 -5.3160e-002 22031 107435,108046,107461
 9.0000e+000 108196  6.1556e-002  3.4940e-002 -1.9706e-001 21783 108118,108170,108144
 9.0000e+000 108655  1.6413e-001  9.4239e-001  5.5514e-001 21379 108407,108485,108459
 9.0000e+000 108632  1.8697e+000 -3.3864e-002  7.7713e-001 21379 108407,108511,108485
 9.0000e+000 108609  1.9170e+000 -2.6673e-001  4.8735e-001 21379 108381,108511,108407
 9.0000e+000 108586  8.2487e-001  5.2220e-001 -6.2658e-001 21379 108381,108537,108511
 9.0000e+000 108563  4.9818e-001  1.2735e-001  2.5302e-001 21379 108407,108459,108433
 9.0000e+000 109082 -1.0628e-001  7.0369e-001  1.8052e-001 20974 109105,108863,108811
 9.0000e+000 109059  3.6445e-001  9.5610e-001 -1.3633e-001 20974 109105,108811,108759
 9.0000e+000 109036 -8.9376e-002  1.5326e+000 -1.0605e-001 20974 109177,108889,108863
 9.0000e+000 109013  7.2051e-001  1.2617e+000 -1.2923e-001 20974 108811,108863,108837
 9.0000e+000 108990 -3.3771e-001  3.7438e-003 -4.2268e-002 20974 108759,108941,108915
 9.0000e+000 108967  1.4353e-001 -2.6549e-001  3.8620e-002 20974 108759,108811,108785
 9.0000e+000 109131  1.3300e-001  1.2052e+000  7.4100e-002 20974 109177,108863,109105
 9.0000e+000 109154  2.6712e-003  3.0569e-002 -2.1995e-002 20974 108915,109105,108759
 9.0000e+000 109203 -1.6326e-001  1.2677e+000  2.2838e-001 20974 108915,108889,109177
 9.0000e+000 109226 -1.6329e-001  5.4589e-001  3.8368e-001 20974 108915,109177,109105
 9.0000e+000 109496 -8.3157e-001  1.3426e-001 -6.8491e-002 20470 109271,109375,109297
 9.0000e+000 109473 -7.7535e-001  2.5416e-001 -1.2858e-001 20470 109271,109401,109375
 9.0000e+000 109450 -9.8504e-001 -9.1533e-002 -1.4641e-001 20470 109297,109375,109349
 9.0000e+000 109427 -1.3537e+000 -8.4892e-001  2.6940e-001 20470 109297,109349,109323
 9.0000e+000 109955  2.3140e-001  1.7893e+000  1.0052e+000 20123 110050,109733,109707
 9.0000e+000 109932 -7.2676e-001  8.4838e-001  5.3631e-001 20123 110050,109707,109681
 9.0000e+000 109909  2.1295e-001  5.3591e-001  6.5581e-001 20123 109978,109759,109733
 9.0000e+000 109886 -1.6843e-001  3.4350e-001  5.7450e-001 20123 110122,109978,109733
 9.0000e+000 109863  3.1868e-001  2.7694e-001  2.8402e-001 20123 109785,109837,109811
 9.0000e+000 110004  1.5503e-001  4.8781e-001  4.5085e-001 20123 109785,109759,109978
 9.0000e+000 110027  9.7753e-003  3.5573e-001  3.0893e-001 20123 109785,109978,109837
 9.0000e+000 110076 -3.5928e-001  6.2770e-001  4.5514e-001 20123 110122,109733,110050
 9.0000e+000 110099 -3.1207e-001  5.0828e-001  9.3447e-002 20123 109837,110050,109681
 9.0000e+000 110148  2.0028e-001  7.5076e-001  4.0972e-001 20123 109837,109978,110122
 9.0000e+000 110171  2.4119e-002  9.9307e-001  2.8525e-001 20123 109837,110122,110050
 9.0000e+000 110500  1.1980e+000  3.7876e-001 -2.8273e-001 19511 110301,110379,110353
 9.0000e+000 110477  1.7155e+000  9.8500e-001 -5.0529e-001 19511 110301,110405,110379
 9.0000e+000 110454  4.4659e-001  3.6875e-001 -2.8454e-001 19511 110275,110405,110301
 9.0000e+000 110431  1.0322e+000  5.1821e-001  4.9508e-001 19511 110301,110353,110327
 9.0000e+000 110957  3.1620e-001  1.2426e+000 -7.5508e-001 19107 110683,110735,110709
 9.0000e+000 110934  1.5579e-001 -2.5045e-001 -1.0332e+000 19107 110683,110813,110735
 9.0000e+000 110911  4.7505e-001  7.0083e-001 -9.6509e-001 19107 110735,110813,110761
 9.0000e+000 110888 -7.4536e-001 -7.1182e-001 -8.5335e-001 19107 110683,110839,110813
 9.0000e+000 110865  2.0872e-001  8.8557e-002 -9.3417e-001 19107 110761,110813,110787
 9.0000e+000 111335 -2.2389e-001 -3.1129e-001 -1.6190e-001 18653 111087,111165,111139
 9.0000e+000 111312 -8.2871e-002 -1.2878e-001 -2.3073e-001 18653 111087,111217,111165
 9.0000e+000 111289 -2.0414e-001 -1.9873e-001 -1.0733e-001 18653 111061,111217,111087
 9.0000e+000 111266 -8.3513e-002 -9.4389e-002 -7.5762e-002 18653 111087,111139,111113
 9.0000e+000 111243 -9.7048e-002 -2.0599e-001 -1.7035e-001 18653 111165,111217,111191
 9.0000e+000 111735 -1.1475e+000 -3.6627e-001 -6.3395e-002 18213 111461,111513,111487
 9.0000e+000 111712 -1.3069e+000 -8.1217e-001  1.2324e-002 18213 111461,111617,111513
 9.0000e+000 111689 -1.2518e+000 -7.2976e-001 -1.8314e-001 18213 111513,111617,111591
 9.0000e+000 111666 -5.7845e-001 -3.2868e-001  6.0346e-002 18213 111513,111591,111539
 9.0000e+000 111643 -3.4926e-001 -3.8381e-001 -2.3160e-003 18213 111539,111591,111565
 9.0000e+000 111885  6.9656e-001 -4.6317e-001  2.5268e-001 17659 111784,111836,111810
 9.0000e+000 111862  1.6452e+000  4.3837e-001  6.4054e-001 17659 111758,111836,111784
 9.0000e+000 112287  1.0284e-002  7.6083e-001 -3.1910e-001 17411 112065,112169,112143
 9.0000e+000 112264 -1.9986e+000 -8.7190e-002  3.4307e-001 17411 112039,112169,112065
 9.0000e+000 112241 -2.3091e+000  2.9576e-001 -7.6744e-001 17411 112013,112169,112039
 9.0000e+000 112218  3.4616e+000  1.0674e+000 -6.8591e-001 17411 112091,112143,112117
 9.0000e+000 112195 -1.1938e-001 -1.9920e-001  3.0014e-001 17411 112065,112143,112091
 9.0000e+000 112508 -8.2794e-001  5.1995e-001  9.3566e-002 17007 112384,112436,112410
 9.0000e+000 112485 -6.3601e-001  7.0337e-001  1.7270e-001 17007 112332,112436,112384
 9.0000e+000 112462 -8.1729e-001  3.4908e-001  1.0872e-001 17007 112332,112384,112358
 9.0000e+000 112658 -2.0608e+000 -4.4532e-001  3.1863e-001 16553 112557,112609,112583
 9.0000e+000 112635 -2.0003e+000 -3.1021e-001  3.7112e-001 16553 112531,112609,112557
 9.0000e+000 112761 -4.9585e-001  1.7858e+000 -3.0465e-001 16355 112683,112735,112709
 9.0000e+000 112913 -1.3089e+000  6.7775e-001  7.6552e-002 15949 112786,112838,112812
 9.0000e+000 112890 -6.4777e-001  1.8109e+000 -2.3862e-001 15949 112786,112864,112838
 9.0000e+000 113065  1.6714e-001 -1.3700e-001 -6.9600e-002 15609 112938,112990,112964
 9.0000e+000 113042  5.8504e-001  5.8628e-002  9.7554e-003 15609 112938,113016,112990
 9.0000e+000 113420  7.7899e-001  7.3462e-001  2.6020e-001 15284 113247,113325,113299
 9.0000e+000 113397  7.3436e-001  6.2528e-001  1.6018e-001 15284 113195,113325,113247
 9.0000e+000 113374  6.0579e-001  6.0035e-001  1.1016e-001 15284 113195,113247,113221
 9.0000e+000 113351  7.8230e-001  1.2498e+000  3.1516e-001 15284 113247,113299,113273
 9.0000e+000 113521  4.6870e-001 -2.4964e-001  2.1442e-001 202 113443,113495,113469
 9.5000e+000 65564  1.4019e-002  4.2343e-002 -2.0810e-002 65155 65414,65466,65440
 9.5000e+000 65541 -7.4103e-002 -2.5893e-002  3.5596e-002 65155 65414,65492,65466
 9.5000e+000 65518 -1.4010e-003  2.0073e-003  3.6817e-002 65155 65388,65492,65414
 9.5000e+000 65883 -2.4055e-001  7.8536e-001 -3.7344e-002 64957 65635,65739,65713
 9.5000e+000 65860 -7.5316e-002  1.5708e+000 -2.6896e-002 64957 65635,65765,65739
 9.5000e+000 65837  1.3327e-001  1.6573e+000 -3.2394e-002 64957 65609,65765,65635
 9.5000e+000 65814 -1.6213e-001  1.1344e+000 -4.0643e-001 64957 65635,65713,65687
 9.5000e+000 65791 -6.3160e-002  1.3949e+000 -2.6197e-001 64957 65635,65687,65661
 9.5000e+000 65984 -2.8292e-001  2.9290e-001  1.9998e-001 64781 65906,65958,65932
 9.5000e+000 66232  3.6903e-001  4.6121e-001 -4.1345e-001 64469 66007,66059,66033
 9.5000e+000 66209 -2.8859e-001 -7.4773e-002 -6.4700e-001 64469 66007,66085,66059
 9.5000e+000 66186  8.7382e-002  9.0845e-001 -1.9805e-001 64469 66007,66137,66085
 9.5000e+000 66163 -5.9138e-001  2.9231e-002 -9.9191e-001 64469 66085,66137,66111
 9.5000e+000 66504  1.0487e-002  1.5618e+000 -9.6907e-002 64271 66279,66383,66305
 9.5000e+000 66481 -1.8122e-001  1.5861e+000  5.4978e-002 64271 66279,66409,66383
 9.5000e+000 66458 -2.8468e-001  2.0016e+000 -1.2573e-001 64271 66305,66357,66331
 9.5000e+000 66435  6.6325e-002  1.9709e+000 -1.2057e-001 64271 66305,66383,66357
 9.5000e+000 66705 -3.5151e-002  1.5987e+000 -2.4223e-001 64073 66728,66581,66555
 9.5000e+000 66682  1.4260e-002  1.6287e+000 -2.2724e-001 64073 66728,66555,66529
 9.5000e+000 66659 -6.6125e-001  2.0753e+000  5.9139e-001 64073 66581,66633,66607
 9.5000e+000 66754 -8.4912e-002  1.6343e+000 -2.5543e-001 64073 66633,66581,66728
 9.5000e+000 66777 -4.8148e-002  1.6602e+000 -2.3920e-001 64073 66633,66728,66529
 9.5000e+000 66951  2.3934e-001 -2.8278e-002  3.0757e-001 63783 66824,66876,66850
 9.5000e+000 66928 -8.4859e-001  6.4612e-001 -1.0724e-001 63783 66824,66902,66876
 9.5000e+000 67201  6.1471e-001  1.7978e+000 -1.1488e-001 63585 66976,67080,67054
 9.5000e+000 67178  2.8308e-001  1.6647e+000 -1.9915e-001 63585 66976,67106,67080
 9.5000e+000 67155  3.1913e-001  8.5646e-001 -1.7086e-002 63585 66976,67054,67028
 9.5000e+000 67132  4.7128e-001  1.1005e+000  3.0060e-001 63585 66976,67028,67002
 9.5000e+000 67654 -1.7118e-001  1.1226e+000  4.2875e-002 63295 67357,67487,67383
 9.5000e+000 67631 -2.1371e-001  1.5749e+000 -3.2311e-001 63295 67331,67487,67357
 9.5000e+000 67608  8.1959e-002  2.0468e+000  7.9027e-002 63295 67331,67513,67487
 9.5000e+000 67585 -2.4253e-002  2.1401e+000 -8.0431e-002 63295 67435,67487,67461
 9.5000e+000 67562  8.4759e-002  2.0671e+000  4.3640e-002 63295 67383,67487,67435
 9.5000e+000 67539 -5.8735e-004  1.6044e+000 -7.9568e-002 63295 67383,67435,67409
 9.5000e+000 67853 -2.9650e-002  1.3458e+000 -3.4676e-002 62891 67876,67703,67677
 9.5000e+000 67830  5.5893e-002  1.7452e+000 -1.1450e-002 62891 67876,67677,67781
 9.5000e+000 67807 -2.1793e-001  1.0841e+000 -1.2779e-001 62891 67948,67729,67703
 9.5000e+000 67902 -3.6880e-002  1.2614e+000 -2.2532e-001 62891 67948,67703,67876
 9.5000e+000 67925  3.4912e-001  1.4198e+000 -2.5438e-001 62891 67755,67876,67781
 9.5000e+000 67974  6.6905e-002  8.7056e-001 -8.2249e-002 62891 67755,67729,67948
 9.5000e+000 67997  1.1619e-001  9.5110e-001 -1.4301e-001 62891 67755,67948,67876
 9.5000e+000 68218  2.4953e-002 -4.0695e-002 -3.4369e-002 62693 68042,68120,68068
 9.5000e+000 68195 -1.0142e-003 -3.4401e-002  4.8431e-003 62693 68042,68146,68120
 9.5000e+000 68172 -8.4246e-002  6.1575e-002 -2.2850e-002 62693 68068,68120,68094
 9.5000e+000 68468  8.9830e-002  4.5228e-004 -9.0819e-003 62289 68491,68295,68269
 9.5000e+000 68445  2.1872e-002 -1.9253e-002 -2.8388e-002 62289 68563,68491,68269
 9.5000e+000 68422  1.3568e-002  1.5566e-002 -6.9250e-004 62289 68563,68269,68243
 9.5000e+000 68399 -8.8911e-002 -1.1219e-001 -8.6282e-002 62289 68295,68347,68321
 9.5000e+000 68517  4.9986e-002 -8.7423e-003 -3.6571e-002 62289 68347,68295,68491
 9.5000e+000 68540 -3.7707e-002  2.0087e-003 -5.7813e-002 62289 68347,68491,68373
 9.5000e+000 68589  4.6687e-002  5.0128e-002 -3.2367e-002 62289 68373,68491,68563
 9.5000e+000 68612  2.4195e-002  6.1196e-002 -3.1383e-003 62289 68373,68563,68243
 9.5000e+000 68911  5.3082e-002  1.2396e+000 -5.0294e-002 62091 69222,68934,68741
 9.5000e+000 68888 -2.9645e-001  1.3553e+000 -6.0087e-002 62091 69006,68934,68689
 9.5000e+000 68865 -4.6985e-001  1.1627e+000 -2.4495e-001 62091 69006,68689,68663
 9.5000e+000 68842  2.4338e-001  1.6278e+000  2.5714e-001 62091 69078,68793,68767
 9.5000e+000 68819  6.7606e-002  1.2537e+000 -1.1705e-001 62091 69222,68741,68715
 9.5000e+000 68960  2.7467e-001  1.4542e+000 -1.3904e-001 62091 68767,68741,68934
 9.5000e+000 68983  1.1430e-001  1.7251e+000  5.9006e-002 62091 69078,68767,68934
 9.5000e+000 69032 -2.2436e-001  1.5388e+000 -1.6335e-002 62091 69150,69006,68637
 9.5000e+000 69055 -2.3601e-001  1.4597e+000 -7.6927e-002 62091 68637,69006,68663
 9.5000e+000 69104  1.5258e-001  1.4152e+000  6.0164e-003 62091 68637,68793,69078
 9.5000e+000 69127 -1.9900e-001  1.5186e+000 -3.0124e-002 62091 69150,68637,69078
 9.5000e+000 69176 -1.1766e-001  1.3662e+000  1.4334e-003 62091 68934,69006,69150
 9.5000e+000 69199  2.3001e-002  1.4778e+000 -5.9484e-002 62091 68934,69150,69078
 9.5000e+000 69248  2.2995e-002  1.1627e+000 -5.5955e-002 62091 68689,68934,69222
 9.5000e+000 69271  3.2942e-002  1.1420e+000 -1.0173e-001 62091 68689,69222,68715
 9.5000e+000 69521 -2.2697e-001  7.8383e-002 -1.3537e-002 61893 69544,69348,69296
 9.5000e+000 69498 -7.2251e-002  1.0901e-001  1.1807e-002 61893 69544,69296,69400
 9.5000e+000 69475  2.7719e-002  1.0749e-001 -9.9711e-003 61893 69296,69426,69400
 9.5000e+000 69452  4.6948e-002 -5.2503e-002 -2.1000e-001 61893 69296,69348,69322
 9.5000e+000 69570 -1.4565e-001  6.2672e-003  1.0797e-001 61893 69374,69348,69544
 9.5000e+000 69593  1.2819e-001  1.0317e-001  1.2521e-001 61893 69374,69544,69400
 9.5000e+000 70046 -1.1579e-001  1.2975e+000 -2.9269e-002 61467 69749,69905,69879
 9.5000e+000 70023 -1.4266e-001  1.0685e+000 -3.0862e-001 61467 69723,69905,69749
 9.5000e+000 70000 -1.8614e-001  1.1823e+000 -1.2009e-003 61467 70069,69827,69775
 9.5000e+000 69977  1.6976e-001  1.9976e+000 -2.8276e-001 61467 70069,69775,69749
 9.5000e+000 69954  2.3334e-002  5.7826e-001 -9.9095e-004 61467 70141,69853,69827
 9.5000e+000 69931 -3.2709e-001  1.2808e+000  3.9968e-001 61467 69775,69827,69801
 9.5000e+000 70095 -8.8110e-002  7.4305e-001  1.0532e-001 61467 70141,69827,70069
 9.5000e+000 70118 -1.3114e-001  1.1909e+000 -8.5098e-003 61467 69879,70069,69749
 9.5000e+000 70167 -1.0098e-001  8.3123e-001 -9.2402e-003 61467 69879,69853,70141
 9.5000e+000 70190 -3.7305e-002  1.2219e+000  1.0103e-001 61467 69879,70141,70069
 9.5000e+000 70291  1.7113e-001  2.1628e+000  2.2546e-001 61013 70213,70265,70239
 9.5000e+000 70441 -9.9964e-002 -1.8063e-002 -7.2851e-003 60651 70340,70392,70366
 9.5000e+000 70418 -8.9357e-002  5.7518e-002 -1.7884e-002 60651 70314,70392,70340
 9.5000e+000 70642 -9.4978e-002  1.1709e+000  3.1237e-001 60311 70665,70492,70466
 9.5000e+000 70619  8.1258e-002  1.5853e+000  3.0935e-001 60311 70665,70466,70570
 9.5000e+000 70596 -3.5312e-001  4.2087e-001  3.0056e-002 60311 70492,70544,70518
 9.5000e+000 70691 -5.0392e-003  7.6572e-001 -1.2483e-001 60311 70544,70492,70665
 9.5000e+000 70714  2.6943e-001  1.4039e+000 -1.4089e-001 60311 70544,70665,70570
 9.5000e+000 70964 -2.8630e-001  9.3165e-001  4.6272e-002 59907 70987,70765,70739
 9.5000e+000 70941 -6.2145e-002  1.4427e+000 -5.4231e-002 59907 71059,70987,70739
 9.5000e+000 70918  8.7270e-002  2.1766e+000 -1.3853e-001 59907 71059,70739,70869
 9.5000e+000 70895  2.3505e-002  1.4665e+000 -1.0435e-001 59907 70817,70869,70843
 9.5000e+000 71013 -1.1257e-001  9.6620e-001 -2.4372e-001 59907 70791,70765,70987
 9.5000e+000 71036 -4.3935e-002  9.7576e-001 -2.1068e-001 59907 70791,70987,70817
 9.5000e+000 71085  1.0243e-001  9.5241e-001 -1.7013e-001 59907 70817,70987,71059
 9.5000e+000 71108 -4.1148e-002  1.2739e+000 -1.2385e-001 59907 70817,71059,70869
 9.5000e+000 71441  5.2712e-001  7.3834e-001 -1.1348e+000 59417 71464,71242,71216
 9.5000e+000 71418  9.0598e-001  1.0472e+000  1.2307e-001 59417 71464,71216,71320
 9.5000e+000 71395  4.5809e-001  1.2341e+000  2.9099e-001 59417 71216,71346,71320
 9.5000e+000 71372 -1.5411e+000  2.1480e-001 -1.5743e-001 59417 71268,71320,71294
 9.5000e+000 71490 -3.1669e-001  4.0454e-001 -1.3474e+000 59417 71268,71242,71464
 9.5000e+000 71513 -8.9315e-001  4.1325e-001 -1.0320e-002 59417 71268,71464,71320
 9.5000e+000 71712  1.6840e-002  1.2606e+000 -1.9911e-001 58913 71562,71614,71588
 9.5000e+000 71689  9.4541e-001  1.1303e+000 -5.7305e-001 58913 71536,71614,71562
 9.5000e+000 71666  6.7280e-001  9.0371e-001 -4.7296e-001 58913 71536,71640,71614
 9.5000e+000 72171  6.9622e-001  1.5963e+000 -3.4789e-001 58409 72194,72027,72001
 9.5000e+000 72148  5.3384e-001  9.0021e-001 -4.1904e-001 58409 72194,72001,71949
 9.5000e+000 72125  1.9139e-001  1.2378e+000 -4.0598e-001 58409 71923,72053,71949
 9.5000e+000 72102  2.5062e-002  5.9873e-001 -2.6422e-001 58409 71949,72001,71975
 9.5000e+000 72079  4.5071e-001  1.2833e+000 -4.5041e-001 58409 71897,72053,71923
 9.5000e+000 72220  6.0986e-001  1.7109e+000 -2.8584e-003 58409 72053,72027,72194
 9.5000e+000 72243  5.8416e-001  1.3679e+000 -1.3565e-001 58409 72053,72194,71949
 9.5000e+000 72491 -2.0217e+000 -8.3842e-001 -1.3250e+000 57855 72514,72318,72292
 9.5000e+000 72468  1.1629e+000  4.6463e-001 -1.4505e+000 57855 72514,72292,72266
 9.5000e+000 72445 -1.1478e+000  1.4353e-001  3.3831e-002 57855 72318,72396,72370
 9.5000e+000 72422 -3.0915e+000  9.9980e-001 -9.8037e-001 57855 72318,72370,72344
 9.5000e+000 72540 -2.3203e+000 -3.6916e-001 -8.5766e-001 57855 72396,72318,72514
 9.5000e+000 72563 -2.0168e+000 -3.4751e-001 -8.8553e-001 57855 72396,72514,72266
 9.5000e+000 72811  1.0601e+000  2.4758e-001 -6.4891e-001 57401 72612,72690,72638
 9.5000e+000 72788  1.7038e-001 -1.1336e-001  4.4931e-002 57401 72586,72690,72612
 9.5000e+000 72765 -6.2395e-001 -8.7366e-001 -1.1343e+000 57401 72638,72690,72664
 9.5000e+000 72742  2.4751e-001  1.0057e+000 -2.4027e-001 57401 72586,72716,72690
 9.5000e+000 73144  1.2426e-001  7.6658e-001 -1.8772e-001 57004 72919,72997,72945
 9.5000e+000 73121  1.9155e-001  1.5454e+000 -3.9606e-001 57004 72919,73049,72997
 9.5000e+000 73098  1.0605e-001  1.0240e+000 -3.6818e-001 57004 72945,72997,72971
 9.5000e+000 73075  2.9268e-001  1.8913e+000 -4.6756e-001 57004 72997,73049,73023
 9.5000e+000 73650 -1.3690e+000  1.7803e+000 -1.2118e+000 56592 73673,73379,73353
 9.5000e+000 73627  1.8683e+000  2.3876e+000 -1.9488e+000 56592 73673,73353,73327
 9.5000e+000 73604  1.1351e-001  1.5942e+000 -5.5090e-001 56592 73745,73509,73483
 9.5000e+000 73581 -2.4902e+000 -5.9415e-001 -3.6351e-001 56592 73379,73457,73405
 9.5000e+000 73558  3.8335e-001  3.3571e-001  1.3247e-001 56592 73379,73483,73457
 9.5000e+000 73535  2.3228e+000  5.3045e-001 -1.1151e-001 56592 73405,73457,73431
 9.5000e+000 73699 -1.1101e+000  1.2061e+000  2.8728e-001 56592 73483,73379,73673
 9.5000e+000 73722 -4.6394e-002  1.9045e+000 -6.5050e-001 56592 73745,73483,73673
 9.5000e+000 73771 -3.0477e-002  1.2393e+000 -5.8970e-001 56592 73327,73509,73745
 9.5000e+000 73794 -2.4282e-001  1.4816e+000 -7.3480e-001 56592 73327,73745,73673
 9.5000e+000 74123  1.2845e+000  9.0520e-001 -1.9563e-001 56152 74146,74002,73924
 9.5000e+000 74100  1.0996e+000  7.0604e-001 -3.6593e-002 56152 74146,73924,73898
 9.5000e+000 74077  1.4722e+000  1.1647e+000 -2.9468e-001 56152 73924,74002,73976
 9.5000e+000 74054  1.0830e+000  2.7374e-001  1.5859e-001 56152 73924,73976,73950
 9.5000e+000 74172  1.6910e+000  1.2003e+000 -3.9837e-001 56152 74028,74002,74146
 9.5000e+000 74195  1.3090e+000  8.1028e-001 -1.9297e-001 56152 74028,74146,73898
 9.5000e+000 74345 -6.9998e-001  1.7069e-001  3.6105e-001 55634 74218,74270,74244
 9.5000e+000 74322  1.7787e-001  1.1670e-001  1.4190e-001 55634 74218,74296,74270
 9.5000e+000 74823  4.5110e-001 -1.2646e+000  4.7678e-001 55016 74918,74846,74581
 9.5000e+000 74800 -8.2392e-002  1.3975e-001  2.6465e-001 55016 74846,74477,74633
 9.5000e+000 74777 -3.9119e-001 -2.1410e+000  8.2558e-001 55016 74918,74581,74555
 9.5000e+000 74754 -8.1814e-001 -1.2850e+000  9.3809e-001 55016 74990,74503,74477
 9.5000e+000 74731 -1.4324e+000 -9.0880e-002  7.1193e-001 55016 74451,74633,74477
 9.5000e+000 74708 -1.5088e+000  9.9359e-001  3.1158e-001 55016 74451,74659,74633
 9.5000e+000 74685 -1.9498e+000 -2.4555e+000  1.7621e+000 55016 74503,74555,74529
 9.5000e+000 74872  4.3758e-001 -1.3732e+000  3.6127e-001 55016 74607,74581,74846
 9.5000e+000 74895 -5.4723e-002 -1.0694e+000  2.8342e-001 55016 74607,74846,74633
 9.5000e+000 74944 -7.7798e-001 -1.1534e+000  7.3714e-001 55016 74477,74846,74918
 9.5000e+000 74967 -8.8713e-001 -1.2655e+000  8.2927e-001 55016 74990,74477,74918
 9.5000e+000 75016 -5.7807e-001 -1.1790e+000  9.8400e-001 55016 74555,74503,74990
 9.5000e+000 75039 -6.5490e-001 -1.1862e+000  8.5962e-001 55016 74555,74990,74918
 9.5000e+000 75287 -1.9879e+000 -3.3178e+000 -6.9905e-002 54726 75310,75140,75114
 9.5000e+000 75264 -2.4932e+000 -2.0932e+000 -3.7876e-001 54726 75310,75114,75088
 9.5000e+000 75241 -2.5244e+000 -1.5908e+000 -1.4074e+000 54726 75088,75192,75166
 9.5000e+000 75218 -4.1021e+000  7.7491e-002 -1.2144e+000 54726 75062,75192,75088
 9.5000e+000 75336 -1.3626e+000 -2.6228e+000 -8.0084e-001 54726 75166,75140,75310
 9.5000e+000 75359 -2.3594e+000 -1.4077e+000 -8.0918e-001 54726 75166,75310,75088
 9.5000e+000 75946 -1.7182e-001  3.0952e-002  1.6125e-001 54322 75969,75701,75649
 9.5000e+000 75923 -6.0136e-001 -2.6677e-001  2.9358e-001 54322 75969,75649,75623
 9.5000e+000 75900 -3.4731e-001 -1.7458e-001 -6.3906e-002 54322 76041,75753,75701
 9.5000e+000 75877 -1.9280e-001  6.5950e-001  1.5243e-003 54322 75623,75805,75779
 9.5000e+000 75854 -4.4387e-001 -1.6354e-001 -1.9306e-001 54322 75701,75753,75727
 9.5000e+000 75831 -2.1226e-001 -1.6057e-001 -6.0171e-003 54322 75649,75701,75675
 9.5000e+000 75995 -4.7821e-001 -9.3635e-002  5.3572e-002 54322 76041,75701,75969
 9.5000e+000 76018 -4.5492e-001  1.1917e-001  1.4757e-001 54322 75779,75969,75623
 9.5000e+000 76067 -2.8892e-001  4.1271e-002 -1.0963e-001 54322 75779,75753,76041
 9.5000e+000 76090 -3.6893e-001  1.9973e-001  1.0571e-002 54322 75779,76041,75969
 9.5000e+000 76468 -8.2532e-002  1.7302e-001 -2.9378e-002 53868 76491,76272,76220
 9.5000e+000 76445 -7.9214e-002  1.9257e-001 -4.7916e-002 53868 76491,76220,76324
 9.5000e+000 76422  2.3820e-002  1.2329e-001 -9.9768e-002 53868 76220,76272,76246
 9.5000e+000 76399 -1.0923e-001  5.2037e-001  1.0724e-001 53868 76194,76324,76220
 9.5000e+000 76376 -6.1418e-001  3.1464e-001  6.3745e-003 53868 76194,76350,76324
 9.5000e+000 76517 -8.5987e-002  1.4395e-001 -1.8483e-002 53868 76298,76272,76491
 9.5000e+000 76540 -7.8131e-002  1.6967e-001 -3.7240e-002 53868 76298,76491,76324
 9.5000e+000 76690 -5.8893e-002  2.3923e-001 -4.2526e-002 53356 76589,76641,76615
 9.5000e+000 76667  5.6507e-002  7.2320e-001  9.6793e-003 53356 76563,76641,76589
 9.5000e+000 76938 -5.1449e-001  2.5946e-001 -6.8778e-001 53009 77105,76961,76765
 9.5000e+000 76915  3.4911e-002  4.9705e-001 -3.7789e-001 53009 76961,76713,76843
 9.5000e+000 76892 -3.2179e-001  3.9792e-001 -1.7529e-001 53009 77033,76817,76791
 9.5000e+000 76869 -1.1278e+000 -1.4616e-001 -1.2908e+000 53009 77105,76765,76739
 9.5000e+000 76987 -1.7603e-001  9.8201e-001 -4.9402e-001 53009 76791,76765,76961
 9.5000e+000 77010 -3.6935e-001  4.3538e-001 -4.0250e-001 53009 77033,76791,76961
 9.5000e+000 77059  2.3147e-002  5.4819e-001 -1.9369e-001 53009 76843,76817,77033
 9.5000e+000 77082 -4.4701e-002  5.7164e-001 -4.0312e-001 53009 76843,77033,76961
 9.5000e+000 77131  1.5233e-001  6.7121e-001 -4.3103e-001 53009 76713,76961,77105
 9.5000e+000 77154  5.2055e-002  6.2754e-001 -9.3685e-001 53009 76713,77105,76739
 9.5000e+000 77355  1.5717e+000 -1.9858e+000  8.7386e-001 52390 77378,77257,77231
 9.5000e+000 77332  1.1231e+000 -1.4541e+000  5.7200e-001 52390 77378,77231,77179
 9.5000e+000 77309  1.3509e+000 -1.7279e+000  5.0152e-002 52390 77179,77231,77205
 9.5000e+000 77404  2.0221e+000 -1.6475e+000  7.2067e-001 52390 77283,77257,77378
 9.5000e+000 77427  1.5643e+000 -1.0789e+000  4.1106e-001 52390 77283,77378,77179
 9.5000e+000 77677 -1.9845e+000  2.2641e+000 -1.8970e+000 51986 77700,77504,77478
 9.5000e+000 77654  1.2701e-001  3.2040e+000 -2.2047e+000 51986 77700,77478,77452
 9.5000e+000 77631 -9.3759e-002  1.4679e+000 -5.9588e-001 51986 77772,77556,77530
 9.5000e+000 77608 -2.0848e-001  1.3957e+000 -7.6456e-001 51986 77452,77582,77556
 9.5000e+000 77726 -5.0944e-001  2.3239e+000 -7.8607e-001 51986 77530,77504,77700
 9.5000e+000 77749  9.3345e-002  1.8218e+000 -8.9409e-001 51986 77772,77530,77700
 9.5000e+000 77798  3.1387e-001  1.7226e+000 -9.3833e-001 51986 77452,77556,77772
 9.5000e+000 77821  5.2796e-001  1.8191e+000 -1.1936e+000 51986 77452,77772,77700
 9.5000e+000 78282  8.4623e-001  9.9160e-001 -1.7648e-001 51738 78008,78138,78060
 9.5000e+000 78259  2.0460e+000  2.0649e+000 -1.7617e+000 51738 78008,78164,78138
 9.5000e+000 78236  4.6513e-001  8.8709e-002 -9.7044e-002 51738 78086,78138,78112
 9.5000e+000 78213  3.3338e-001  4.5923e-001 -3.9374e-001 51738 78060,78138,78086
 9.5000e+000 78190  1.0874e+000  5.3472e-001 -3.3793e-001 51738 78008,78060,78034
 9.5000e+000 78432 -1.8407e-001 -1.3397e-001  3.8880e-003 51148 78305,78357,78331
 9.5000e+000 78409 -1.5830e-001  7.1022e-002 -3.0938e-002 51148 78305,78383,78357
 9.5000e+000 78891 -3.0687e-001 -2.2859e-001  1.4719e-001 50808 78914,78695,78669
 9.5000e+000 78868 -2.3448e-001 -9.2679e-002  6.5802e-002 50808 78914,78669,78643
 9.5000e+000 78845 -5.9510e-002 -4.2166e-004  3.6701e-002 50808 78643,78773,78747
 9.5000e+000 78822 -4.3526e-002 -3.8728e-002  4.5468e-002 50808 78617,78773,78643
 9.5000e+000 78799 -1.3651e-001  9.8820e-002  1.8456e-001 50808 78695,78747,78721
 9.5000e+000 78940 -1.4685e-001 -9.9438e-002  7.7930e-002 50808 78747,78695,78914
 9.5000e+000 78963 -2.1845e-001 -6.0914e-002  2.4186e-002 50808 78747,78914,78643
 9.5000e+000 79260 -2.0493e-001 -2.5278e-001 -1.8566e-001 50468 79283,79090,79012
 9.5000e+000 79237 -2.1048e-001 -1.5664e-001 -1.7458e-001 50468 79283,79012,78986
 9.5000e+000 79214 -3.8032e-001 -3.2759e-001 -1.8314e-001 50468 79012,79090,79038
 9.5000e+000 79191 -1.3212e-001 -1.4640e-002 -2.3156e-001 50468 78986,79142,79116
 9.5000e+000 79168 -2.4019e-001 -3.3497e-001 -2.4759e-001 50468 79038,79090,79064
 9.5000e+000 79309 -2.4088e-001 -1.8787e-001 -2.1264e-001 50468 79116,79090,79283
 9.5000e+000 79332 -2.3108e-001 -7.1091e-002 -1.9359e-001 50468 79116,79283,78986
 9.5000e+000 79889  1.4741e+000  1.9475e+000 -8.3380e-001 50064 79569,79725,79699
 9.5000e+000 79866  2.8792e-001  1.2885e+000 -1.6222e+000 50064 79543,79725,79569
 9.5000e+000 79843  1.4751e+000  9.6374e-001 -7.5986e-001 50064 79621,79699,79673
 9.5000e+000 79820  1.6154e+000  1.2764e+000 -9.5212e-001 50064 79595,79699,79621
 9.5000e+000 79797  9.6999e-001  1.5312e+000 -1.1893e+000 50064 79569,79699,79595
 9.5000e+000 79774  1.1529e+000  2.8796e+000 -3.9196e-001 50064 79517,79725,79543
 9.5000e+000 79751  6.9860e-001  1.0004e+000 -8.3679e-001 50064 79621,79673,79647
 9.5000e+000 80169  1.5457e+000  2.1246e+000 -9.7003e-001 49724 80019,80097,80071
 9.5000e+000 80146  1.2756e+000  3.2881e+000 -1.2600e+000 49724 79993,80097,80019
 9.5000e+000 80123  9.7593e-001  1.9536e+000 -1.1405e+000 49724 80019,80071,80045
 9.5000e+000 80626 -1.0861e+000 -4.4556e-001 -2.4757e-001 49277 80352,80482,80378
 9.5000e+000 80603 -7.2405e-001 -3.4519e-001  7.0722e-002 49277 80352,80508,80482
 9.5000e+000 80580 -8.6060e-001 -3.2597e-001 -1.7594e-001 49277 80378,80482,80456
 9.5000e+000 80557 -1.0708e+000 -8.0073e-001 -1.7972e-001 49277 80378,80430,80404
 9.5000e+000 80534 -1.4340e+000 -5.5876e-001 -1.2956e-001 49277 80378,80456,80430
 9.5000e+000 81230 -2.1026e+000 -1.1508e+000  8.8863e-001 48716 81253,80835,80809
 9.5000e+000 81207 -1.2920e+000 -1.6992e-002 -4.6017e-001 48716 81397,81253,80809
 9.5000e+000 81184 -9.8559e-001  1.3934e+000 -3.8909e-001 48716 81325,80913,80887
 9.5000e+000 81161 -7.9893e-001 -9.2767e-001 -3.9221e-001 48716 81397,80809,81017
 9.5000e+000 81138 -1.6469e+000  7.6397e-001 -7.9237e-001 48716 81469,80965,80913
 9.5000e+000 81115 -8.8589e-001  2.5539e-001  1.2589e+000 48716 80835,80887,80861
 9.5000e+000 81092  4.2726e-001 -1.7597e+000  1.7619e+000 48716 80809,81043,81017
 9.5000e+000 81069 -1.7139e+000 -6.9399e-001 -1.7947e+000 48716 80913,80965,80939
 9.5000e+000 81279  7.5681e-001  5.2222e-001  1.5028e-001 48716 80887,80835,81253
 9.5000e+000 81302 -1.6002e+000  1.0323e+000 -6.8814e-001 48716 81325,80887,81253
 9.5000e+000 81351 -1.2631e+000  9.0901e-001 -6.3648e-001 48716 81469,80913,81325
 9.5000e+000 81374 -1.4725e+000  1.4780e+000 -6.7137e-001 48716 80991,81325,81253
 9.5000e+000 81423 -1.1666e+000  1.1979e+000 -1.5232e-002 48716 80991,81253,81397
 9.5000e+000 81446 -8.3549e-001  7.0441e-002  7.0644e-002 48716 80991,81397,81017
 9.5000e+000 81495 -2.3511e+000  1.1051e+000 -9.3894e-001 48716 80991,80965,81469
 9.5000e+000 81518 -2.0583e+000  1.1593e+000 -8.0452e-001 48716 80991,81469,81325
 9.5000e+000 81717 -1.0101e-001  5.6708e-003 -7.1089e-002 48262 81740,81567,81541
 9.5000e+000 81694  9.8677e-003  6.8324e-002 -9.7980e-002 48262 81740,81541,81645
 9.5000e+000 81671 -1.0744e-001 -2.1901e-001 -6.1281e-002 48262 81567,81619,81593
 9.5000e+000 81766 -3.8390e-002 -4.8124e-002  6.0660e-003 48262 81619,81567,81740
 9.5000e+000 81789  6.3710e-002  3.4450e-003 -1.6463e-002 48262 81619,81740,81645
 9.5000e+000 81939  1.5469e+000  2.8051e+000 -5.4354e-001 47957 82034,81962,81864
 9.5000e+000 81916  4.8074e-001  2.0905e+000 -7.3479e-001 47957 82166,81962,81838
 9.5000e+000 81988  1.9197e+000  2.4517e+000  3.2537e-001 47957 82294,81962,81890
 9.5000e+000 82011  1.4371e+000  2.1130e+000 -5.4750e-003 47957 81890,81962,81812
 9.5000e+000 82060  1.5234e+000  3.0937e+000 -3.1949e-001 47957 81838,81962,82034
 9.5000e+000 82192 -3.0035e-002  1.9839e+000  4.2681e-001 47957 81812,81962,82166
 9.5000e+000 82320  2.5943e+000  2.3494e+000  2.1042e-002 47957 81864,81962,82294
 9.5000e+000 82549 -2.2302e-001 -1.5621e-001 -1.3081e-001 47617 82448,82500,82474
 9.5000e+000 82526  1.9526e-002  3.7616e-001 -3.8742e-002 47617 82422,82500,82448
 9.5000e+000 82902  6.1911e-001  4.6458e-001 -1.5719e-001 47255 82729,82807,82755
 9.5000e+000 82879  1.0717e+000  1.1694e+000  3.7575e-002 47255 82703,82807,82729
 9.5000e+000 82856  5.8883e-001  4.1678e-001 -1.4283e-001 47255 82755,82807,82781
 9.5000e+000 82833  1.1087e+000  1.1851e+000  4.1282e-002 47255 82677,82807,82703
 9.5000e+000 83182  1.4391e-001 -8.2405e-001  3.8096e-001 46680 83032,83084,83058
 9.5000e+000 83159  5.5000e-001 -4.8158e-001  6.0399e-001 46680 83205,83084,83032
 9.5000e+000 83136 -4.6141e-001  2.4916e-002  4.8186e-001 46680 83006,83110,83084
 9.5000e+000 83231  1.0143e+000 -3.7701e-002  8.3903e-001 46680 83006,83084,83205
 9.5000e+000 83737 -1.8440e+000 -5.5746e-001  3.2810e-001 46290 83832,83760,83492
 9.5000e+000 83714 -1.8486e+000 -2.6940e-001  2.7514e-001 46290 83760,83440,83414
 9.5000e+000 83691 -1.4224e+000 -8.2158e-001  2.5120e-001 46290 83832,83492,83466
 9.5000e+000 83668 -1.5212e+000 -1.4014e+000  4.8437e-001 46290 83492,83570,83544
 9.5000e+000 83645 -2.4102e+000 -7.7303e-001  5.9305e-002 46290 83414,83596,83570
 9.5000e+000 83622 -1.3792e+000 -1.0047e+000  7.4968e-001 46290 83492,83544,83518
 9.5000e+000 83786 -1.7573e+000 -5.1032e-001  2.5229e-001 46290 83570,83492,83760
 9.5000e+000 83809 -1.8417e+000 -6.7525e-001  7.5737e-002 46290 83570,83760,83414
 9.5000e+000 83858 -1.3072e+000 -2.2929e-001  4.8354e-001 46290 83440,83760,83832
 9.5000e+000 83881 -5.8211e-001 -4.5877e-001  3.2785e-001 46290 83440,83832,83466
 9.5000e+000 84161  1.0150e-002 -5.2266e-001  9.2665e-003 45829 84011,84063,84037
 9.5000e+000 84138 -2.5165e-001 -5.2318e-001 -6.7026e-002 45829 84011,84089,84063
 9.5000e+000 84115 -2.7061e-002 -4.2333e-001  4.1741e-003 45829 83985,84089,84011
 9.5000e+000 84311  1.1809e+000  1.5976e+000  1.8523e-001 45631 84184,84236,84210
 9.5000e+000 84288  6.9069e-001  1.1013e-001  2.0510e-002 45631 84184,84262,84236
 9.5000e+000 84657 -2.0478e-001 -2.8447e-001 -7.0863e-002 45155 84680,84490,84412
 9.5000e+000 84634 -2.5287e-001 -1.8840e-001 -3.4313e-002 45155 84680,84412,84360
 9.5000e+000 84611 -3.3980e-001 -3.8190e-001  4.5333e-002 45155 84412,84490,84438
 9.5000e+000 84588 -4.2557e-002  8.1181e-004 -6.6852e-002 45155 84334,84516,84360
 9.5000e+000 84565 -2.0544e-001 -5.1591e-002 -3.4691e-001 45155 84360,84412,84386
 9.5000e+000 84542 -3.0006e-001 -4.2369e-001  1.6131e-002 45155 84438,84490,84464
 9.5000e+000 84706 -2.1013e-001 -1.9210e-001 -9.0611e-002 45155 84516,84490,84680
 9.5000e+000 84729 -2.4973e-001 -8.7680e-002 -6.8305e-002 45155 84516,84680,84360
 9.5000e+000 85077 -8.1848e-002 -4.5819e-001 -2.3880e-001 44508 85100,84754,84910
 9.5000e+000 85054 -1.6853e-001  2.4359e-002 -9.0146e-002 44508 84754,84936,84910
 9.5000e+000 85031 -4.9100e-001 -8.2874e-001  8.7764e-002 44508 85100,84910,84884
 9.5000e+000 85008 -3.8297e-001 -4.1380e-002 -4.3916e-001 44508 84780,84884,84832
 9.5000e+000 84985 -4.3076e-001 -1.5108e-001 -4.3334e-001 44508 84780,84832,84806
 9.5000e+000 84962 -1.1600e+000 -8.4074e-001 -5.7506e-002 44508 84832,84884,84858
 9.5000e+000 85126 -4.1639e-001  8.1683e-002 -5.3830e-001 44508 84780,84754,85100
 9.5000e+000 85149 -7.2683e-001 -2.8255e-001 -2.4102e-001 44508 84780,85100,84884
 9.5000e+000 85482  1.0213e-001 -9.7603e-002 -1.0899e-001 44104 85335,85387,85361
 9.5000e+000 85459  4.7919e-002 -3.6066e-001 -5.4172e-002 44104 85309,85387,85335
 9.5000e+000 85436 -1.9066e-002 -2.7020e-001 -1.5727e-001 44104 85257,85387,85309
 9.5000e+000 85413 -9.9302e-002 -9.4210e-002 -2.3715e-002 44104 85257,85309,85283
 9.5000e+000 85811 -2.8321e-001 -3.3817e-001 -1.5338e-001 43600 85586,85664,85612
 9.5000e+000 85788 -2.3847e-001 -6.7612e-002 -1.0921e-001 43600 85586,85690,85664
 9.5000e+000 85765 -1.3121e-001  1.4888e-001 -2.1277e-001 43600 85586,85716,85690
 9.5000e+000 85742 -3.2105e-001 -2.8106e-001 -2.7410e-001 43600 85612,85664,85638
 9.5000e+000 86010  2.2519e-001  7.5200e-002 -2.0623e-001 43224 85886,85938,85912
 9.5000e+000 85987  2.3682e-001  4.1783e-002 -1.7574e-001 43224 85834,85938,85886
 9.5000e+000 85964  2.0192e-001 -7.1515e-001 -1.3384e-001 43224 85834,85886,85860
 9.5000e+000 86420  2.5432e+000  1.0544e+000 -2.4182e-002 42820 86195,86299,86221
 9.5000e+000 86397  2.4278e+000  2.1861e+000 -8.4042e-001 42820 86195,86325,86299
 9.5000e+000 86374  1.6497e+000  1.3008e+000  3.9020e-001 42820 86221,86299,86273
 9.5000e+000 86351  1.2216e+000  9.5486e-001 -4.7523e-002 42820 86221,86273,86247
 9.5000e+000 86749  4.9137e-001 -4.7232e-001 -1.4968e-001 42223 86550,86602,86576
 9.5000e+000 86726  2.1437e+000 -1.1115e+000  1.4686e-001 42223 86550,86628,86602
 9.5000e+000 86703  5.8225e-001 -1.5650e+000  9.1234e-001 42223 86524,86628,86550
 9.5000e+000 86680  1.5465e+000  5.4333e-001  6.3360e-001 42223 86524,86654,86628
 9.5000e+000 87078  6.8566e-001 -2.6799e-001  2.5491e-001 41883 87173,87101,86905
 9.5000e+000 87055  5.1447e-001  8.5378e-001  9.4626e-002 41883 87101,86879,86853
 9.5000e+000 87032  1.1910e-001  1.5352e-001 -7.0087e-002 41883 86853,86983,86931
 9.5000e+000 87009  1.5709e-001  4.1434e-001 -1.9311e-001 41883 86931,86983,86957
 9.5000e+000 87127  1.0793e+000  3.7025e-001 -1.8127e-001 41883 86931,86905,87101
 9.5000e+000 87150  1.2015e-001 -5.2058e-002 -7.0898e-002 41883 86931,87101,86853
 9.5000e+000 87199  2.3747e-001  1.3055e-001  3.5604e-001 41883 86879,87101,87173
 9.5000e+000 87558 -1.0172e-001  8.2336e-001 -3.1685e-001 41471 87382,87460,87408
 9.5000e+000 87535 -1.4359e+000  8.7540e-001 -1.7320e-001 41471 87382,87486,87460
 9.5000e+000 87512  2.8523e-001  1.8083e-001 -1.1795e-001 41471 87408,87460,87434
 9.5000e+000 87806  1.3171e-001  1.0617e-001 -4.6519e-001 41017 87829,87607,87581
 9.5000e+000 87783  1.1902e-001 -2.0985e-001 -1.0247e-001 41017 87829,87581,87685
 9.5000e+000 87760  4.5140e-001 -2.8566e-002 -2.1333e-001 41017 87581,87711,87685
 9.5000e+000 87737  2.6764e-001 -7.7946e-001 -2.6537e-002 41017 87633,87685,87659
 9.5000e+000 87855 -9.4079e-002 -7.7810e-002 -2.5104e-001 41017 87633,87607,87829
 9.5000e+000 87878 -1.8714e-001 -4.3587e-001  1.2174e-001 41017 87633,87829,87685
 9.5000e+000 88258  1.6258e-002  1.9564e-002 -3.6508e-003 40613 88281,88036,88010
 9.5000e+000 88235  1.0469e-003  2.1314e-002  2.4996e-003 40613 88281,88010,88088
 9.5000e+000 88212 -7.0407e-003  1.3160e-002  6.9273e-003 40613 87984,88088,88010
 9.5000e+000 88189 -1.1211e-002 -2.5488e-003  2.9062e-002 40613 87984,88114,88088
 9.5000e+000 88166 -2.6765e-004  2.8523e-002  1.7501e-002 40613 87984,88140,88114
 9.5000e+000 88307  3.3577e-003  2.0353e-002 -1.9939e-004 40613 88062,88036,88281
 9.5000e+000 88330 -1.7972e-002  1.5573e-002  7.9450e-003 40613 88062,88281,88088
 9.5000e+000 88649 -6.5940e-003  4.7901e-002  4.4732e-004 40095 88375,88505,88401
 9.5000e+000 88626  2.9373e-003  3.9582e-002  4.9703e-003 40095 88375,88531,88505
 9.5000e+000 88603 -1.1272e-002  5.7746e-002  6.1837e-003 40095 88401,88505,88479
 9.5000e+000 88580 -8.7787e-002  4.6055e-001  2.4630e-001 40095 88427,88479,88453
 9.5000e+000 88557 -7.5755e-003  8.5528e-002  2.2404e-003 40095 88401,88479,88427
 9.5000e+000 89078  7.6975e-001 -1.2988e+000 -6.6318e-001 39897 89101,88833,88807
 9.5000e+000 89055  1.0412e-001 -1.5867e+000 -7.6453e-001 39897 89101,88807,88911
 9.5000e+000 89032 -6.8188e-001 -1.2111e+000 -1.3376e+000 39897 88781,88911,88807
 9.5000e+000 89009 -1.2869e+000 -1.6691e+000 -1.6543e+000 39897 88781,88937,88911
 9.5000e+000 88986  2.7467e+000  3.1929e-001 -5.0004e-001 39897 88833,88885,88859
 9.5000e+000 88963 -1.7903e+000 -1.3818e+000 -1.9681e+000 39897 88755,88937,88781
 9.5000e+000 89127  1.3727e+000 -1.7157e+000 -1.2718e+000 39897 88885,88833,89101
 9.5000e+000 89150  3.3583e-001 -2.2219e+000 -1.4818e+000 39897 88885,89101,88911
 9.5000e+000 89300 -1.6392e+000 -1.5709e+000  6.2454e-001 39607 89453,89323,89199
 9.5000e+000 89277 -2.4199e+000 -9.7722e-001  4.9072e-001 39607 89525,89453,89199
 9.5000e+000 89349 -1.1982e+000 -1.4534e+000 -1.2240e-002 39607 89225,89199,89323
 9.5000e+000 89479 -1.2419e+000 -6.5328e-001  4.2802e-001 39607 89251,89323,89453
 9.5000e+000 89502 -1.2816e+000 -8.5294e-002  1.0953e+000 39607 89251,89453,89173
 9.5000e+000 89551 -1.0537e+000 -6.3759e-001  6.5611e-001 39607 89173,89453,89525
 9.5000e+000 90264 -1.1175e+000 -1.7488e+000 -3.8894e-001 39039 89996,90074,90048
 9.5000e+000 90241 -6.8112e-001 -8.3874e-001 -2.3828e-001 39039 89918,90074,89996
 9.5000e+000 90218 -1.1015e+000 -1.0501e+000 -1.9284e-002 39039 89918,89996,89944
 9.5000e+000 90195 -1.4056e+000 -9.6146e-001  2.0483e-002 39039 89892,90074,89918
 9.5000e+000 90172 -2.0769e-001 -1.6795e+000 -4.4036e-001 39039 89996,90048,90022
 9.5000e+000 90149 -1.9877e+000  7.6844e-001 -1.0213e-001 39039 89892,90100,90074
 9.5000e+000 90126 -1.2767e+000 -1.1188e+000 -1.3888e-001 39039 89944,89996,89970
 9.5000e+000 90770 -4.0566e-001 -4.6950e-001 -7.5686e-002 38635 90473,90603,90577
 9.5000e+000 90747 -2.6352e-001 -4.4375e-001 -6.8215e-003 38635 90447,90603,90473
 9.5000e+000 90724 -3.8989e-001 -6.3788e-001 -7.7512e-002 38635 90499,90577,90551
 9.5000e+000 90701 -3.7983e-001 -6.3826e-001 -7.0255e-002 38635 90473,90577,90499
 9.5000e+000 90678 -2.9914e-001 -7.8500e-001 -8.9563e-002 38635 90499,90551,90525
 9.5000e+000 90655 -3.8066e-001 -3.4333e-001  3.0244e-002 38635 90447,90629,90603
 9.5000e+000 90871 -1.2341e-001 -3.0317e-001 -1.5098e-001 38231 90793,90845,90819
 9.5000e+000 91458  2.1706e-001 -2.1162e-001 -1.0048e-001 37534 91161,91317,91291
 9.5000e+000 91435  6.2955e-002  1.5102e-002  6.1533e-002 37534 91135,91317,91161
 9.5000e+000 91412 -2.0458e-001 -9.5691e-001 -4.8599e-001 37534 91187,91291,91239
 9.5000e+000 91389  4.2282e-002 -9.8086e-001  4.6541e-002 37534 91161,91291,91187
 9.5000e+000 91366  7.1849e-002 -5.8234e-001 -3.4240e-001 37534 91239,91291,91265
 9.5000e+000 91343  7.1564e-001 -9.5479e-001 -8.8123e-001 37534 91187,91239,91213
 9.5000e+000 91915 -6.5637e-001 -6.5967e-001  2.1615e-002 37080 91938,91745,91667
 9.5000e+000 91892 -6.4238e-001 -5.6351e-001  1.5409e-001 37080 91938,91667,91797
 9.5000e+000 91869 -8.8787e-001  1.8995e-001 -1.5336e-001 37080 91641,91797,91667
 9.5000e+000 91846 -8.0973e-001 -7.3678e-001  9.5463e-002 37080 91667,91719,91693
 9.5000e+000 91823 -7.7984e-001 -6.9122e-001  3.6897e-002 37080 91667,91745,91719
 9.5000e+000 91964 -5.6210e-001 -4.3841e-001  1.4885e-002 37080 91771,91745,91938
 9.5000e+000 91987 -6.1414e-001 -4.9099e-001  1.5402e-001 37080 91771,91938,91797
 9.5000e+000 92235 -4.5937e-001 -5.1517e-001 -3.2543e-002 36397 92036,92088,92062
 9.5000e+000 92212 -3.3794e-001 -3.7754e-001 -8.4523e-002 36397 92036,92114,92088
 9.5000e+000 92189 -1.8899e-001 -2.6561e-001 -4.2520e-003 36397 92036,92140,92114
 9.5000e+000 92166 -2.8441e-001 -1.7934e-001  4.5683e-003 36397 92010,92140,92036
 9.5000e+000 92694 -1.7323e-001 -6.6621e-003  3.2267e-002 36057 92446,92498,92472
 9.5000e+000 92671 -7.8225e-002  1.8623e-001  6.5232e-002 36057 92446,92550,92498
 9.5000e+000 92648  1.0712e-001 -2.8739e-002  2.9513e-002 36057 92446,92576,92550
 9.5000e+000 92625 -2.0650e-002 -9.7092e-002  5.8284e-002 36057 92420,92576,92446
 9.5000e+000 92602 -1.1342e-001 -6.9152e-002 -2.0887e-001 36057 92498,92550,92524
 9.5000e+000 93023 -5.0319e-001 -4.2812e-001 -1.1441e-001 35717 92876,92928,92902
 9.5000e+000 93000 -4.4895e-001 -4.5852e-001 -1.2568e-001 35717 92824,92928,92876
 9.5000e+000 92977 -2.1984e-001 -4.3320e-001 -7.4301e-002 35717 92798,92928,92824
 9.5000e+000 92954 -3.7662e-001 -5.4362e-001 -4.9290e-001 35717 92824,92876,92850
 9.5000e+000 93499  1.5567e-001 -6.3410e-001  3.1064e-001 35405 93522,93309,93257
 9.5000e+000 93476  3.4406e-001 -3.9357e-001  2.2870e-001 35405 93666,93522,93257
 9.5000e+000 93453  1.9804e-001 -2.1251e+000  2.9812e-001 35405 93594,93127,93335
 9.5000e+000 93430  3.0977e-002 -3.1988e-001  4.9093e-002 35405 93666,93257,93231
 9.5000e+000 93407 -7.3357e-001 -2.6313e+000 -6.3845e-001 35405 93127,93179,93153
 9.5000e+000 93384 -1.0755e+000  1.2742e-001  4.0769e-001 35405 93179,93231,93205
 9.5000e+000 93361  5.3609e-001  6.9003e-001  1.8965e-001 35405 93257,93309,93283
 9.5000e+000 93548  8.4994e-001 -1.4680e-001  8.3370e-001 35405 93335,93309,93522
 9.5000e+000 93571  3.8741e-001 -1.0756e+000  4.9565e-001 35405 93594,93335,93522
 9.5000e+000 93620  1.8515e-001 -9.9328e-001  1.8279e-001 35405 93179,93127,93594
 9.5000e+000 93643 -5.0385e-002 -5.4071e-001  1.7958e-001 35405 93738,93594,93522
 9.5000e+000 93692  4.0497e-002 -5.5613e-001  1.0689e-001 35405 93738,93522,93666
 9.5000e+000 93715 -1.7460e-001 -5.6350e-001 -7.1758e-002 35405 93179,93666,93231
 9.5000e+000 93764 -9.5876e-002 -6.3281e-001  2.2218e-001 35405 93179,93594,93738
 9.5000e+000 93787 -5.6006e-002 -6.7020e-001  1.5641e-001 35405 93179,93738,93666
 9.5000e+000 94372  5.3711e-001 -5.3819e-003 -4.2938e-002 34951 94395,94127,94075
 9.5000e+000 94349  1.0050e+000 -6.1632e-002  1.1309e-001 34951 94395,94075,94231
 9.5000e+000 94326  9.9397e-002 -4.6271e-001  3.4834e-002 34951 94049,94231,94075
 9.5000e+000 94303 -3.3765e-001 -4.5970e-001  5.1888e-001 34951 94075,94127,94101
 9.5000e+000 94280  1.2353e+000  2.1039e-001  4.0980e-001 34951 94127,94205,94153
 9.5000e+000 94257  1.4281e+000  2.5343e-001  6.4253e-001 34951 94153,94205,94179
 9.5000e+000 94421  9.1420e-001 -1.3833e-001  2.4094e-001 34951 94205,94127,94395
 9.5000e+000 94444  1.7755e+000  5.1015e-002  3.7158e-001 34951 94205,94395,94231
 9.5000e+000 94692 -3.8502e-003  6.1729e-002  3.1732e-003 34397 94715,94519,94467
 9.5000e+000 94669 -6.6357e-003  4.6491e-002  2.6582e-003 34397 94715,94467,94597
 9.5000e+000 94646 -1.5343e-002  2.7993e-002  1.4527e-002 34397 94545,94597,94571
 9.5000e+000 94623  1.6644e-002  1.1373e-001 -5.3276e-003 34397 94467,94519,94493
 9.5000e+000 94741 -2.0687e-003  1.1145e-001  7.7064e-003 34397 94545,94519,94715
 9.5000e+000 94764 -2.2774e-002  6.3133e-002  8.6486e-003 34397 94545,94715,94597
 9.5000e+000 94985 -2.0173e-002  2.1171e-001 -2.2215e-002 33985 94835,94913,94887
 9.5000e+000 94962  2.3088e-001  8.3512e-001 -5.8499e-002 33985 94809,94913,94835
 9.5000e+000 94939  5.8756e-002  2.0706e-001 -2.6518e-002 33985 94835,94887,94861
 9.5000e+000 95186 -2.7838e-001 -4.3145e-001 -3.0511e-001 33645 95281,95209,95036
 9.5000e+000 95163  2.1594e-002 -6.4878e-001  5.1323e-002 33645 95209,95010,95088
 9.5000e+000 95140  2.7583e-001 -2.6451e-001 -6.8767e-002 33645 95010,95114,95088
 9.5000e+000 95235 -5.7944e-001 -4.8972e-001 -2.0545e-001 33645 95062,95036,95209
 9.5000e+000 95258 -4.0829e-001 -8.1569e-001  2.5558e-001 33645 95413,95209,95088
 9.5000e+000 95307 -1.3727e-001 -3.0528e-001 -3.5805e-001 33645 95010,95209,95281
 9.5000e+000 95439 -3.6044e-001 -6.7281e-001  2.1020e-001 33645 95062,95209,95413
 9.5000e+000 95766 -4.4696e-001  2.3558e-001 -5.9293e-001 33141 95789,95593,95567
 9.5000e+000 95743 -1.1141e-001 -4.6873e-002 -2.0905e-001 33141 95861,95789,95567
 9.5000e+000 95720 -1.4813e-001  3.5159e-002 -5.4726e-002 33141 95861,95567,95671
 9.5000e+000 95697 -1.4969e-001 -3.1449e-002 -7.6403e-002 33141 95541,95671,95567
 9.5000e+000 95815 -1.5319e-001  9.5849e-001 -5.2446e-001 33141 95619,95593,95789
 9.5000e+000 95838 -3.1507e-002  3.2731e-001 -2.2055e-001 33141 95619,95789,95645
 9.5000e+000 95887  1.2109e-002  2.2746e-001 -2.3490e-001 33141 95645,95789,95861
 9.5000e+000 95910 -3.9115e-002  3.0294e-001 -6.0216e-002 33141 95645,95861,95671
 9.5000e+000 96060 -5.5364e-001 -2.6511e-001 -3.2871e-001 32487 95959,96011,95985
 9.5000e+000 96037 -1.5189e-001 -2.0946e-001 -7.8604e-002 32487 95933,96011,95959
 9.5000e+000 96570 -2.3528e-001 -1.0025e-001  1.0469e-001 32033 96665,96593,96377
 9.5000e+000 96547 -3.9497e-001  1.7637e-001 -2.7368e-001 32033 96737,96593,96325
 9.5000e+000 96524 -2.7237e-001 -1.9274e-001  3.9145e-002 32033 96665,96377,96351
 9.5000e+000 96501 -4.0362e-001  3.3316e-001 -2.1709e-001 32033 96737,96325,96299
 9.5000e+000 96478 -3.4609e-001  2.9625e-001 -2.1041e-001 32033 96247,96429,96299
 9.5000e+000 96455 -7.3591e-001 -7.7635e-001 -1.8743e-001 32033 96247,96299,96273
 9.5000e+000 96619  4.6058e-002  7.5020e-002  5.5166e-002 32033 96809,96593,96403
 9.5000e+000 96642  2.7203e-001  6.7730e-001 -5.9935e-001 32033 96403,96593,96429
 9.5000e+000 96691 -7.2703e-002 -3.2272e-001 -7.5249e-003 32033 96325,96593,96665
 9.5000e+000 96714 -2.1185e-001 -4.9358e-001 -9.7657e-002 32033 96325,96665,96351
 9.5000e+000 96763 -4.4281e-001  8.3027e-002 -3.4430e-001 32033 96429,96593,96737
 9.5000e+000 96786 -4.4412e-001  1.9609e-001 -2.7103e-001 32033 96429,96737,96299
 9.5000e+000 96835  1.8804e-002  3.5915e-002  3.6832e-002 32033 96377,96593,96809
 9.5000e+000 97064  2.6923e-002  1.0641e-001  2.1681e-003 31671 97087,96989,96963
 9.5000e+000 97041  6.0161e-002  1.2456e-001 -9.9454e-003 31671 97087,96963,96937
 9.5000e+000 97113 -1.8468e-002  5.5403e-002  3.6254e-002 31671 97159,97087,97015
 9.5000e+000 97136  4.6890e-003 -9.3937e-003 -6.3863e-003 31671 97015,97087,96937
 9.5000e+000 97185  5.5671e-002  1.8709e-001 -2.4895e-003 31671 96989,97087,97159
 9.5000e+000 97563 -2.8133e-002  6.1100e-002 -1.7813e-002 31117 97586,97367,97341
 9.5000e+000 97540  8.5576e-003  5.5510e-002 -3.0933e-002 31117 97658,97586,97341
 9.5000e+000 97517  4.3621e-002  4.5004e-002 -1.6600e-002 31117 97658,97341,97315
 9.5000e+000 97494 -8.0518e-002  3.8589e-002 -6.3378e-003 31117 97289,97445,97315
 9.5000e+000 97471 -2.0728e-002 -7.2249e-003  1.8256e-002 31117 97367,97419,97393
 9.5000e+000 97612 -3.7497e-002  1.7849e-002 -9.6912e-003 31117 97419,97367,97586
 9.5000e+000 97635 -6.2032e-002  4.1681e-002 -5.1971e-002 31117 97419,97586,97445
 9.5000e+000 97684 -5.3835e-002  5.8131e-002 -3.0623e-002 31117 97445,97586,97658
 9.5000e+000 97707 -1.3438e-002  5.2214e-002 -1.5452e-002 31117 97445,97658,97315
 9.5000e+000 98215 -2.0893e-001  3.8181e-002 -2.7675e-001 30563 98238,97996,97944
 9.5000e+000 98192 -3.2455e-001  1.1355e-001 -2.6140e-001 30563 98310,98238,97944
 9.5000e+000 98169 -4.4471e-001 -2.1355e-001 -2.6917e-001 30563 98310,97944,97918
 9.5000e+000 98146 -1.7141e-001  2.4631e-002  4.8867e-002 30563 97892,98074,97918
 9.5000e+000 98123 -1.1905e-001  4.3655e-001 -2.7960e-001 30563 97996,98048,98022
 9.5000e+000 98100 -2.8121e-001  1.6196e-001 -5.0467e-001 30563 97944,97996,97970
 9.5000e+000 98264 -2.0365e-001  1.2492e-001 -2.7241e-001 30563 98048,97996,98238
 9.5000e+000 98287 -1.6697e-001  4.2999e-001 -4.8420e-003 30563 98048,98238,98074
 9.5000e+000 98336 -3.5168e-001 -5.3945e-002 -3.6308e-002 30563 98074,98238,98310
 9.5000e+000 98359 -3.5907e-001 -1.4915e-001 -2.3343e-002 30563 98074,98310,97918
 9.5000e+000 98607 -7.5549e-001  2.2467e-001 -7.0542e-003 30073 98630,98460,98408
 9.5000e+000 98584 -1.1115e+000  1.9792e-001 -6.3528e-002 30073 98630,98408,98382
 9.5000e+000 98561 -3.2145e-001  3.8675e-001 -2.0204e-001 30073 98382,98512,98486
 9.5000e+000 98538 -5.5324e-001  1.3194e-001  1.6291e-001 30073 98408,98460,98434
 9.5000e+000 98656 -5.7332e-001  1.0872e-001 -7.7557e-002 30073 98486,98460,98630
 9.5000e+000 98679 -8.1200e-001  1.7478e-001 -1.2958e-001 30073 98486,98630,98382
 9.5000e+000 99157  2.9708e-001 -1.8627e-001  2.0943e-001 29669 99180,98837,98811
 9.5000e+000 99134  3.2773e-001 -3.3042e-002  2.3768e-001 29669 99324,99180,98811
 9.5000e+000 99111  4.9674e-001  4.7762e-001 -2.9033e-001 29669 99252,98863,98837
 9.5000e+000 99088  2.2207e-001 -3.2876e-001  3.3275e-001 29669 99324,98811,98993
 9.5000e+000 99065 -7.4282e-001  7.4144e-001  1.4065e-001 29669 98863,98941,98915
 9.5000e+000 99042 -2.1747e-001  6.5844e-001  2.9029e-001 29669 98863,98915,98889
 9.5000e+000 99019 -9.1687e-003 -3.6519e-001  6.6810e-001 29669 98785,98993,98811
 9.5000e+000 99206  3.3627e-001 -1.5319e-001 -6.7265e-002 29669 99252,98837,99180
 9.5000e+000 99229 -8.1629e-002  2.4571e-001  1.5791e-001 29669 98941,99180,98967
 9.5000e+000 99278  1.2204e-001  9.6249e-001 -2.1139e-001 29669 98941,98863,99252
 9.5000e+000 99301  2.2534e-001  6.7449e-001  2.1740e-002 29669 98941,99252,99180
 9.5000e+000 99350  1.7503e-001  3.3621e-001  1.8249e-001 29669 98967,99180,99324
 9.5000e+000 99373  1.6360e-001  1.1486e-001  2.2919e-001 29669 98967,99324,98993
 9.5000e+000 99958  3.6931e-001  6.4398e-001  1.5834e-001 29051 99981,99765,99739
 9.5000e+000 99935 -3.0172e-002  6.8398e-002 -1.5834e-002 29051 99981,99739,99661
 9.5000e+000 99912  4.7663e-001 -4.5252e-001 -3.1912e-001 29051 99765,99817,99791
 9.5000e+000 99889 -8.1938e-001 -4.5539e-001  5.1040e-001 29051 99635,99817,99661
 9.5000e+000 99866 -9.9559e-001 -8.9250e-003  6.8541e-001 29051 99661,99739,99687
 9.5000e+000 99843 -1.2137e+000  3.0128e-001  3.5574e-001 29051 99687,99739,99713
 9.5000e+000 100007  5.9677e-001  7.8648e-002  2.1096e-001 29051 99817,99765,99981
 9.5000e+000 100030  4.1379e-001 -1.8379e-001  1.3056e-001 29051 99817,99981,99661
 9.5000e+000 100278  9.1202e-001  6.0484e-001  9.6104e-002 28525 100445,100301,100131
 9.5000e+000 100255  3.3861e-001  5.0465e-001  2.3976e-002 28525 100373,100301,100079
 9.5000e+000 100232  3.2067e-001  8.0855e-002  9.1003e-002 28525 100373,100079,100053
 9.5000e+000 100209  7.1829e-001  8.3229e-001 -1.1573e-001 28525 100445,100131,100105
 9.5000e+000 100327  1.7145e+000  3.0897e-001  3.9832e-002 28525 100517,100301,100157
 9.5000e+000 100350  6.0302e-001  3.9934e-001 -3.0505e-001 28525 100157,100301,100183
 9.5000e+000 100399  2.9545e-001  6.6264e-002  2.3855e-001 28525 100183,100301,100373
 9.5000e+000 100422  3.7566e-001 -2.3552e-001  2.9966e-001 28525 100183,100373,100053
 9.5000e+000 100471  6.5253e-001  3.5813e-001 -1.1827e-001 28525 100079,100301,100445
 9.5000e+000 100494  1.8241e-001  3.3743e-001 -3.7598e-001 28525 100079,100445,100105
 9.5000e+000 100543  1.3585e+000  2.5515e-001 -7.0500e-002 28525 100131,100301,100517
 9.5000e+000 101209 -1.5051e+000  3.6693e-001  5.1776e-002 28185 100938,101016,100990
 9.5000e+000 101186 -1.6152e+000  1.7866e-002 -1.5779e-001 28185 100912,101016,100938
 9.5000e+000 101163 -5.0896e-001  3.7421e-001 -3.9768e-002 28185 100912,101068,101016
 9.5000e+000 101140 -2.0014e+000 -4.1644e-001 -4.3546e-001 28185 100886,101068,100912
 9.5000e+000 101117 -5.7574e-001  1.5608e-001 -3.4533e-002 28185 101016,101068,101042
 9.5000e+000 101094 -3.9639e+000 -4.5188e-001  9.7303e-002 28185 100938,100990,100964
 9.5000e+000 101408  1.3417e-001  6.7426e-002 -2.5433e-001 27781 101503,101431,101310
 9.5000e+000 101385 -2.1871e-001  5.5881e-001 -5.1893e-001 27781 101431,101258,101232
 9.5000e+000 101362  2.8556e-001  3.6334e-003 -3.2327e-001 27781 101503,101310,101284
 9.5000e+000 101457  7.7991e-001  4.5328e-001 -4.2451e-001 27781 101336,101310,101431
 9.5000e+000 101480  2.4685e-001  8.4020e-001 -7.5634e-001 27781 101575,101431,101232
 9.5000e+000 101529  3.6332e-001  1.9140e-001 -4.7266e-001 27781 101258,101431,101503
 9.5000e+000 101552  1.8214e-001 -2.7682e-001 -2.9405e-001 27781 101705,101503,101284
 9.5000e+000 101601  3.0937e-001  8.7356e-001 -8.0350e-001 27781 101336,101431,101575
 9.5000e+000 101731 -3.7341e-002  1.2980e-002 -4.3949e-001 27781 101258,101503,101705
 9.5000e+000 102237 -7.8654e-001 -2.2355e-001  5.9245e-002 27419 102476,102260,101992
 9.5000e+000 102214 -5.4997e-001 -3.4589e-001 -4.0696e-002 27419 102260,101940,101914
 9.5000e+000 102191 -8.3622e-001 -3.9516e-001  1.1582e-001 27419 102404,102332,102096
 9.5000e+000 102168 -7.3287e-001 -3.4516e-001  2.3172e-002 27419 102404,102096,102044
 9.5000e+000 102145 -7.3244e-001 -2.6446e-001  9.0748e-002 27419 102476,101992,101966
 9.5000e+000 102122 -4.7200e-001 -4.3544e-001  9.8279e-003 27419 102044,102096,102070
 9.5000e+000 102286 -1.0263e+000 -4.2816e-001  1.6887e-001 27419 102018,101992,102260
 9.5000e+000 102309 -7.9291e-001 -3.0892e-001  1.7016e-002 27419 102332,102018,102260
 9.5000e+000 102358 -8.6215e-001 -7.2619e-001  2.4543e-001 27419 101914,102096,102332
 9.5000e+000 102381 -7.4127e-001 -4.7581e-001  5.0052e-002 27419 101914,102332,102260
 9.5000e+000 102430 -6.3576e-001 -3.8022e-001 -1.0753e-002 27419 102018,102332,102404
 9.5000e+000 102453 -5.5021e-001 -2.9711e-001 -1.1353e-001 27419 102018,102404,102044
 9.5000e+000 102502 -6.7032e-001 -2.8654e-001  9.0966e-002 27419 101940,102260,102476
 9.5000e+000 102525 -1.9330e-001 -8.5334e-002  6.1024e-002 27419 101940,102476,101966
 9.5000e+000 103031 -1.2441e+000  1.0788e+000  8.5742e-001 26715 102708,102786,102760
 9.5000e+000 103008 -1.7385e-001 -3.6952e-001  1.4380e-001 26715 102708,102890,102786
 9.5000e+000 102985  1.0190e+000 -6.4666e-001  8.9908e-002 26715 102838,102890,102864
 9.5000e+000 102962  2.8662e-001  9.3142e-001  1.1550e-001 26715 102786,102890,102838
 9.5000e+000 102939  1.4126e+000  1.4843e+000  6.9520e-001 26715 102786,102838,102812
 9.5000e+000 102916 -1.9650e+000 -6.4436e-002  3.5272e-001 26715 102708,102760,102734
 9.5000e+000 103279  1.9131e-002  5.1390e-002 -9.7758e-002 26303 103302,103158,103080
 9.5000e+000 103256  1.5856e-001 -6.9326e-002 -1.0398e-001 26303 103302,103080,103054
 9.5000e+000 103233  2.9830e-001  1.9103e-001 -3.7044e-002 26303 103080,103158,103106
 9.5000e+000 103210 -3.5789e-001  1.7385e-002 -4.6222e-002 26303 103106,103158,103132
 9.5000e+000 103328 -2.1385e-001 -6.3987e-002 -4.6534e-002 26303 103184,103158,103302
 9.5000e+000 103351  5.2753e-002 -8.6470e-002 -7.8736e-002 26303 103184,103302,103054
 9.5000e+000 103501 -9.8360e-001 -1.0515e-001  5.9542e-002 25849 103374,103426,103400
 9.5000e+000 103478 -8.7164e-001 -3.9855e-001  4.1145e-003 25849 103374,103452,103426
 9.5000e+000 104090 -8.3047e-002  2.0452e-001  1.2139e-001 25445 103793,103871,103819
 9.5000e+000 104067  1.9353e-001  1.0367e-001  4.4217e-003 25445 103793,103949,103871
 9.5000e+000 104044  2.6557e-001  2.8882e-001  4.0774e-003 25445 103871,103949,103923
 9.5000e+000 104021 -6.9483e-002  2.8103e-001 -6.5879e-003 25445 103819,103871,103845
 9.5000e+000 103998  1.1733e-001  1.7790e-001  2.0262e-001 25445 103767,103949,103793
 9.5000e+000 103975  3.9175e-001  2.0333e-001 -7.8410e-003 25445 103871,103923,103897
 9.5000e+000 104419 -3.7049e-001 -8.9744e-002 -1.2474e-001 25083 104220,104298,104272
 9.5000e+000 104396 -7.0648e-001 -4.1400e-001  7.1994e-003 25083 104220,104324,104298
 9.5000e+000 104373 -2.8057e-001 -1.7957e-001 -2.4413e-002 25083 104220,104272,104246
 9.5000e+000 104350 -7.0387e-001 -3.4272e-001  2.8913e-002 25083 104194,104324,104220
 9.5000e+000 105102  4.4454e-002 -1.6595e-001 -1.1801e-001 24793 104785,104863,104837
 9.5000e+000 105079 -1.9503e-002 -4.5438e-001 -2.8282e-001 24793 104759,104863,104785
 9.5000e+000 105056 -9.8159e-002 -7.0855e-002 -2.9776e-001 24793 104759,104915,104863
 9.5000e+000 105033 -1.9674e-001 -9.4868e-002 -2.2534e-001 24793 104733,104915,104759
 9.5000e+000 105010  5.2367e-002 -1.9873e-002 -2.3477e-001 24793 104863,104915,104889
 9.5000e+000 104987 -3.2599e-001 -1.5664e-002 -3.1790e-001 24793 104681,104915,104733
 9.5000e+000 104964 -4.1530e-002 -2.7596e-001 -1.5839e-001 24793 104785,104837,104811
 9.5000e+000 104941 -2.0032e-001  2.7061e-001 -3.5180e-001 24793 104681,104733,104707
 9.5000e+000 105252  8.7237e-001  1.1007e+000 -8.2853e-002 24389 105477,105275,105177
 9.5000e+000 105229  8.5057e-001  1.1591e+000 -1.0925e-001 24389 105347,105275,105151
 9.5000e+000 105301  9.3152e-001  1.0009e+000 -1.1503e-001 24389 105203,105177,105275
 9.5000e+000 105324  9.6153e-001  1.0529e+000 -8.9922e-002 24389 105203,105275,105125
 9.5000e+000 105373  8.6435e-001  7.7113e-001 -3.6197e-002 24389 105125,105275,105347
 9.5000e+000 105503  1.0400e+000  1.3516e+000  1.6657e-002 24389 105151,105275,105477
 9.5000e+000 106088 -5.9453e-001  5.4411e-001  6.9950e-001 23735 105791,105921,105895
 9.5000e+000 106065 -2.0411e+000 -3.0471e-002  6.9741e-001 23735 105765,105921,105791
 9.5000e+000 106042 -3.9182e-001  6.5494e-001  3.7793e-001 23735 105765,105947,105921
 9.5000e+000 106019 -2.3514e+000  5.7201e-002  9.3801e-001 23735 105817,105895,105869
 9.5000e+000 105996 -1.4483e+000  3.0150e-001  8.3658e-001 23735 105791,105895,105817
 9.5000e+000 105973 -1.1535e+000  2.4968e-001  7.5685e-001 23735 105817,105869,105843
 9.5000e+000 106417  6.9387e-001  2.0710e+000 -4.5203e-001 23295 106218,106296,106270
 9.5000e+000 106394  2.3108e-001  6.8161e-001 -3.2452e-001 23295 106218,106322,106296
 9.5000e+000 106371  2.9341e-002  4.8410e-001 -4.1036e-001 23295 106218,106270,106244
 9.5000e+000 106348  4.6419e-001  7.8108e-001 -1.3132e-001 23295 106192,106322,106218
 9.5000e+000 106746  1.3304e-001  7.2684e-001  1.3339e-001 23005 106521,106599,106547
 9.5000e+000 106723  5.9086e-001  8.3139e-001  1.6704e-002 23005 106521,106651,106599
 9.5000e+000 106700  3.8440e-001  7.2820e-001  3.5585e-002 23005 106547,106599,106573
 9.5000e+000 106677  7.4989e-001  8.0545e-001  4.0201e-001 23005 106599,106651,106625
 9.5000e+000 107331 -3.7637e-001  2.2217e-001 -2.6412e-001 22601 107060,107190,107138
 9.5000e+000 107308 -1.1292e+000 -2.4411e-002 -5.3358e-001 22601 107034,107190,107060
 9.5000e+000 107285 -1.6816e+000 -3.6416e-001 -4.9841e-001 22601 107060,107138,107112
 9.5000e+000 107262 -1.7659e+000 -3.0120e-001 -5.7016e-001 22601 107008,107190,107034
 9.5000e+000 107239 -1.7544e-001  1.0625e+000 -1.0859e+000 22601 107060,107112,107086
 9.5000e+000 107216 -5.8540e-001  3.0190e-001 -1.1313e-001 22601 107138,107190,107164
 9.5000e+000 107807 -5.6815e-001  1.2411e-001 -1.0506e-001 22031 107974,107902,107617
 9.5000e+000 107784 -7.0460e-001  3.8828e-001 -2.6092e-001 22031 107830,107565,107513
 9.5000e+000 107761 -4.6234e-001  7.6966e-002 -2.9205e-001 22031 108046,107830,107513
 9.5000e+000 107738 -4.3906e-001  3.4415e-001  2.2475e-002 22031 107974,107617,107591
 9.5000e+000 107715 -5.0338e-001 -6.5549e-002 -2.5083e-001 22031 108046,107513,107461
 9.5000e+000 107692 -1.7307e+000  6.1588e-001 -4.7521e-001 22031 107513,107565,107539
 9.5000e+000 107669 -2.7629e-001  2.1147e-001 -3.8256e-001 22031 107461,107513,107487
 9.5000e+000 107856 -8.2968e-001  2.5525e-001 -1.7725e-001 22031 107902,107565,107830
 9.5000e+000 107879 -5.5598e-001 -1.1121e-001 -1.6483e-002 22031 107643,107830,107435
 9.5000e+000 107928 -1.1338e+000  5.1410e-001 -5.0520e-001 22031 107643,107617,107902
 9.5000e+000 107951 -7.9748e-001  2.3185e-001  2.9609e-002 22031 107643,107902,107830
 9.5000e+000 108000 -7.3324e-001  4.3601e-001 -1.2799e-001 22031 107565,107902,107974
 9.5000e+000 108023 -7.0586e-001  3.6451e-001 -9.6412e-002 22031 107565,107974,107591
 9.5000e+000 108072 -4.2227e-001 -1.0745e-001 -9.5617e-002 22031 107435,107830,108046
 9.5000e+000 108095 -5.1273e-001 -3.3363e-001 -5.3232e-002 22031 107435,108046,107461
 9.5000e+000 108196  8.0035e-002  6.8404e-002 -2.1248e-001 21783 108118,108170,108144
 9.5000e+000 108655  1.6192e-001  9.2642e-001  5.4478e-001 21379 108407,108485,108459
 9.5000e+000 108632  1.8354e+000 -3.6893e-002  7.6450e-001 21379 108407,108511,108485
 9.5000e+000 108609  1.8810e+000 -2.7533e-001  4.6896e-001 21379 108381,108511,108407
 9.5000e+000 108586  8.2229e-001  5.1003e-001 -6.3090e-001 21379 108381,108537,108511
 9.5000e+000 108563  4.8924e-001  1.2615e-001  2.4857e-001 21379 108407,108459,108433
 9.5000e+000 109082 -1.0561e-001  7.4770e-001  1.7787e-001 20974 109105,108863,108811
 9.5000e+000 109059  3.9188e-001  1.0124e+000 -1.4456e-001 20974 109105,108811,108759
 9.5000e+000 109036 -8.8793e-002  1.6802e+000 -1.4776e-001 20974 109177,108889,108863
 9.5000e+000 109013  7.7070e-001  1.2937e+000 -1.4576e-001 20974 108811,108863,108837
 9.5000e+000 108990 -3.4868e-001  1.3948e-002 -5.7736e-002 20974 108759,108941,108915
 9.5000e+000 108967  1.5496e-001 -2.4295e-001  2.5599e-002 20974 108759,108811,108785
 9.5000e+000 109131  1.6736e-001  1.3205e+000  5.7577e-002 20974 109177,108863,109105
 9.5000e+000 109154  1.3410e-002  2.6915e-002 -2.6906e-002 20974 108915,109105,108759
 9.5000e+000 109203 -1.7414e-001  1.3807e+000  2.2943e-001 20974 108915,108889,109177
 9.5000e+000 109226 -1.6856e-001  5.7668e-001  4.0679e-001 20974 108915,109177,109105
 9.5000e+000 109496 -8.2780e-001  1.2691e-001 -6.8115e-002 20470 109271,109375,109297
 9.5000e+000 109473 -7.7154e-001  2.4548e-001 -1.2749e-001 20470 109271,109401,109375
 9.5000e+000 109450 -9.7928e-001 -9.5788e-002 -1.4499e-001 20470 109297,109375,109349
 9.5000e+000 109427 -1.3444e+000 -8.4514e-001  2.6638e-001 20470 109297,109349,109323
 9.5000e+000 109955  2.2482e-001  1.7653e+000  9.9814e-001 20123 110050,109733,109707
 9.5000e+000 109932 -7.2735e-001  8.3636e-001  5.3602e-001 20123 110050,109707,109681
 9.5000e+000 109909  2.0532e-001  5.2065e-001  6.4850e-001 20123 109978,109759,109733
 9.5000e+000 109886 -1.7037e-001  3.3657e-001  5.7097e-001 20123 110122,109978,109733
 9.5000e+000 109863  3.1211e-001  2.7298e-001  2.8422e-001 20123 109785,109837,109811
 9.5000e+000 110004  1.5098e-001  4.7963e-001  4.4664e-001 20123 109785,109759,109978
 9.5000e+000 110027  6.3981e-003  3.5009e-001  3.0909e-001 20123 109785,109978,109837
 9.5000e+000 110076 -3.5900e-001  6.1776e-001  4.5297e-001 20123 110122,109733,110050
 9.5000e+000 110099 -3.1428e-001  5.0402e-001  9.6539e-002 20123 109837,110050,109681
 9.5000e+000 110148  1.9410e-001  7.3957e-001  4.0794e-001 20123 109837,109978,110122
 9.5000e+000 110171  1.9923e-002  9.7925e-001  2.8487e-001 20123 109837,110122,110050
 9.5000e+000 110500  1.1740e+000  3.6522e-001 -2.7722e-001 19511 110301,110379,110353
 9.5000e+000 110477  1.6985e+000  9.7172e-001 -5.0254e-001 19511 110301,110405,110379
 9.5000e+000 110454  4.3906e-001  3.5834e-001 -2.7951e-001 19511 110275,110405,110301
 9.5000e+000 110431  1.0127e+000  5.0189e-001  4.8093e-001 19511 110301,110353,110327
 9.5000e+000 110957  2.7306e-001  1.2141e+000 -7.4627e-001 19107 110683,110735,110709
 9.5000e+000 110934  1.2620e-001 -2.5969e-001 -1.0312e+000 19107 110683,110813,110735
 9.5000e+000 110911  4.5485e-001  6.8762e-001 -9.5614e-001 19107 110735,110813,110761
 9.5000e+000 110888 -7.4018e-001 -7.1784e-001 -8.3341e-001 19107 110683,110839,110813
 9.5000e+000 110865  1.9408e-001  8.7851e-002 -9.2629e-001 19107 110761,110813,110787
 9.5000e+000 111335 -2.4042e-001 -3.0613e-001 -1.6089e-001 18653 111087,111165,111139
 9.5000e+000 111312 -8.5220e-002 -1.2755e-001 -2.3035e-001 18653 111087,111217,111165
 9.5000e+000 111289 -2.0506e-001 -1.9841e-001 -9.6650e-002 18653 111061,111217,111087
 9.5000e+000 111266 -1.1816e-001 -9.2669e-002 -1.0031e-001 18653 111087,111139,111113
 9.5000e+000 111243 -9.6173e-002 -1.9995e-001 -1.6598e-001 18653 111165,111217,111191
 9.5000e+000 111735 -1.1476e+000 -3.7434e-001 -5.8933e-002 18213 111461,111513,111487
 9.5000e+000 111712 -1.2999e+000 -8.1438e-001  1.3732e-002 18213 111461,111617,111513
 9.5000e+000 111689 -1.2438e+000 -7.2914e-001 -1.7871e-001 18213 111513,111617,111591
 9.5000e+000 111666 -5.7370e-001 -3.3182e-001  6.3412e-002 18213 111513,111591,111539
 9.5000e+000 111643 -3.4153e-001 -3.8274e-001 -5.9741e-004 18213 111539,111591,111565
 9.5000e+000 111885  6.9832e-001 -3.9266e-001  2.5703e-001 17659 111784,111836,111810
 9.5000e+000 111862  1.5991e+000  4.6931e-001  6.2773e-001 17659 111758,111836,111784
 9.5000e+000 112287  3.5157e-002  8.5025e-001 -2.9249e-001 17411 112065,112169,112143
 9.5000e+000 112264 -1.9477e+000 -7.0644e-002  3.7195e-001 17411 112039,112169,112065
 9.5000e+000 112241 -2.2766e+000  3.3044e-001 -7.9964e-001 17411 112013,112169,112039
 9.5000e+000 112218  3.4057e+000  1.1076e+000 -6.7163e-001 17411 112091,112143,112117
 9.5000e+000 112195 -1.2230e-001 -1.5180e-001  3.0204e-001 17411 112065,112143,112091
 9.5000e+000 112508 -8.2384e-001  5.0979e-001  9.2590e-002 17007 112384,112436,112410
 9.5000e+000 112485 -6.3376e-001  6.9135e-001  1.7092e-001 17007 112332,112436,112384
 9.5000e+000 112462 -8.1319e-001  3.4073e-001  1.0758e-001 17007 112332,112384,112358
 9.5000e+000 112658 -2.0497e+000 -4.3595e-001  3.2191e-001 16553 112557,112609,112583
 9.5000e+000 112635 -2.0088e+000 -2.9913e-001  3.7394e-001 16553 112531,112609,112557
 9.5000e+000 112761 -5.4225e-001  1.8128e+000 -3.1897e-001 16355 112683,112735,112709
 9.5000e+000 112913 -1.2998e+000  6.6593e-001  7.5754e-002 15949 112786,112838,112812
 9.5000e+000 112890 -6.4555e-001  1.7873e+000 -2.3616e-001 15949 112786,112864,112838
 9.5000e+000 113065  1.6119e-001 -2.2085e-001 -7.0213e-002 15609 112938,112990,112964
 9.5000e+000 113042  5.9284e-001 -8.0219e-007  2.1116e-002 15609 112938,113016,112990
 9.5000e+000 113420  7.6983e-001  7.2301e-001  2.5869e-001 15284 113247,113325,113299
 9.5000e+000 113397  7.2515e-001  6.1353e-001  1.5881e-001 15284 113195,113325,113247
 9.5000e+000 113374  5.9245e-001  5.8746e-001  1.0785e-001 15284 113195,113247,113221
 9.5000e+000 113351  7.7111e-001  1.2314e+000  3.1233e-001 15284 113247,113299,113273
 9.5000e+000 113521  5.0189e-001 -2.5889e-001  2.2093e-001 202 113443,113495,113469
 1.0000e+001 65564  6.4850e-003  1.2856e-002 -1.1107e-002 65155 65414,65466,65440
 1.0000e+001 65541 -1.6578e-003  1.2658e-003 -7.0668e-003 65155 65414,65492,65466
 1.0000e+001 65518  5.6899e-004 -1.0766e-003 -2.9498e-003 65155 65388,65492,65414
 1.0000e+001 65883 -2.3186e-001  7.6193e-001 -3.3774e-002 64957 65635,65739,65713
 1.0000e+001 65860 -6.8403e-002  1.5142e+000 -2.7271e-002 64957 65635,65765,65739
 1.0000e+001 65837  1.2745e-001  1.5930e+000 -2.7863e-002 64957 65609,65765,65635
 1.0000e+001 65814 -1.5799e-001  1.0940e+000 -3.8873e-001 64957 65635,65713,65687
 1.0000e+001 65791 -5.6706e-002  1.3364e+000 -2.5528e-001 64957 65635,65687,65661
 1.0000e+001 65984 -2.2229e-001  2.3117e-001  1.7097e-001 64781 65906,65958,65932
 1.0000e+001 66232  3.2059e-001  4.1061e-001 -3.5688e-001 64469 66007,66059,66033
 1.0000e+001 66209 -2.4365e-001 -6.1544e-002 -5.6040e-001 64469 66007,66085,66059
 1.0000e+001 66186  9.1977e-002  8.0783e-001 -1.9535e-001 64469 66007,66137,66085
 1.0000e+001 66163 -4.9776e-001  8.3182e-002 -9.2566e-001 64469 66085,66137,66111
 1.0000e+001 66504  8.6960e-003  1.5196e+000 -9.3959e-002 64271 66279,66383,66305
 1.0000e+001 66481 -1.7264e-001  1.5417e+000  4.8269e-002 64271 66279,66409,66383
 1.0000e+001 66458 -2.7892e-001  1.9491e+000 -1.2424e-001 64271 66305,66357,66331
 1.0000e+001 66435  6.5329e-002  1.9222e+000 -1.1798e-001 64271 66305,66383,66357
 1.0000e+001 66705 -7.7124e-002  1.5601e+000 -2.3794e-001 64073 66728,66581,66555
 1.0000e+001 66682 -1.6393e-002  1.5453e+000 -2.3249e-001 64073 66728,66555,66529
 1.0000e+001 66659 -6.5840e-001  1.9514e+000  5.6787e-001 64073 66581,66633,66607
 1.0000e+001 66754 -1.0416e-001  1.5548e+000 -2.3517e-001 64073 66633,66581,66728
 1.0000e+001 66777 -7.2058e-002  1.5189e+000 -2.2061e-001 64073 66633,66728,66529
 1.0000e+001 66951  2.2285e-001 -4.9812e-002  2.9568e-001 63783 66824,66876,66850
 1.0000e+001 66928 -7.9742e-001  5.9749e-001 -9.2892e-002 63783 66824,66902,66876
 1.0000e+001 67201  5.9756e-001  1.7248e+000 -1.0962e-001 63585 66976,67080,67054
 1.0000e+001 67178  2.5949e-001  1.5877e+000 -1.8108e-001 63585 66976,67106,67080
 1.0000e+001 67155  2.9755e-001  8.5141e-001 -5.3865e-003 63585 66976,67054,67028
 1.0000e+001 67132  4.4747e-001  1.0962e+000  2.9550e-001 63585 66976,67028,67002
 1.0000e+001 67654 -1.6707e-001  1.0940e+000  4.1212e-002 63295 67357,67487,67383
 1.0000e+001 67631 -2.0864e-001  1.5366e+000 -3.1682e-001 63295 67331,67487,67357
 1.0000e+001 67608  8.1110e-002  2.0002e+000  7.8538e-002 63295 67331,67513,67487
 1.0000e+001 67585 -2.4386e-002  2.0923e+000 -7.9781e-002 63295 67435,67487,67461
 1.0000e+001 67562  8.2193e-002  2.0195e+000  4.3145e-002 63295 67383,67487,67435
 1.0000e+001 67539 -7.0598e-004  1.5631e+000 -7.8175e-002 63295 67383,67435,67409
 1.0000e+001 67853 -4.6196e-002  1.2929e+000 -2.7774e-002 62891 67876,67703,67677
 1.0000e+001 67830  4.8791e-002  1.6921e+000 -1.2214e-002 62891 67876,67677,67781
 1.0000e+001 67807 -2.1151e-001  1.0438e+000 -1.2690e-001 62891 67948,67729,67703
 1.0000e+001 67902 -3.9129e-002  1.2135e+000 -2.2041e-001 62891 67948,67703,67876
 1.0000e+001 67925  3.3832e-001  1.3708e+000 -2.5210e-001 62891 67755,67876,67781
 1.0000e+001 67974  6.0014e-002  8.3946e-001 -8.3600e-002 62891 67755,67729,67948
 1.0000e+001 67997  1.0656e-001  9.1663e-001 -1.4202e-001 62891 67755,67948,67876
 1.0000e+001 68218 -6.6173e-003 -1.6535e-003 -1.5237e-002 62693 68042,68120,68068
 1.0000e+001 68195 -3.0242e-002  6.6893e-003  2.6473e-002 62693 68042,68146,68120
 1.0000e+001 68172 -8.8987e-002  8.4416e-002 -7.8971e-003 62693 68068,68120,68094
 1.0000e+001 68468 -1.6291e-001 -2.5538e-002 -1.7564e-002 62289 68491,68295,68269
 1.0000e+001 68445 -6.4196e-002  1.1422e-002 -9.1153e-003 62289 68563,68491,68269
 1.0000e+001 68422 -1.6771e-002  2.4608e-002 -8.5785e-003 62289 68563,68269,68243
 1.0000e+001 68399 -1.1066e-001 -8.0676e-002 -1.2644e-002 62289 68295,68347,68321
 1.0000e+001 68517 -9.5033e-002 -1.8250e-002  3.0861e-002 62289 68347,68295,68491
 1.0000e+001 68540 -8.7179e-002 -6.1553e-003  2.3889e-002 62289 68347,68491,68373
 1.0000e+001 68589 -1.0594e-001  3.1998e-002  2.9526e-002 62289 68373,68491,68563
 1.0000e+001 68612 -7.4023e-002  4.0210e-002  2.3623e-002 62289 68373,68563,68243
 1.0000e+001 68911  4.7846e-002  1.1980e+000 -5.1464e-002 62091 69222,68934,68741
 1.0000e+001 68888 -2.9325e-001  1.3146e+000 -6.1823e-002 62091 69006,68934,68689
 1.0000e+001 68865 -4.6249e-001  1.1263e+000 -2.4202e-001 62091 69006,68689,68663
 1.0000e+001 68842  2.3473e-001  1.5823e+000  2.4911e-001 62091 69078,68793,68767
 1.0000e+001 68819  5.9286e-002  1.2102e+000 -1.1332e-001 62091 69222,68741,68715
 1.0000e+001 68960  2.6593e-001  1.4111e+000 -1.3940e-001 62091 68767,68741,68934
 1.0000e+001 68983  1.0870e-001  1.6775e+000  5.5323e-002 62091 69078,68767,68934
 1.0000e+001 69032 -2.2366e-001  1.4954e+000 -1.8743e-002 62091 69150,69006,68637
 1.0000e+001 69055 -2.3574e-001  1.4169e+000 -7.7262e-002 62091 68637,69006,68663
 1.0000e+001 69104  1.4706e-001  1.3770e+000  2.1716e-003 62091 68637,68793,69078
 1.0000e+001 69127 -1.9884e-001  1.4759e+000 -3.2226e-002 62091 69150,68637,69078
 1.0000e+001 69176 -1.1897e-001  1.3249e+000 -1.4175e-003 62091 68934,69006,69150
 1.0000e+001 69199  1.9353e-002  1.4353e+000 -6.1328e-002 62091 68934,69150,69078
 1.0000e+001 69248  2.0034e-002  1.1261e+000 -5.7682e-002 62091 68689,68934,69222
 1.0000e+001 69271  2.9211e-002  1.1069e+000 -1.0000e-001 62091 68689,69222,68715
 1.0000e+001 69521 -2.1555e-001  1.2002e-001  3.6892e-002 61893 69544,69348,69296
 1.0000e+001 69498 -5.7190e-002  1.7532e-001  3.6665e-002 61893 69544,69296,69400
 1.0000e+001 69475  3.9656e-002  1.6326e-001  7.4367e-003 61893 69296,69426,69400
 1.0000e+001 69452 -5.6871e-002  6.8404e-002 -7.3578e-002 61893 69296,69348,69322
 1.0000e+001 69570 -1.3479e-001  1.6168e-002  1.7049e-001 61893 69374,69348,69544
 1.0000e+001 69593  1.5148e-001  1.3634e-001  1.5752e-001 61893 69374,69544,69400
 1.0000e+001 70046 -1.1470e-001  1.2610e+000 -2.8942e-002 61467 69749,69905,69879
 1.0000e+001 70023 -1.4019e-001  1.0388e+000 -3.0033e-001 61467 69723,69905,69749
 1.0000e+001 70000 -1.8530e-001  1.1451e+000 -2.5721e-003 61467 70069,69827,69775
 1.0000e+001 69977  1.6360e-001  1.9405e+000 -2.7743e-001 61467 70069,69775,69749
 1.0000e+001 69954  2.0073e-002  5.5466e-001 -1.9064e-003 61467 70141,69853,69827
 1.0000e+001 69931 -3.2306e-001  1.2372e+000  3.8547e-001 61467 69775,69827,69801
 1.0000e+001 70095 -8.8751e-002  7.1573e-001  1.0199e-001 61467 70141,69827,70069
 1.0000e+001 70118 -1.2945e-001  1.1540e+000 -8.2678e-003 61467 69879,70069,69749
 1.0000e+001 70167 -1.0157e-001  8.0193e-001 -9.9373e-003 61467 69879,69853,70141
 1.0000e+001 70190 -3.9214e-002  1.1837e+000  9.7856e-002 61467 69879,70141,70069
 1.0000e+001 70291  1.6632e-001  2.1065e+000  2.1948e-001 61013 70213,70265,70239
 1.0000e+001 70441 -9.6311e-002 -3.3160e-003  9.0308e-003 60651 70340,70392,70366
 1.0000e+001 70418 -1.1516e-001  8.6102e-004 -8.2998e-003 60651 70314,70392,70340
 1.0000e+001 70642 -1.1927e-001  1.1156e+000  3.2321e-001 60311 70665,70492,70466
 1.0000e+001 70619  5.4111e-002  1.5109e+000  2.9664e-001 60311 70665,70466,70570
 1.0000e+001 70596 -3.4193e-001  4.0651e-001  4.9770e-002 60311 70492,70544,70518
 1.0000e+001 70691 -7.9899e-003  7.3423e-001 -9.7318e-002 60311 70544,70492,70665
 1.0000e+001 70714  2.5861e-001  1.3451e+000 -1.3760e-001 60311 70544,70665,70570
 1.0000e+001 70964 -2.8913e-001  8.6110e-001  6.2721e-002 59907 70987,70765,70739
 1.0000e+001 70941 -6.4654e-002  1.3710e+000 -5.3274e-002 59907 71059,70987,70739
 1.0000e+001 70918  7.6942e-002  2.0764e+000 -1.3351e-001 59907 71059,70739,70869
 1.0000e+001 70895  1.8370e-002  1.4038e+000 -1.0220e-001 59907 70817,70869,70843
 1.0000e+001 71013 -7.6264e-002  9.1247e-001 -2.2647e-001 59907 70791,70765,70987
 1.0000e+001 71036 -4.1970e-002  9.3313e-001 -2.1052e-001 59907 70791,70987,70817
 1.0000e+001 71085  9.1033e-002  8.9951e-001 -1.6507e-001 59907 70817,70987,71059
 1.0000e+001 71108 -4.7849e-002  1.2094e+000 -1.2026e-001 59907 70817,71059,70869
 1.0000e+001 71441  5.0527e-001  6.8285e-001 -8.4497e-001 59417 71464,71242,71216
 1.0000e+001 71418  7.9871e-001  9.2009e-001  1.3259e-001 59417 71464,71216,71320
 1.0000e+001 71395  5.1545e-001  1.0568e+000  2.3817e-001 59417 71216,71346,71320
 1.0000e+001 71372 -1.0265e+000  2.3100e-001 -7.7553e-002 59417 71268,71320,71294
 1.0000e+001 71490 -1.5185e-001  4.2226e-001 -1.0050e+000 59417 71268,71242,71464
 1.0000e+001 71513 -6.0221e-001  4.2316e-001  3.4426e-002 59417 71268,71464,71320
 1.0000e+001 71712  2.6013e-002  1.2255e+000 -1.3621e-001 58913 71562,71614,71588
 1.0000e+001 71689  8.5451e-001  1.0446e+000 -5.2755e-001 58913 71536,71614,71562
 1.0000e+001 71666  6.1499e-001  8.2076e-001 -4.2786e-001 58913 71536,71640,71614
 1.0000e+001 72171  5.4684e-001  1.0755e+000 -3.6059e-001 58409 72194,72027,72001
 1.0000e+001 72148  3.3216e-001  4.5090e-001 -3.5499e-001 58409 72194,72001,71949
 1.0000e+001 72125  4.6494e-002  7.2680e-001 -2.7320e-001 58409 71923,72053,71949
 1.0000e+001 72102  1.6010e-001  3.2576e-001 -2.6920e-001 58409 71949,72001,71975
 1.0000e+001 72079  3.7585e-002  7.7206e-001 -2.2275e-001 58409 71897,72053,71923
 1.0000e+001 72220  3.7635e-001  1.1443e+000 -4.1539e-002 58409 72053,72027,72194
 1.0000e+001 72243  3.1490e-001  8.6258e-001 -9.7966e-002 58409 72053,72194,71949
 1.0000e+001 72491 -1.9591e+000 -7.8300e-001 -1.2062e+000 57855 72514,72318,72292
 1.0000e+001 72468  9.7343e-001  4.2981e-001 -1.3405e+000 57855 72514,72292,72266
 1.0000e+001 72445 -1.1534e+000  1.1328e-001  4.1637e-002 57855 72318,72396,72370
 1.0000e+001 72422 -3.0252e+000  9.6522e-001 -9.3619e-001 57855 72318,72370,72344
 1.0000e+001 72540 -2.2324e+000 -3.5580e-001 -7.7935e-001 57855 72396,72318,72514
 1.0000e+001 72563 -1.9531e+000 -3.4619e-001 -8.1165e-001 57855 72396,72514,72266
 1.0000e+001 72811  1.0974e+000  1.9889e-001 -6.2922e-001 57401 72612,72690,72638
 1.0000e+001 72788  1.2554e-001 -1.9743e-001  5.8514e-002 57401 72586,72690,72612
 1.0000e+001 72765 -6.2677e-001 -9.1621e-001 -1.1094e+000 57401 72638,72690,72664
 1.0000e+001 72742  2.0740e-001  8.9599e-001 -2.2117e-001 57401 72586,72716,72690
 1.0000e+001 73144  1.1502e-001  7.3182e-001 -1.8687e-001 57004 72919,72997,72945
 1.0000e+001 73121  1.7688e-001  1.4891e+000 -3.8889e-001 57004 72919,73049,72997
 1.0000e+001 73098  9.6196e-002  9.8705e-001 -3.6593e-001 57004 72945,72997,72971
 1.0000e+001 73075  2.7619e-001  1.8340e+000 -4.6310e-001 57004 72997,73049,73023
 1.0000e+001 73650 -1.0675e+000  8.6771e-001 -7.1413e-001 56592 73673,73379,73353
 1.0000e+001 73627  5.8876e-001  1.2594e+000 -9.8936e-001 56592 73673,73353,73327
 1.0000e+001 73604  1.1733e-001  8.4908e-001 -1.5564e-001 56592 73745,73509,73483
 1.0000e+001 73581 -1.9834e+000 -3.7686e-001 -2.9277e-001 56592 73379,73457,73405
 1.0000e+001 73558  3.0649e-001  3.2943e-001  1.7463e-001 56592 73379,73483,73457
 1.0000e+001 73535  2.0076e+000  4.7955e-001 -1.2566e-001 56592 73405,73457,73431
 1.0000e+001 73699 -8.6117e-001  6.4938e-001  1.7858e-001 56592 73483,73379,73673
 1.0000e+001 73722 -9.6991e-002  1.0788e+000 -2.2324e-001 56592 73745,73483,73673
 1.0000e+001 73771 -1.1327e-001  7.0701e-001 -2.9693e-001 56592 73327,73509,73745
 1.0000e+001 73794 -4.6012e-001  8.2422e-001 -3.8410e-001 56592 73327,73745,73673
 1.0000e+001 74123  1.1484e+000  8.5039e-001 -1.4952e-001 56152 74146,74002,73924
 1.0000e+001 74100  9.2819e-001  6.4731e-001 -1.1117e-003 56152 74146,73924,73898
 1.0000e+001 74077  1.3321e+000  1.0779e+000 -2.3825e-001 56152 73924,74002,73976
 1.0000e+001 74054  1.0077e+000  3.3817e-001  2.2069e-001 56152 73924,73976,73950
 1.0000e+001 74172  1.5965e+000  1.1246e+000 -3.7730e-001 56152 74028,74002,74146
 1.0000e+001 74195  1.1587e+000  7.3441e-001 -1.8077e-001 56152 74028,74146,73898
 1.0000e+001 74345 -5.4802e-001  4.6958e-002  1.9305e-001 55634 74218,74270,74244
 1.0000e+001 74322 -7.8302e-002  5.2035e-002  7.0887e-002 55634 74218,74296,74270
 1.0000e+001 74823  3.8561e-001 -1.2359e+000  5.1408e-001 55016 74918,74846,74581
 1.0000e+001 74800 -1.5759e-001 -1.9115e-001  2.6382e-001 55016 74846,74477,74633
 1.0000e+001 74777 -3.8621e-001 -2.1533e+000  8.6418e-001 55016 74918,74581,74555
 1.0000e+001 74754 -7.3163e-001 -1.1988e+000  8.8744e-001 55016 74990,74503,74477
 1.0000e+001 74731 -1.1035e+000 -4.2448e-001  4.6736e-001 55016 74451,74633,74477
 1.0000e+001 74708 -1.2333e+000  6.1997e-001  8.4617e-002 55016 74451,74659,74633
 1.0000e+001 74685 -1.8696e+000 -2.5179e+000  1.9256e+000 55016 74503,74555,74529
 1.0000e+001 74872  3.5234e-001 -1.4463e+000  3.1557e-001 55016 74607,74581,74846
 1.0000e+001 74895 -1.9271e-001 -1.1775e+000  2.5347e-001 55016 74607,74846,74633
 1.0000e+001 74944 -7.9689e-001 -1.2768e+000  6.6574e-001 55016 74477,74846,74918
 1.0000e+001 74967 -8.3369e-001 -1.2129e+000  7.4976e-001 55016 74990,74477,74918
 1.0000e+001 75016 -3.7799e-001 -1.0329e+000  1.0989e+000 55016 74555,74503,74990
 1.0000e+001 75039 -5.3469e-001 -1.1812e+000  9.3372e-001 55016 74555,74990,74918
 1.0000e+001 75287 -1.9964e+000 -3.4414e+000 -6.3904e-002 54726 75310,75140,75114
 1.0000e+001 75264 -2.4811e+000 -2.2556e+000 -3.6064e-001 54726 75310,75114,75088
 1.0000e+001 75241 -2.5317e+000 -1.7632e+000 -1.2995e+000 54726 75088,75192,75166
 1.0000e+001 75218 -3.9329e+000 -1.6690e-002 -1.0606e+000 54726 75062,75192,75088
 1.0000e+001 75336 -1.3995e+000 -2.7703e+000 -7.7399e-001 54726 75166,75140,75310
 1.0000e+001 75359 -2.3551e+000 -1.5899e+000 -7.7923e-001 54726 75166,75310,75088
 1.0000e+001 75946 -1.7757e-001  1.5486e-002  1.5383e-001 54322 75969,75701,75649
 1.0000e+001 75923 -5.9658e-001 -2.7686e-001  2.8411e-001 54322 75969,75649,75623
 1.0000e+001 75900 -3.4848e-001 -1.8424e-001 -6.5668e-002 54322 76041,75753,75701
 1.0000e+001 75877 -1.9430e-001  6.3125e-001 -1.8878e-003 54322 75623,75805,75779
 1.0000e+001 75854 -4.4371e-001 -1.7421e-001 -1.9085e-001 54322 75701,75753,75727
 1.0000e+001 75831 -2.1660e-001 -1.6851e-001 -6.1156e-003 54322 75649,75701,75675
 1.0000e+001 75995 -4.7629e-001 -1.0534e-001  4.8902e-002 54322 76041,75701,75969
 1.0000e+001 76018 -4.5273e-001  1.0197e-001  1.4160e-001 54322 75779,75969,75623
 1.0000e+001 76067 -2.9120e-001  2.6221e-002 -1.1034e-001 54322 75779,75753,76041
 1.0000e+001 76090 -3.6949e-001  1.8065e-001  6.8513e-003 54322 75779,76041,75969
 1.0000e+001 76468 -8.5048e-002  1.5675e-001 -3.1792e-002 53868 76491,76272,76220
 1.0000e+001 76445 -7.9090e-002  1.7575e-001 -4.8899e-002 53868 76491,76220,76324
 1.0000e+001 76422  1.9286e-002  1.0415e-001 -1.0128e-001 53868 76220,76272,76246
 1.0000e+001 76399 -1.0932e-001  4.9791e-001  1.0361e-001 53868 76194,76324,76220
 1.0000e+001 76376 -5.9572e-001  2.9964e-001  7.4733e-003 53868 76194,76350,76324
 1.0000e+001 76517 -8.7002e-002  1.2890e-001 -1.9421e-002 53868 76298,76272,76491
 1.0000e+001 76540 -7.6523e-002  1.5372e-001 -3.6866e-002 53868 76298,76491,76324
 1.0000e+001 76690 -5.9626e-002  2.1841e-001 -4.0449e-002 53356 76589,76641,76615
 1.0000e+001 76667  4.8375e-002  6.9006e-001  8.5144e-003 53356 76563,76641,76589
 1.0000e+001 76938 -5.0762e-001  2.2054e-001 -6.9097e-001 53009 77105,76961,76765
 1.0000e+001 76915  2.7186e-002  4.4416e-001 -3.7269e-001 53009 76961,76713,76843
 1.0000e+001 76892 -3.2578e-001  3.6742e-001 -1.8259e-001 53009 77033,76817,76791
 1.0000e+001 76869 -1.1134e+000 -1.9538e-001 -1.2792e+000 53009 77105,76765,76739
 1.0000e+001 76987 -1.7997e-001  9.6540e-001 -4.9658e-001 53009 76791,76765,76961
 1.0000e+001 77010 -3.7462e-001  3.9799e-001 -4.0401e-001 53009 77033,76791,76961
 1.0000e+001 77059  9.5928e-003  5.1225e-001 -1.9503e-001 53009 76843,76817,77033
 1.0000e+001 77082 -5.7494e-002  5.3271e-001 -3.9904e-001 53009 76843,77033,76961
 1.0000e+001 77131  1.3742e-001  6.2928e-001 -4.2442e-001 53009 76713,76961,77105
 1.0000e+001 77154  3.6676e-002  5.7961e-001 -9.1721e-001 53009 76713,77105,76739
 1.0000e+001 77355  1.4957e+000 -2.0154e+000  8.0800e-001 52390 77378,77257,77231
 1.0000e+001 77332  1.1102e+000 -1.6711e+000  5.5864e-001 52390 77378,77231,77179
 1.0000e+001 77309  1.3864e+000 -1.7817e+000  6.0091e-002 52390 77179,77231,77205
 1.0000e+001 77404  1.9294e+000 -1.8177e+000  7.3635e-001 52390 77283,77257,77378
 1.0000e+001 77427  1.5109e+000 -1.4843e+000  4.6978e-001 52390 77283,77378,77179
 1.0000e+001 77677 -1.9691e+000  2.2180e+000 -1.9115e+000 51986 77700,77504,77478
 1.0000e+001 77654  1.3326e-001  3.1413e+000 -2.2094e+000 51986 77700,77478,77452
 1.0000e+001 77631 -1.0451e-001  1.4193e+000 -6.0428e-001 51986 77772,77556,77530
 1.0000e+001 77608 -2.3739e-001  1.3046e+000 -7.6244e-001 51986 77452,77582,77556
 1.0000e+001 77726 -4.9792e-001  2.3169e+000 -8.1156e-001 51986 77530,77504,77700
 1.0000e+001 77749  8.4481e-002  1.7758e+000 -9.0905e-001 51986 77772,77530,77700
 1.0000e+001 77798  3.1134e-001  1.6784e+000 -9.5047e-001 51986 77452,77556,77772
 1.0000e+001 77821  5.2960e-001  1.7756e+000 -1.2113e+000 51986 77452,77772,77700
 1.0000e+001 78282  2.7784e-001  4.2058e-001 -1.7347e-001 51738 78008,78138,78060
 1.0000e+001 78259  9.6203e-001  9.6089e-001 -8.7957e-001 51738 78008,78164,78138
 1.0000e+001 78236  2.2131e-001  2.7858e-002 -3.6086e-002 51738 78086,78138,78112
 1.0000e+001 78213  1.1730e-001  2.5074e-001 -2.4249e-001 51738 78060,78138,78086
 1.0000e+001 78190  3.2773e-001 -5.3227e-001 -2.6638e-001 51738 78008,78060,78034
 1.0000e+001 78432 -1.7666e-001 -1.4248e-001  3.9658e-003 51148 78305,78357,78331
 1.0000e+001 78409 -1.5394e-001  6.1445e-002 -2.9901e-002 51148 78305,78383,78357
 1.0000e+001 78891 -3.1194e-001 -2.3917e-001  1.3803e-001 50808 78914,78695,78669
 1.0000e+001 78868 -2.4118e-001 -1.0587e-001  5.9522e-002 50808 78914,78669,78643
 1.0000e+001 78845 -7.5905e-002 -2.1914e-002  2.6296e-002 50808 78643,78773,78747
 1.0000e+001 78822 -5.4653e-002 -5.1228e-002  3.7316e-002 50808 78617,78773,78643
 1.0000e+001 78799 -1.4687e-001  8.1399e-002  1.7300e-001 50808 78695,78747,78721
 1.0000e+001 78940 -1.5780e-001 -1.1292e-001  6.9743e-002 50808 78747,78695,78914
 1.0000e+001 78963 -2.2642e-001 -7.4680e-002  1.8034e-002 50808 78747,78914,78643
 1.0000e+001 79260 -2.0560e-001 -2.6284e-001 -1.8388e-001 50468 79283,79090,79012
 1.0000e+001 79237 -2.1082e-001 -1.6820e-001 -1.7290e-001 50468 79283,79012,78986
 1.0000e+001 79214 -3.7934e-001 -3.3673e-001 -1.7904e-001 50468 79012,79090,79038
 1.0000e+001 79191 -1.3279e-001 -2.7931e-002 -2.2878e-001 50468 78986,79142,79116
 1.0000e+001 79168 -2.3858e-001 -3.4421e-001 -2.4386e-001 50468 79038,79090,79064
 1.0000e+001 79309 -2.4128e-001 -1.9889e-001 -2.1045e-001 50468 79116,79090,79283
 1.0000e+001 79332 -2.3132e-001 -8.3878e-002 -1.9160e-001 50468 79116,79283,78986
 1.0000e+001 79889  1.3788e+000  1.8936e+000 -8.5243e-001 50064 79569,79725,79699
 1.0000e+001 79866  3.2458e-001  1.3048e+000 -1.5523e+000 50064 79543,79725,79569
 1.0000e+001 79843  1.4183e+000  9.5694e-001 -7.5983e-001 50064 79621,79699,79673
 1.0000e+001 79820  1.5715e+000  1.2996e+000 -9.5170e-001 50064 79595,79699,79621
 1.0000e+001 79797  9.8682e-001  1.5471e+000 -1.1659e+000 50064 79569,79699,79595
 1.0000e+001 79774  9.9978e-001  2.7144e+000 -4.3493e-001 50064 79517,79725,79543
 1.0000e+001 79751  6.9371e-001  9.8989e-001 -8.3198e-001 50064 79621,79673,79647
 1.0000e+001 80169  1.4942e+000  2.1146e+000 -9.6155e-001 49724 80019,80097,80071
 1.0000e+001 80146  1.2601e+000  3.2240e+000 -1.2239e+000 49724 79993,80097,80019
 1.0000e+001 80123  9.6567e-001  1.9622e+000 -1.1360e+000 49724 80019,80071,80045
 1.0000e+001 80626 -1.0759e+000 -4.5753e-001 -2.4524e-001 49277 80352,80482,80378
 1.0000e+001 80603 -7.2395e-001 -3.6101e-001  7.0254e-002 49277 80352,80508,80482
 1.0000e+001 80580 -8.6375e-001 -3.2794e-001 -1.7485e-001 49277 80378,80482,80456
 1.0000e+001 80557 -1.0622e+000 -8.0078e-001 -1.7374e-001 49277 80378,80430,80404
 1.0000e+001 80534 -1.4288e+000 -5.5601e-001 -1.2320e-001 49277 80378,80456,80430
 1.0000e+001 81230 -1.7957e+000 -1.0708e+000  8.7720e-001 48716 81253,80835,80809
 1.0000e+001 81207 -1.0842e+000 -7.8500e-002 -3.1225e-001 48716 81397,81253,80809
 1.0000e+001 81184 -8.3285e-001  1.4001e+000 -2.6610e-001 48716 81325,80913,80887
 1.0000e+001 81161 -7.9438e-001 -9.2169e-001 -2.1419e-001 48716 81397,80809,81017
 1.0000e+001 81138 -1.5452e+000  7.8548e-001 -6.9765e-001 48716 81469,80965,80913
 1.0000e+001 81115 -8.3019e-001  3.9619e-001  1.3212e+000 48716 80835,80887,80861
 1.0000e+001 81092  9.8146e-002 -1.8123e+000  1.8206e+000 48716 80809,81043,81017
 1.0000e+001 81069 -1.5234e+000 -5.1085e-001 -1.6025e+000 48716 80913,80965,80939
 1.0000e+001 81279  7.7767e-001  4.4679e-001  1.9985e-001 48716 80887,80835,81253
 1.0000e+001 81302 -1.4527e+000  1.0288e+000 -5.8823e-001 48716 81325,80887,81253
 1.0000e+001 81351 -1.1148e+000  9.1271e-001 -5.2397e-001 48716 81469,80913,81325
 1.0000e+001 81374 -1.3461e+000  1.4629e+000 -5.5474e-001 48716 80991,81325,81253
 1.0000e+001 81423 -1.2025e+000  1.1136e+000  1.1053e-001 48716 80991,81253,81397
 1.0000e+001 81446 -1.0813e+000  4.7343e-002  2.4006e-001 48716 80991,81397,81017
 1.0000e+001 81495 -2.3209e+000  1.1129e+000 -8.3813e-001 48716 80991,80965,81469
 1.0000e+001 81518 -1.9905e+000  1.1431e+000 -6.8589e-001 48716 80991,81469,81325
 1.0000e+001 81717 -1.0272e-001 -1.0802e-002 -6.8972e-002 48262 81740,81567,81541
 1.0000e+001 81694  3.0134e-003  5.0672e-002 -9.6647e-002 48262 81740,81541,81645
 1.0000e+001 81671 -1.1044e-001 -2.3210e-001 -6.1338e-002 48262 81567,81619,81593
 1.0000e+001 81766 -4.3208e-002 -6.3817e-002  4.9502e-003 48262 81619,81567,81740
 1.0000e+001 81789  5.3643e-002 -1.3934e-002 -1.8666e-002 48262 81619,81740,81645
 1.0000e+001 81939  1.5689e+000  2.7859e+000 -5.2945e-001 47957 82034,81962,81864
 1.0000e+001 81916  5.9693e-001  2.0361e+000 -6.6859e-001 47957 82166,81962,81838
 1.0000e+001 81988  1.7820e+000  2.3877e+000  2.6253e-001 47957 82294,81962,81890
 1.0000e+001 82011  1.4424e+000  2.0608e+000  5.3328e-002 47957 81890,81962,81812
 1.0000e+001 82060  1.5212e+000  3.0461e+000 -2.8407e-001 47957 81838,81962,82034
 1.0000e+001 82192  2.0108e-001  1.9712e+000  4.1674e-001 47957 81812,81962,82166
 1.0000e+001 82320  2.4512e+000  2.3294e+000  1.5752e-003 47957 81864,81962,82294
 1.0000e+001 82549 -2.1942e-001 -1.7175e-001 -1.3237e-001 47617 82448,82500,82474
 1.0000e+001 82526  2.5281e-002  3.4502e-001 -3.7914e-002 47617 82422,82500,82448
 1.0000e+001 82902  5.1022e-001  1.1655e-001 -1.0770e-001 47255 82729,82807,82755
 1.0000e+001 82879  7.7890e-001  4.1440e-001  2.2199e-002 47255 82703,82807,82729
 1.0000e+001 82856  3.8091e-001  1.1294e-001  4.1453e-002 47255 82755,82807,82781
 1.0000e+001 82833  7.8945e-001  4.1877e-001  2.3247e-002 47255 82677,82807,82703
 1.0000e+001 83182  1.1185e-001 -8.2214e-001  3.7172e-001 46680 83032,83084,83058
 1.0000e+001 83159  5.2312e-001 -4.7874e-001  5.9814e-001 46680 83205,83084,83032
 1.0000e+001 83136 -4.9824e-001  1.7761e-002  4.6641e-001 46680 83006,83110,83084
 1.0000e+001 83231  9.9375e-001 -4.3428e-002  8.2588e-001 46680 83006,83084,83205
 1.0000e+001 83737 -1.8309e+000 -5.5777e-001  3.2185e-001 46290 83832,83760,83492
 1.0000e+001 83714 -1.8228e+000 -2.6445e-001  2.6835e-001 46290 83760,83440,83414
 1.0000e+001 83691 -1.4097e+000 -8.2163e-001  2.4500e-001 46290 83832,83492,83466
 1.0000e+001 83668 -1.5245e+000 -1.3931e+000  4.8144e-001 46290 83492,83570,83544
 1.0000e+001 83645 -2.4171e+000 -7.6041e-001  5.8013e-002 46290 83414,83596,83570
 1.0000e+001 83622 -1.3889e+000 -9.9353e-001  7.5017e-001 46290 83492,83544,83518
 1.0000e+001 83786 -1.7515e+000 -5.0710e-001  2.5526e-001 46290 83570,83492,83760
 1.0000e+001 83809 -1.8232e+000 -6.6609e-001  8.0279e-002 46290 83570,83760,83414
 1.0000e+001 83858 -1.2945e+000 -2.2963e-001  4.7723e-001 46290 83440,83760,83832
 1.0000e+001 83881 -5.7035e-001 -4.5925e-001  3.2178e-001 46290 83440,83832,83466
 1.0000e+001 84161  4.6960e-003 -5.2737e-001  9.3576e-003 45829 84011,84063,84037
 1.0000e+001 84138 -2.5803e-001 -5.2492e-001 -6.9941e-002 45829 84011,84089,84063
 1.0000e+001 84115 -3.8133e-002 -4.2717e-001 -4.4695e-004 45829 83985,84089,84011
 1.0000e+001 84311  7.9442e-001  1.0090e+000  1.2128e-001 45631 84184,84236,84210
 1.0000e+001 84288  4.4802e-001 -6.6089e-002 -1.0967e-002 45631 84184,84262,84236
 1.0000e+001 84657 -2.0423e-001 -2.9677e-001 -6.9734e-002 45155 84680,84490,84412
 1.0000e+001 84634 -2.5426e-001 -2.0136e-001 -3.3505e-002 45155 84680,84412,84360
 1.0000e+001 84611 -3.3713e-001 -3.9264e-001  4.4559e-002 45155 84412,84490,84438
 1.0000e+001 84588 -4.3319e-002 -1.3354e-002 -6.6312e-002 45155 84334,84516,84360
 1.0000e+001 84565 -2.0780e-001 -6.7292e-002 -3.4047e-001 45155 84360,84412,84386
 1.0000e+001 84542 -2.9815e-001 -4.3014e-001  1.8004e-002 45155 84438,84490,84464
 1.0000e+001 84706 -2.0800e-001 -2.0534e-001 -8.9547e-002 45155 84516,84490,84680
 1.0000e+001 84729 -2.4898e-001 -1.0116e-001 -6.7492e-002 45155 84516,84680,84360
 1.0000e+001 85077 -8.9816e-002 -4.6066e-001 -2.3466e-001 44508 85100,84754,84910
 1.0000e+001 85054 -1.7679e-001  9.3144e-003 -8.8052e-002 44508 84754,84936,84910
 1.0000e+001 85031 -4.9345e-001 -8.2764e-001  8.9685e-002 44508 85100,84910,84884
 1.0000e+001 85008 -3.9037e-001 -5.3847e-002 -4.2919e-001 44508 84780,84884,84832
 1.0000e+001 84985 -4.3086e-001 -1.4831e-001 -4.2661e-001 44508 84780,84832,84806
 1.0000e+001 84962 -1.1515e+000 -8.3599e-001 -5.5833e-002 44508 84832,84884,84858
 1.0000e+001 85126 -4.1987e-001  7.4817e-002 -5.3056e-001 44508 84780,84754,85100
 1.0000e+001 85149 -7.2605e-001 -2.8620e-001 -2.3525e-001 44508 84780,85100,84884
 1.0000e+001 85482  8.2944e-002 -1.1214e-001 -1.1012e-001 44104 85335,85387,85361
 1.0000e+001 85459  3.1562e-002 -3.7010e-001 -5.6793e-002 44104 85309,85387,85335
 1.0000e+001 85436 -3.1351e-002 -2.7636e-001 -1.5679e-001 44104 85257,85387,85309
 1.0000e+001 85413 -1.1012e-001 -1.0498e-001 -2.6121e-002 44104 85257,85309,85283
 1.0000e+001 85811 -2.8325e-001 -3.4541e-001 -1.5124e-001 43600 85586,85664,85612
 1.0000e+001 85788 -2.4374e-001 -8.5807e-002 -1.0549e-001 43600 85586,85690,85664
 1.0000e+001 85765 -1.3108e-001  1.3003e-001 -2.0848e-001 43600 85586,85716,85690
 1.0000e+001 85742 -3.2103e-001 -2.9042e-001 -2.6836e-001 43600 85612,85664,85638
 1.0000e+001 86010  2.1012e-001  5.4577e-002 -2.0333e-001 43224 85886,85938,85912
 1.0000e+001 85987  2.2361e-001  2.6801e-002 -1.7312e-001 43224 85834,85938,85886
 1.0000e+001 85964  1.8753e-001 -7.1625e-001 -1.3127e-001 43224 85834,85886,85860
 1.0000e+001 86420  2.5145e+000  1.0574e+000  1.4178e-003 42820 86195,86299,86221
 1.0000e+001 86397  2.3656e+000  2.1140e+000 -8.2172e-001 42820 86195,86325,86299
 1.0000e+001 86374  1.6594e+000  1.3568e+000  3.9905e-001 42820 86221,86299,86273
 1.0000e+001 86351  1.2441e+000  9.9587e-001 -1.1171e-002 42820 86221,86273,86247
 1.0000e+001 86749  5.1773e-001 -4.0442e-001 -1.2019e-001 42223 86550,86602,86576
 1.0000e+001 86726  2.1093e+000 -1.0326e+000  1.7099e-001 42223 86550,86628,86602
 1.0000e+001 86703  5.5946e-001 -1.4924e+000  8.9449e-001 42223 86524,86628,86550
 1.0000e+001 86680  1.4963e+000  4.9961e-001  6.0848e-001 42223 86524,86654,86628
 1.0000e+001 87078  6.4424e-001 -2.7786e-001  2.5168e-001 41883 87173,87101,86905
 1.0000e+001 87055  4.9256e-001  8.6266e-001  9.7969e-002 41883 87101,86879,86853
 1.0000e+001 87032  9.8317e-002  1.5013e-001 -6.5104e-002 41883 86853,86983,86931
 1.0000e+001 87009  1.3049e-001  3.9277e-001 -1.8542e-001 41883 86931,86983,86957
 1.0000e+001 87127  1.0268e+000  3.4979e-001 -1.6147e-001 41883 86931,86905,87101
 1.0000e+001 87150  9.5879e-002 -4.8959e-002 -6.4377e-002 41883 86931,87101,86853
 1.0000e+001 87199  2.3860e-001  1.3217e-001  3.5989e-001 41883 86879,87101,87173
 1.0000e+001 87558 -6.2078e-002  7.9298e-001 -2.8150e-001 41471 87382,87460,87408
 1.0000e+001 87535 -1.3665e+000  8.4080e-001 -1.4278e-001 41471 87382,87486,87460
 1.0000e+001 87512  2.2160e-001  8.9543e-002 -1.2982e-001 41471 87408,87460,87434
 1.0000e+001 87806  1.2129e-001  9.2604e-002 -4.5599e-001 41017 87829,87607,87581
 1.0000e+001 87783  1.0790e-001 -2.2019e-001 -9.9533e-002 41017 87829,87581,87685
 1.0000e+001 87760  4.3585e-001 -3.9641e-002 -2.0917e-001 41017 87581,87711,87685
 1.0000e+001 87737  2.5820e-001 -7.8512e-001 -2.5074e-002 41017 87633,87685,87659
 1.0000e+001 87855 -1.0023e-001 -8.8794e-002 -2.4380e-001 41017 87633,87607,87829
 1.0000e+001 87878 -1.9267e-001 -4.4298e-001  1.2258e-001 41017 87633,87829,87685
 1.0000e+001 88258  1.0387e-002  4.4680e-003 -7.0821e-003 40613 88281,88036,88010
 1.0000e+001 88235 -8.9551e-004  2.8125e-003 -2.4564e-003 40613 88281,88010,88088
 1.0000e+001 88212 -2.5792e-003  9.2800e-004 -1.4089e-003 40613 87984,88088,88010
 1.0000e+001 88189 -2.7669e-003  2.7052e-005  9.7465e-004 40613 87984,88114,88088
 1.0000e+001 88166 -1.4927e-003 -3.8493e-004  7.5241e-004 40613 87984,88140,88114
 1.0000e+001 88307 -3.8110e-004  8.1182e-003 -1.8548e-003 40613 88062,88036,88281
 1.0000e+001 88330 -1.7804e-002 -1.2290e-003  5.0717e-003 40613 88062,88281,88088
 1.0000e+001 88649 -7.1048e-003 -4.4267e-003 -5.0698e-004 40095 88375,88505,88401
 1.0000e+001 88626 -2.4799e-003 -3.5416e-003 -8.3638e-004 40095 88375,88531,88505
 1.0000e+001 88603 -1.2032e-002 -2.6844e-003  8.1757e-004 40095 88401,88505,88479
 1.0000e+001 88580 -2.8794e-002 -6.2874e-003  1.5228e-002 40095 88427,88479,88453
 1.0000e+001 88557 -9.5581e-003  6.8494e-003 -9.3054e-004 40095 88401,88479,88427
 1.0000e+001 89078  8.1940e-001 -1.1857e+000 -5.8591e-001 39897 89101,88833,88807
 1.0000e+001 89055  1.7562e-001 -1.4915e+000 -7.0004e-001 39897 89101,88807,88911
 1.0000e+001 89032 -5.4550e-001 -1.0780e+000 -1.2358e+000 39897 88781,88911,88807
 1.0000e+001 89009 -1.1512e+000 -1.5429e+000 -1.5617e+000 39897 88781,88937,88911
 1.0000e+001 88986  2.7092e+000  3.5640e-001 -4.7678e-001 39897 88833,88885,88859
 1.0000e+001 88963 -1.5112e+000 -1.1534e+000 -1.8029e+000 39897 88755,88937,88781
 1.0000e+001 89127  1.4080e+000 -1.6187e+000 -1.1865e+000 39897 88885,88833,89101
 1.0000e+001 89150  3.9330e-001 -2.1473e+000 -1.4082e+000 39897 88885,89101,88911
 1.0000e+001 89300 -1.6274e+000 -1.5249e+000  6.2150e-001 39607 89453,89323,89199
 1.0000e+001 89277 -2.3971e+000 -9.4720e-001  4.8856e-001 39607 89525,89453,89199
 1.0000e+001 89349 -1.1942e+000 -1.4084e+000  6.0749e-003 39607 89225,89199,89323
 1.0000e+001 89479 -1.2374e+000 -6.2605e-001  4.2875e-001 39607 89251,89323,89453
 1.0000e+001 89502 -1.2725e+000 -7.6156e-002  1.0734e+000 39607 89251,89453,89173
 1.0000e+001 89551 -1.0375e+000 -5.9616e-001  6.3828e-001 39607 89173,89453,89525
 1.0000e+001 90264 -1.1118e+000 -1.7027e+000 -3.6361e-001 39039 89996,90074,90048
 1.0000e+001 90241 -6.8978e-001 -8.1329e-001 -2.1952e-001 39039 89918,90074,89996
 1.0000e+001 90218 -1.1130e+000 -1.0354e+000  1.7078e-004 39039 89918,89996,89944
 1.0000e+001 90195 -1.4188e+000 -9.4437e-001  2.8597e-002 39039 89892,90074,89918
 1.0000e+001 90172 -2.1527e-001 -1.6358e+000 -4.1504e-001 39039 89996,90048,90022
 1.0000e+001 90149 -1.9998e+000  7.8043e-001 -9.3505e-002 39039 89892,90100,90074
 1.0000e+001 90126 -1.3064e+000 -1.1110e+000 -1.3650e-001 39039 89944,89996,89970
 1.0000e+001 90770 -4.0346e-001 -4.7726e-001 -7.2937e-002 38635 90473,90603,90577
 1.0000e+001 90747 -2.5935e-001 -4.4868e-001 -8.4281e-003 38635 90447,90603,90473
 1.0000e+001 90724 -3.8405e-001 -6.4003e-001 -7.7269e-002 38635 90499,90577,90551
 1.0000e+001 90701 -3.7820e-001 -6.4355e-001 -6.7522e-002 38635 90473,90577,90499
 1.0000e+001 90678 -2.9836e-001 -7.8887e-001 -8.7606e-002 38635 90499,90551,90525
 1.0000e+001 90655 -3.8031e-001 -3.5327e-001  3.0298e-002 38635 90447,90629,90603
 1.0000e+001 90871 -1.2299e-001 -3.1270e-001 -1.4960e-001 38231 90793,90845,90819
 1.0000e+001 91458  1.9959e-001 -2.1083e-001 -9.3869e-002 37534 91161,91317,91291
 1.0000e+001 91435  4.9328e-002  6.9504e-003  6.2042e-002 37534 91135,91317,91161
 1.0000e+001 91412 -2.1602e-001 -9.4580e-001 -4.6262e-001 37534 91187,91291,91239
 1.0000e+001 91389  3.0335e-002 -9.6510e-001  4.9703e-002 37534 91161,91291,91187
 1.0000e+001 91366  5.5952e-002 -5.9307e-001 -3.2626e-001 37534 91239,91291,91265
 1.0000e+001 91343  6.7119e-001 -9.4214e-001 -8.4369e-001 37534 91187,91239,91213
 1.0000e+001 91915 -6.5506e-001 -6.6114e-001  2.8225e-002 37080 91938,91745,91667
 1.0000e+001 91892 -6.4030e-001 -5.6784e-001  1.5610e-001 37080 91938,91667,91797
 1.0000e+001 91869 -8.8198e-001  1.7839e-001 -1.4738e-001 37080 91641,91797,91667
 1.0000e+001 91846 -8.0157e-001 -7.4682e-001  1.0078e-001 37080 91667,91719,91693
 1.0000e+001 91823 -7.6834e-001 -6.9293e-001  4.3412e-002 37080 91667,91745,91719
 1.0000e+001 91964 -5.6443e-001 -4.4747e-001  2.2778e-002 37080 91771,91745,91938
 1.0000e+001 91987 -6.1359e-001 -4.9774e-001  1.5695e-001 37080 91771,91938,91797
 1.0000e+001 92235 -4.5337e-001 -5.2011e-001 -3.2777e-002 36397 92036,92088,92062
 1.0000e+001 92212 -3.3375e-001 -3.8601e-001 -8.3919e-002 36397 92036,92114,92088
 1.0000e+001 92189 -1.8562e-001 -2.7448e-001 -3.7743e-003 36397 92036,92140,92114
 1.0000e+001 92166 -2.7696e-001 -1.9494e-001  3.8809e-003 36397 92010,92140,92036
 1.0000e+001 92694 -1.5397e-001 -5.4726e-003  2.9101e-002 36057 92446,92498,92472
 1.0000e+001 92671 -5.7565e-002  1.7943e-001  7.0516e-002 36057 92446,92550,92498
 1.0000e+001 92648  8.9011e-002 -6.2184e-002  4.9427e-002 36057 92446,92576,92550
 1.0000e+001 92625  2.9013e-002 -8.5508e-002  4.9610e-002 36057 92420,92576,92446
 1.0000e+001 92602 -1.1459e-001 -6.6526e-002 -1.8426e-001 36057 92498,92550,92524
 1.0000e+001 93023 -4.9589e-001 -4.3557e-001 -1.1226e-001 35717 92876,92928,92902
 1.0000e+001 93000 -4.4355e-001 -4.6590e-001 -1.2354e-001 35717 92824,92928,92876
 1.0000e+001 92977 -2.1467e-001 -4.3924e-001 -7.3589e-002 35717 92798,92928,92824
 1.0000e+001 92954 -3.7433e-001 -5.5253e-001 -4.8236e-001 35717 92824,92876,92850
 1.0000e+001 93499  1.5719e-001 -6.0435e-001  3.2790e-001 35405 93522,93309,93257
 1.0000e+001 93476  3.4412e-001 -3.7462e-001  2.4674e-001 35405 93666,93522,93257
 1.0000e+001 93453  2.1396e-001 -2.0849e+000  3.2425e-001 35405 93594,93127,93335
 1.0000e+001 93430  4.3157e-002 -3.0011e-001  7.0388e-002 35405 93666,93257,93231
 1.0000e+001 93407 -6.6021e-001 -2.5596e+000 -5.5933e-001 35405 93127,93179,93153
 1.0000e+001 93384 -1.0544e+000  1.1907e-001  4.2445e-001 35405 93179,93231,93205
 1.0000e+001 93361  5.5502e-001  7.4887e-001  2.1521e-001 35405 93257,93309,93283
 1.0000e+001 93548  8.3949e-001 -1.2444e-001  8.4459e-001 35405 93335,93309,93522
 1.0000e+001 93571  3.8351e-001 -1.0422e+000  5.1564e-001 35405 93594,93335,93522
 1.0000e+001 93620  2.2324e-001 -9.6670e-001  2.0366e-001 35405 93179,93127,93594
 1.0000e+001 93643 -2.9600e-002 -5.1087e-001  2.0319e-001 35405 93738,93594,93522
 1.0000e+001 93692  5.2525e-002 -5.3014e-001  1.2976e-001 35405 93738,93522,93666
 1.0000e+001 93715 -1.6136e-001 -5.4257e-001 -4.9810e-002 35405 93179,93666,93231
 1.0000e+001 93764 -7.5840e-002 -6.0672e-001  2.3997e-001 35405 93179,93594,93738
 1.0000e+001 93787 -3.7419e-002 -6.4453e-001  1.7434e-001 35405 93179,93738,93666
 1.0000e+001 94372  5.8231e-001 -1.7154e-002 -2.2733e-002 34951 94395,94127,94075
 1.0000e+001 94349  1.0361e+000 -8.1362e-002  1.3647e-001 34951 94395,94075,94231
 1.0000e+001 94326  2.1388e-001 -4.7146e-001  2.6331e-002 34951 94049,94231,94075
 1.0000e+001 94303 -2.7130e-001 -4.3879e-001  5.2973e-001 34951 94075,94127,94101
 1.0000e+001 94280  1.2953e+000  2.6390e-001  4.4038e-001 34951 94127,94205,94153
 1.0000e+001 94257  1.4522e+000  2.5472e-001  6.5153e-001 34951 94153,94205,94179
 1.0000e+001 94421  9.4600e-001 -1.2997e-001  2.4849e-001 34951 94205,94127,94395
 1.0000e+001 94444  1.7755e+000  4.2180e-002  3.8590e-001 34951 94205,94395,94231
 1.0000e+001 94692 -1.9549e-002  1.9045e-003  1.4712e-003 34397 94715,94519,94467
 1.0000e+001 94669 -1.8990e-002 -1.1982e-002 -1.0962e-003 34397 94715,94467,94597
 1.0000e+001 94646 -2.7929e-002 -1.7408e-002  5.6817e-003 34397 94545,94597,94571
 1.0000e+001 94623 -1.5397e-002  1.0326e-002  4.6970e-003 34397 94467,94519,94493
 1.0000e+001 94741 -1.0014e-002  4.6435e-002  8.2047e-003 34397 94545,94519,94715
 1.0000e+001 94764 -2.8020e-002  2.9303e-003  4.4440e-003 34397 94545,94715,94597
 1.0000e+001 94985 -5.9668e-002  1.0325e-003 -1.3992e-002 33985 94835,94913,94887
 1.0000e+001 94962 -5.8202e-002  1.7831e-003 -3.5336e-003 33985 94809,94913,94835
 1.0000e+001 94939  5.2781e-003  2.8087e-002 -2.7997e-002 33985 94835,94887,94861
 1.0000e+001 95186 -2.7760e-001 -4.3876e-001 -2.9880e-001 33645 95281,95209,95036
 1.0000e+001 95163  1.9012e-002 -6.4961e-001  5.2154e-002 33645 95209,95010,95088
 1.0000e+001 95140  2.6699e-001 -2.6887e-001 -6.5780e-002 33645 95010,95114,95088
 1.0000e+001 95235 -5.7591e-001 -4.9901e-001 -2.0422e-001 33645 95062,95036,95209
 1.0000e+001 95258 -4.0922e-001 -8.1596e-001  2.5468e-001 33645 95413,95209,95088
 1.0000e+001 95307 -1.3690e-001 -3.0415e-001 -3.5410e-001 33645 95010,95209,95281
 1.0000e+001 95439 -3.5537e-001 -6.7239e-001  2.0834e-001 33645 95062,95209,95413
 1.0000e+001 95766 -4.4178e-001  2.1870e-001 -5.8025e-001 33141 95789,95593,95567
 1.0000e+001 95743 -1.1071e-001 -5.7322e-002 -2.0409e-001 33141 95861,95789,95567
 1.0000e+001 95720 -1.4646e-001  2.3135e-002 -5.2897e-002 33141 95861,95567,95671
 1.0000e+001 95697 -1.4975e-001 -4.1124e-002 -7.3966e-002 33141 95541,95671,95567
 1.0000e+001 95815 -1.5242e-001  9.2579e-001 -5.1162e-001 33141 95619,95593,95789
 1.0000e+001 95838 -3.0896e-002  3.0843e-001 -2.1428e-001 33141 95619,95789,95645
 1.0000e+001 95887  9.9121e-003  2.1134e-001 -2.2853e-001 33141 95645,95789,95861
 1.0000e+001 95910 -3.9196e-002  2.8574e-001 -5.7326e-002 33141 95645,95861,95671
 1.0000e+001 96060 -5.4332e-001 -2.7709e-001 -3.2442e-001 32487 95959,96011,95985
 1.0000e+001 96037 -1.4573e-001 -2.2419e-001 -7.6611e-002 32487 95933,96011,95959
 1.0000e+001 96570 -2.4495e-001 -1.1329e-001  1.2086e-001 32033 96665,96593,96377
 1.0000e+001 96547 -3.9909e-001  1.5352e-001 -2.5029e-001 32033 96737,96593,96325
 1.0000e+001 96524 -2.8330e-001 -2.0290e-001  5.7898e-002 32033 96665,96377,96351
 1.0000e+001 96501 -4.1780e-001  2.9241e-001 -1.8964e-001 32033 96737,96325,96299
 1.0000e+001 96478 -3.5773e-001  3.0278e-001 -1.7832e-001 32033 96247,96429,96299
 1.0000e+001 96455 -7.6480e-001 -7.8464e-001 -1.4246e-001 32033 96247,96299,96273
 1.0000e+001 96619  2.4948e-002  6.2382e-002  7.5438e-002 32033 96809,96593,96403
 1.0000e+001 96642  2.4708e-001  6.5407e-001 -5.6476e-001 32033 96403,96593,96429
 1.0000e+001 96691 -8.3262e-002 -3.2921e-001  9.7312e-003 32033 96325,96593,96665
 1.0000e+001 96714 -2.2180e-001 -4.9527e-001 -7.7444e-002 32033 96325,96665,96351
 1.0000e+001 96763 -4.5899e-001  6.5851e-002 -3.1240e-001 32033 96429,96593,96737
 1.0000e+001 96786 -4.6410e-001  1.7155e-001 -2.3763e-001 32033 96429,96737,96299
 1.0000e+001 96835  9.8941e-003  2.1800e-002  5.5824e-002 32033 96377,96593,96809
 1.0000e+001 97064  3.4413e-003  1.8227e-002  2.1336e-002 31671 97087,96989,96963
 1.0000e+001 97041 -5.7666e-003  2.4347e-002 -6.4894e-003 31671 97087,96963,96937
 1.0000e+001 97113 -1.5240e-002  1.9502e-002  8.5908e-003 31671 97159,97087,97015
 1.0000e+001 97136 -1.7748e-002 -4.4158e-003 -5.8281e-003 31671 97015,97087,96937
 1.0000e+001 97185 -1.4613e-002 -1.6100e-002  1.3874e-002 31671 96989,97087,97159
 1.0000e+001 97563 -5.0244e-002  4.4404e-002 -3.1611e-003 31117 97586,97367,97341
 1.0000e+001 97540 -3.0855e-002  2.2512e-002 -2.5479e-002 31117 97658,97586,97341
 1.0000e+001 97517 -5.5455e-003 -6.8378e-003 -1.5495e-002 31117 97658,97341,97315
 1.0000e+001 97494 -7.1671e-002 -4.3540e-002 -5.4613e-004 31117 97289,97445,97315
 1.0000e+001 97471 -3.9959e-002 -7.3947e-003  1.4319e-002 31117 97367,97419,97393
 1.0000e+001 97612 -5.3172e-002 -2.4998e-002  6.5356e-003 31117 97419,97367,97586
 1.0000e+001 97635 -6.2451e-002  9.6868e-004 -3.1214e-002 31117 97419,97586,97445
 1.0000e+001 97684 -6.4519e-002 -6.1425e-003 -1.3093e-002 31117 97445,97586,97658
 1.0000e+001 97707 -3.6851e-002 -3.4657e-002 -3.7052e-003 31117 97445,97658,97315
 1.0000e+001 98215 -2.0125e-001  3.1991e-002 -2.6700e-001 30563 98238,97996,97944
 1.0000e+001 98192 -3.1381e-001  1.0974e-001 -2.5062e-001 30563 98310,98238,97944
 1.0000e+001 98169 -4.3089e-001 -2.0916e-001 -2.5812e-001 30563 98310,97944,97918
 1.0000e+001 98146 -1.5892e-001  2.3565e-002  5.2751e-002 30563 97892,98074,97918
 1.0000e+001 98123 -1.1063e-001  4.1996e-001 -2.6408e-001 30563 97996,98048,98022
 1.0000e+001 98100 -2.7637e-001  1.4951e-001 -4.8715e-001 30563 97944,97996,97970
 1.0000e+001 98264 -1.9715e-001  1.2121e-001 -2.6179e-001 30563 98048,97996,98238
 1.0000e+001 98287 -1.5963e-001  4.2215e-001  1.7717e-003 30563 98048,98238,98074
 1.0000e+001 98336 -3.4038e-001 -5.3620e-002 -3.1145e-002 30563 98074,98238,98310
 1.0000e+001 98359 -3.4749e-001 -1.4641e-001 -1.8443e-002 30563 98074,98310,97918
 1.0000e+001 98607 -7.4153e-001  2.0700e-001 -6.2680e-003 30073 98630,98460,98408
 1.0000e+001 98584 -1.0930e+000  1.8011e-001 -6.2152e-002 30073 98630,98408,98382
 1.0000e+001 98561 -3.1444e-001  3.6543e-001 -1.9724e-001 30073 98382,98512,98486
 1.0000e+001 98538 -5.4275e-001  1.1603e-001  1.6059e-001 30073 98408,98460,98434
 1.0000e+001 98656 -5.6160e-001  9.2107e-002 -7.5894e-002 30073 98486,98460,98630
 1.0000e+001 98679 -7.9722e-001  1.5685e-001 -1.2731e-001 30073 98486,98630,98382
 1.0000e+001 99157  3.1518e-001 -2.2056e-001  2.3223e-001 29669 99180,98837,98811
 1.0000e+001 99134  3.4666e-001 -7.2711e-002  2.5726e-001 29669 99324,99180,98811
 1.0000e+001 99111  4.5943e-001  4.3321e-001 -2.7120e-001 29669 99252,98863,98837
 1.0000e+001 99088  2.4538e-001 -3.6223e-001  3.5005e-001 29669 99324,98811,98993
 1.0000e+001 99065 -6.2173e-001  7.4083e-001  1.5865e-001 29669 98863,98941,98915
 1.0000e+001 99042 -1.3735e-001  6.4274e-001  3.1184e-001 29669 98863,98915,98889
 1.0000e+001 99019  1.9589e-003 -4.0242e-001  6.9304e-001 29669 98785,98993,98811
 1.0000e+001 99206  3.2800e-001 -1.9844e-001 -5.0155e-002 29669 99252,98837,99180
 1.0000e+001 99229 -1.9392e-002  2.1987e-001  1.6700e-001 29669 98941,99180,98967
 1.0000e+001 99278  1.1950e-001  9.1243e-001 -1.8905e-001 29669 98941,98863,99252
 1.0000e+001 99301  2.5388e-001  6.2707e-001  4.8120e-002 29669 98941,99252,99180
 1.0000e+001 99350  1.9966e-001  2.8869e-001  2.0424e-001 29669 98967,99180,99324
 1.0000e+001 99373  1.8974e-001  7.1344e-002  2.4984e-001 29669 98967,99324,98993
 1.0000e+001 99958  4.1008e-001  6.7282e-001  1.6419e-001 29051 99981,99765,99739
 1.0000e+001 99935  9.3536e-006  6.0204e-002 -1.3511e-002 29051 99981,99739,99661
 1.0000e+001 99912  5.0316e-001 -5.1003e-001 -3.3897e-001 29051 99765,99817,99791
 1.0000e+001 99889 -8.0246e-001 -4.9008e-001  5.2111e-001 29051 99635,99817,99661
 1.0000e+001 99866 -1.0156e+000 -1.2731e-002  7.2581e-001 29051 99661,99739,99687
 1.0000e+001 99843 -1.2699e+000  3.0485e-001  3.8001e-001 29051 99687,99739,99713
 1.0000e+001 100007  6.4011e-001  7.5253e-002  2.2208e-001 29051 99817,99765,99981
 1.0000e+001 100030  4.5804e-001 -2.0761e-001  1.4134e-001 29051 99817,99981,99661
 1.0000e+001 100278  8.5462e-001  5.3601e-001  1.0692e-001 28525 100445,100301,100131
 1.0000e+001 100255  3.1902e-001  4.6438e-001  3.8374e-002 28525 100373,100301,100079
 1.0000e+001 100232  3.1274e-001  4.0843e-002  1.1391e-001 28525 100373,100079,100053
 1.0000e+001 100209  6.6571e-001  7.5317e-001 -9.6125e-002 28525 100445,100131,100105
 1.0000e+001 100327  1.5954e+000  2.5835e-001  5.9209e-002 28525 100517,100301,100157
 1.0000e+001 100350  5.6173e-001  3.8402e-001 -2.5769e-001 28525 100157,100301,100183
 1.0000e+001 100399  2.5590e-001  2.9064e-002  2.5063e-001 28525 100183,100301,100373
 1.0000e+001 100422  3.4915e-001 -2.7325e-001  3.1865e-001 28525 100183,100373,100053
 1.0000e+001 100471  6.0170e-001  3.0618e-001 -1.0701e-001 28525 100079,100301,100445
 1.0000e+001 100494  1.3927e-001  2.8112e-001 -3.5306e-001 28525 100079,100445,100105
 1.0000e+001 100543  1.2944e+000  2.3049e-001 -5.8317e-002 28525 100131,100301,100517
 1.0000e+001 101209 -1.4921e+000  3.2729e-001  5.7961e-002 28185 100938,101016,100990
 1.0000e+001 101186 -1.5777e+000  2.9817e-003 -1.3901e-001 28185 100912,101016,100938
 1.0000e+001 101163 -5.1023e-001  3.4393e-001 -2.0512e-002 28185 100912,101068,101016
 1.0000e+001 101140 -1.9183e+000 -3.9408e-001 -3.9143e-001 28185 100886,101068,100912
 1.0000e+001 101117 -5.7597e-001  1.4685e-001 -1.1589e-002 28185 101016,101068,101042
 1.0000e+001 101094 -3.8601e+000 -4.4979e-001  9.1444e-002 28185 100938,100990,100964
 1.0000e+001 101408  1.2474e-001  5.4047e-002 -2.4701e-001 27781 101503,101431,101310
 1.0000e+001 101385 -2.2780e-001  5.3736e-001 -5.1137e-001 27781 101431,101258,101232
 1.0000e+001 101362  2.7355e-001 -9.3002e-003 -3.1521e-001 27781 101503,101310,101284
 1.0000e+001 101457  7.6596e-001  4.3561e-001 -4.1443e-001 27781 101336,101310,101431
 1.0000e+001 101480  2.3804e-001  8.1747e-001 -7.4504e-001 27781 101575,101431,101232
 1.0000e+001 101529  3.5200e-001  1.7423e-001 -4.6471e-001 27781 101258,101431,101503
 1.0000e+001 101552  1.7325e-001 -2.8282e-001 -2.8708e-001 27781 101705,101503,101284
 1.0000e+001 101601  2.9948e-001  8.5383e-001 -7.9037e-001 27781 101336,101431,101575
 1.0000e+001 101731 -4.9441e-002 -3.8689e-003 -4.3341e-001 27781 101258,101503,101705
 1.0000e+001 102237 -7.6886e-001 -2.2776e-001  5.8722e-002 27419 102476,102260,101992
 1.0000e+001 102214 -5.3821e-001 -3.4991e-001 -3.7748e-002 27419 102260,101940,101914
 1.0000e+001 102191 -8.1986e-001 -3.9859e-001  1.1373e-001 27419 102404,102332,102096
 1.0000e+001 102168 -7.1865e-001 -3.4998e-001  2.2854e-002 27419 102404,102096,102044
 1.0000e+001 102145 -7.1678e-001 -2.6726e-001  8.9121e-002 27419 102476,101992,101966
 1.0000e+001 102122 -4.6669e-001 -4.3385e-001  9.0979e-003 27419 102044,102096,102070
 1.0000e+001 102286 -1.0004e+000 -4.2735e-001  1.6453e-001 27419 102018,101992,102260
 1.0000e+001 102309 -7.7656e-001 -3.1277e-001  1.7264e-002 27419 102332,102018,102260
 1.0000e+001 102358 -8.4454e-001 -7.2352e-001  2.4197e-001 27419 101914,102096,102332
 1.0000e+001 102381 -7.2436e-001 -4.7759e-001  5.0491e-002 27419 101914,102332,102260
 1.0000e+001 102430 -6.2332e-001 -3.8356e-001 -9.6198e-003 27419 102018,102332,102404
 1.0000e+001 102453 -5.3970e-001 -3.0277e-001 -1.1042e-001 27419 102018,102404,102044
 1.0000e+001 102502 -6.5492e-001 -2.9266e-001  8.9541e-002 27419 101940,102260,102476
 1.0000e+001 102525 -1.8516e-001 -9.2501e-002  5.7324e-002 27419 101940,102476,101966
 1.0000e+001 103031 -1.3163e+000  1.1561e+000  9.2699e-001 26715 102708,102786,102760
 1.0000e+001 103008 -1.7039e-001 -3.9748e-001  1.6260e-001 26715 102708,102890,102786
 1.0000e+001 102985  1.1249e+000 -7.0963e-001  1.1297e-001 26715 102838,102890,102864
 1.0000e+001 102962  3.3259e-001  1.0073e+000  1.3952e-001 26715 102786,102890,102838
 1.0000e+001 102939  1.5845e+000  1.6215e+000  7.7973e-001 26715 102786,102838,102812
 1.0000e+001 102916 -2.0944e+000 -6.6719e-002  3.7369e-001 26715 102708,102760,102734
 1.0000e+001 103279 -3.6517e-002  2.2221e-002 -8.4877e-002 26303 103302,103158,103080
 1.0000e+001 103256  8.1392e-002 -8.1140e-002 -9.0440e-002 26303 103302,103080,103054
 1.0000e+001 103233  2.3309e-001  1.5490e-001 -3.1675e-002 26303 103080,103158,103106
 1.0000e+001 103210 -3.9529e-001 -3.0826e-002 -5.4133e-002 26303 103106,103158,103132
 1.0000e+001 103328 -2.3310e-001 -7.5379e-002 -4.1555e-002 26303 103184,103158,103302
 1.0000e+001 103351 -7.4469e-003 -9.5292e-002 -6.9295e-002 26303 103184,103302,103054
 1.0000e+001 103501 -9.5680e-001 -1.2470e-001  5.7411e-002 25849 103374,103426,103400
 1.0000e+001 103478 -8.4922e-001 -3.9627e-001  4.3026e-003 25849 103374,103452,103426
 1.0000e+001 104090 -7.2734e-002  1.9374e-001  1.2019e-001 25445 103793,103871,103819
 1.0000e+001 104067  1.9295e-001  9.6547e-002  7.8236e-003 25445 103793,103949,103871
 1.0000e+001 104044  2.6476e-001  2.7676e-001  1.0184e-002 25445 103871,103949,103923
 1.0000e+001 104021 -7.1330e-002  2.6620e-001 -9.2031e-003 25445 103819,103871,103845
 1.0000e+001 103998  1.2038e-001  1.6948e-001  2.0082e-001 25445 103767,103949,103793
 1.0000e+001 103975  3.8419e-001  1.9532e-001 -1.2501e-003 25445 103871,103923,103897
 1.0000e+001 104419 -3.6472e-001 -9.6734e-002 -1.2168e-001 25083 104220,104298,104272
 1.0000e+001 104396 -6.9061e-001 -4.1387e-001  6.8465e-003 25083 104220,104324,104298
 1.0000e+001 104373 -2.7875e-001 -1.8129e-001 -2.6110e-002 25083 104220,104272,104246
 1.0000e+001 104350 -6.8885e-001 -3.4560e-001  2.7566e-002 25083 104194,104324,104220
 1.0000e+001 105102  4.0685e-002 -1.6929e-001 -1.0760e-001 24793 104785,104863,104837
 1.0000e+001 105079 -2.3386e-002 -4.5864e-001 -2.7319e-001 24793 104759,104863,104785
 1.0000e+001 105056 -9.5881e-002 -7.3939e-002 -2.8573e-001 24793 104759,104915,104863
 1.0000e+001 105033 -1.9096e-001 -1.0793e-001 -2.1827e-001 24793 104733,104915,104759
 1.0000e+001 105010  5.6357e-002 -2.2147e-002 -2.2315e-001 24793 104863,104915,104889
 1.0000e+001 104987 -3.1513e-001 -1.8659e-002 -3.0893e-001 24793 104681,104915,104733
 1.0000e+001 104964 -4.4344e-002 -2.7775e-001 -1.4758e-001 24793 104785,104837,104811
 1.0000e+001 104941 -1.9370e-001  2.6185e-001 -3.4068e-001 24793 104681,104733,104707
 1.0000e+001 105252  8.5794e-001  1.0849e+000 -6.8568e-002 24389 105477,105275,105177
 1.0000e+001 105229  7.7615e-001  1.0852e+000 -6.4250e-002 24389 105347,105275,105151
 1.0000e+001 105301  9.0834e-001  9.4683e-001 -9.7832e-002 24389 105203,105177,105275
 1.0000e+001 105324  9.4891e-001  1.0272e+000 -5.8699e-002 24389 105203,105275,105125
 1.0000e+001 105373  8.4089e-001  7.2042e-001 -6.1481e-003 24389 105125,105275,105347
 1.0000e+001 105503  1.0081e+000  1.2700e+000  4.0830e-002 24389 105151,105275,105477
 1.0000e+001 106088 -5.9184e-001  5.2022e-001  6.7711e-001 23735 105791,105921,105895
 1.0000e+001 106065 -1.9959e+000 -3.3259e-002  6.8237e-001 23735 105765,105921,105791
 1.0000e+001 106042 -4.0535e-001  6.3808e-001  3.7015e-001 23735 105765,105947,105921
 1.0000e+001 106019 -2.2989e+000  4.3921e-002  9.1157e-001 23735 105817,105895,105869
 1.0000e+001 105996 -1.4186e+000  2.8100e-001  8.1138e-001 23735 105791,105895,105817
 1.0000e+001 105973 -1.1369e+000  2.1437e-001  7.4082e-001 23735 105817,105869,105843
 1.0000e+001 106417  6.7828e-001  2.0110e+000 -4.3478e-001 23295 106218,106296,106270
 1.0000e+001 106394  2.3060e-001  6.5749e-001 -3.1245e-001 23295 106218,106322,106296
 1.0000e+001 106371  2.9145e-002  4.6306e-001 -3.9844e-001 23295 106218,106270,106244
 1.0000e+001 106348  4.5687e-001  7.5404e-001 -1.2485e-001 23295 106192,106322,106218
 1.0000e+001 106746  9.8684e-002  6.9329e-001  1.4324e-001 23005 106521,106599,106547
 1.0000e+001 106723  5.5855e-001  8.2152e-001  2.1659e-002 23005 106521,106651,106599
 1.0000e+001 106700  3.6713e-001  6.8887e-001  3.2200e-002 23005 106547,106599,106573
 1.0000e+001 106677  7.0961e-001  7.8715e-001  3.9671e-001 23005 106599,106651,106625
 1.0000e+001 107331 -3.7824e-001  1.2579e-001 -1.4497e-001 22601 107060,107190,107138
 1.0000e+001 107308 -1.3528e+000 -7.9885e-002 -4.8193e-001 22601 107034,107190,107060
 1.0000e+001 107285 -1.2687e+000 -2.8526e-001 -4.1076e-001 22601 107060,107138,107112
 1.0000e+001 107262 -1.9121e+000 -3.6543e-001 -6.1096e-001 22601 107008,107190,107034
 1.0000e+001 107239 -1.5520e+000  7.7253e-001 -6.6768e-001 22601 107060,107112,107086
 1.0000e+001 107216 -3.8024e-001  1.4887e-002 -1.6061e-001 22601 107138,107190,107164
 1.0000e+001 107807 -5.5573e-001  1.1404e-001 -1.0116e-001 22031 107974,107902,107617
 1.0000e+001 107784 -6.8504e-001  3.7344e-001 -2.5288e-001 22031 107830,107565,107513
 1.0000e+001 107761 -4.4967e-001  6.7462e-002 -2.8394e-001 22031 108046,107830,107513
 1.0000e+001 107738 -4.3023e-001  3.2866e-001  2.1793e-002 22031 107974,107617,107591
 1.0000e+001 107715 -4.8995e-001 -7.1477e-002 -2.4439e-001 22031 108046,107513,107461
 1.0000e+001 107692 -1.6742e+000  5.9263e-001 -4.5934e-001 22031 107513,107565,107539
 1.0000e+001 107669 -2.6475e-001  2.0839e-001 -3.7339e-001 22031 107461,107513,107487
 1.0000e+001 107856 -8.0771e-001  2.4184e-001 -1.7122e-001 22031 107902,107565,107830
 1.0000e+001 107879 -5.4011e-001 -1.1493e-001 -1.4881e-002 22031 107643,107830,107435
 1.0000e+001 107928 -1.1041e+000  4.8995e-001 -4.8886e-001 22031 107643,107617,107902
 1.0000e+001 107951 -7.7723e-001  2.1879e-001  2.9612e-002 22031 107643,107902,107830
 1.0000e+001 108000 -7.1402e-001  4.1832e-001 -1.2412e-001 22031 107565,107902,107974
 1.0000e+001 108023 -6.8801e-001  3.4912e-001 -9.3904e-002 22031 107565,107974,107591
 1.0000e+001 108072 -4.0955e-001 -1.1216e-001 -9.2248e-002 22031 107435,107830,108046
 1.0000e+001 108095 -4.9784e-001 -3.3268e-001 -5.1622e-002 22031 107435,108046,107461
 1.0000e+001 108196 -1.0272e-001 -7.7818e-002 -1.7152e-001 21783 108118,108170,108144
 1.0000e+001 108655  1.5703e-001  9.0007e-001  5.3012e-001 21379 108407,108485,108459
 1.0000e+001 108632  1.7996e+000 -4.5100e-002  7.4570e-001 21379 108407,108511,108485
 1.0000e+001 108609  1.8595e+000 -2.5343e-001  4.7920e-001 21379 108381,108511,108407
 1.0000e+001 108586  7.2007e-001  4.1324e-001 -5.3121e-001 21379 108381,108537,108511
 1.0000e+001 108563  4.7682e-001  1.2228e-001  2.4123e-001 21379 108407,108459,108433
 1.0000e+001 109082  3.1885e-001  6.3123e-001 -5.9289e-002 20974 109105,108863,108811
 1.0000e+001 109059  1.9550e-001  5.6535e-001  2.2368e-002 20974 109105,108811,108759
 1.0000e+001 109036  5.4101e-002  2.9323e+000 -1.2704e+000 20974 109177,108889,108863
 1.0000e+001 109013  3.0855e-001  4.0774e-001 -3.3223e-002 20974 108811,108863,108837
 1.0000e+001 108990 -4.6552e-001 -2.3633e-001 -1.8217e-001 20974 108759,108941,108915
 1.0000e+001 108967 -1.0719e-001 -4.3846e-001  4.8344e-002 20974 108759,108811,108785
 1.0000e+001 109131  9.8174e-001  1.8935e+000 -5.5984e-001 20974 109177,108863,109105
 1.0000e+001 109154  2.0913e-001 -2.8371e-001 -8.2177e-002 20974 108915,109105,108759
 1.0000e+001 109203 -6.9274e-001  2.0672e+000 -4.4912e-001 20974 108915,108889,109177
 1.0000e+001 109226 -3.1104e-001  7.6974e-002  2.7681e-001 20974 108915,109177,109105
 1.0000e+001 109496 -8.0892e-001  1.1619e-001 -6.6439e-002 20470 109271,109375,109297
 1.0000e+001 109473 -7.5434e-001  2.3044e-001 -1.2363e-001 20470 109271,109401,109375
 1.0000e+001 109450 -9.5646e-001 -9.8802e-002 -1.4088e-001 20470 109297,109375,109349
 1.0000e+001 109427 -1.3114e+000 -8.2661e-001  2.5863e-001 20470 109297,109349,109323
 1.0000e+001 109955  2.1955e-001  1.7041e+000  9.7566e-001 20123 110050,109733,109707
 1.0000e+001 109932 -7.0992e-001  8.0628e-001  5.3017e-001 20123 110050,109707,109681
 1.0000e+001 109909  1.9489e-001  4.8631e-001  6.2835e-001 20123 109978,109759,109733
 1.0000e+001 109886 -1.6369e-001  3.2169e-001  5.5956e-001 20123 110122,109978,109733
 1.0000e+001 109863  2.9873e-001  2.6192e-001  2.8526e-001 20123 109785,109837,109811
 1.0000e+001 110004  1.4880e-001  4.6061e-001  4.3597e-001 20123 109785,109759,109978
 1.0000e+001 110027  7.6763e-003  3.3762e-001  3.0835e-001 20123 109785,109978,109837
 1.0000e+001 110076 -3.4559e-001  5.9422e-001  4.4569e-001 20123 110122,109733,110050
 1.0000e+001 110099 -3.0558e-001  4.9080e-001  1.0251e-001 20123 109837,110050,109681
 1.0000e+001 110148  1.8791e-001  7.1250e-001  4.0161e-001 20123 109837,109978,110122
 1.0000e+001 110171  1.9668e-002  9.4444e-001  2.8269e-001 20123 109837,110122,110050
 1.0000e+001 110500  1.1184e+000  3.3519e-001 -2.6324e-001 19511 110301,110379,110353
 1.0000e+001 110477  1.6526e+000  9.3608e-001 -4.9209e-001 19511 110301,110405,110379
 1.0000e+001 110454  4.2130e-001  3.3483e-001 -2.7040e-001 19511 110275,110405,110301
 1.0000e+001 110431  9.6758e-001  4.6475e-001  4.4803e-001 19511 110301,110353,110327
 1.0000e+001 110957  3.0389e-001  1.1918e+000 -6.8486e-001 19107 110683,110735,110709
 1.0000e+001 110934  1.6974e-001 -2.1398e-001 -9.6204e-001 19107 110683,110813,110735
 1.0000e+001 110911  4.7954e-001  7.1018e-001 -8.9607e-001 19107 110735,110813,110761
 1.0000e+001 110888 -6.3599e-001 -6.6482e-001 -7.3585e-001 19107 110683,110839,110813
 1.0000e+001 110865  2.2869e-001  1.2111e-001 -8.8633e-001 19107 110761,110813,110787
 1.0000e+001 111335 -1.9635e-001 -3.5085e-001 -1.2686e-001 18653 111087,111165,111139
 1.0000e+001 111312 -5.5825e-002 -1.3220e-001 -2.0584e-001 18653 111087,111217,111165
 1.0000e+001 111289 -2.0858e-001 -2.2263e-001 -3.4663e-002 18653 111061,111217,111087
 1.0000e+001 111266 -4.8664e-002 -1.7542e-001 -5.2063e-003 18653 111087,111139,111113
 1.0000e+001 111243 -7.0638e-002 -1.9627e-001 -1.6577e-001 18653 111165,111217,111191
 1.0000e+001 111735 -1.1284e+000 -3.8623e-001 -4.9745e-002 18213 111461,111513,111487
 1.0000e+001 111712 -1.2659e+000 -8.1173e-001  1.6643e-002 18213 111461,111617,111513
 1.0000e+001 111689 -1.2084e+000 -7.2123e-001 -1.6839e-001 18213 111513,111617,111591
 1.0000e+001 111666 -5.4981e-001 -3.3319e-001  6.9280e-002 18213 111513,111591,111539
 1.0000e+001 111643 -3.1089e-001 -3.7523e-001  2.2966e-003 18213 111539,111591,111565
 1.0000e+001 111885  6.2873e-001 -5.3760e-001  2.1809e-001 17659 111784,111836,111810
 1.0000e+001 111862  1.5109e+000  2.5739e-001  5.6102e-001 17659 111758,111836,111784
 1.0000e+001 112287  1.0600e-001  5.3239e-001 -1.9075e-001 17411 112065,112169,112143
 1.0000e+001 112264 -1.0661e+000 -5.2705e-002  2.0729e-001 17411 112039,112169,112065
 1.0000e+001 112241 -1.2470e+000  2.0659e-001 -4.7476e-001 17411 112013,112169,112039
 1.0000e+001 112218  3.3039e+000  7.9731e-001 -7.2512e-001 17411 112091,112143,112117
 1.0000e+001 112195 -3.1257e-002 -1.5615e-001  1.4963e-001 17411 112065,112143,112091
 1.0000e+001 112508 -8.0479e-001  4.9075e-001  9.0020e-002 17007 112384,112436,112410
 1.0000e+001 112485 -6.1950e-001  6.6745e-001  1.6626e-001 17007 112332,112436,112384
 1.0000e+001 112462 -7.9410e-001  3.2647e-001  1.0457e-001 17007 112332,112384,112358
 1.0000e+001 112658 -1.9855e+000 -4.4129e-001  3.2549e-001 16553 112557,112609,112583
 1.0000e+001 112635 -1.9867e+000 -2.8703e-001  3.8155e-001 16553 112531,112609,112557
 1.0000e+001 112761  5.5575e-003  4.9588e-001 -7.6572e-002 16355 112683,112735,112709
 1.0000e+001 112913 -1.2675e+000  6.4250e-001  7.3654e-002 15949 112786,112838,112812
 1.0000e+001 112890 -6.3149e-001  1.7327e+000 -2.2946e-001 15949 112786,112864,112838
 1.0000e+001 113065  1.6992e-001  3.1496e-002 -1.9564e-002 15609 112938,112990,112964
 1.0000e+001 113042  2.6674e-001  3.8165e-002 -2.0422e-002 15609 112938,113016,112990
 1.0000e+001 113420  7.5173e-001  6.9686e-001  2.5384e-001 15284 113247,113325,113299
 1.0000e+001 113397  7.0732e-001  5.8802e-001  1.5404e-001 15284 113195,113325,113247
 1.0000e+001 113374  5.6501e-001  5.5829e-001  1.0270e-001 15284 113195,113247,113221
 1.0000e+001 113351  7.4626e-001  1.1862e+000  3.0344e-001 15284 113247,113299,113273
 1.0000e+001 113521 -1.5613e+000 -2.1902e+000  1.3617e+000 202 113443,113495,113469
 1.0500e+001 65564  4.9808e-004 -2.2528e-002  1.9114e-002 65155 65414,65466,65440
 1.0500e+001 65541  2.3627e-002 -3.2864e-002 -2.3485e-003 65155 65414,65492,65466
 1.0500e+001 65518  4.7087e-003 -5.5114e-002  2.9215e-002 65155 65388,65492,65414
 1.0500e+001 65883 -8.1199e-002 -1.8485e-003 -2.0053e-003 64957 65635,65739,65713
 1.0500e+001 65860  4.2142e-002  2.7724e-001 -4.1928e-002 64957 65635,65765,65739
 1.0500e+001 65837  1.0285e-002  2.5617e-001 -2.6325e-002 64957 65609,65765,65635
 1.0500e+001 65814 -2.6037e-002  1.6695e-001 -8.9309e-002 64957 65635,65713,65687
 1.0500e+001 65791  1.1543e-002  2.1234e-001 -6.6291e-002 64957 65635,65687,65661
 1.0500e+001 65984 -3.7023e-002 -1.1300e-001  7.7894e-002 64781 65906,65958,65932
 1.0500e+001 66232 -5.7460e-002 -7.1749e-002  3.5112e-002 64469 66007,66059,66033
 1.0500e+001 66209 -1.0503e-001 -3.7963e-002  3.6736e-002 64469 66007,66085,66059
 1.0500e+001 66186 -1.6379e-001 -1.5484e-001  1.2583e-001 64469 66007,66137,66085
 1.0500e+001 66163 -2.4684e-001 -2.3322e-001 -1.2119e-003 64469 66085,66137,66111
 1.0500e+001 66504  2.7227e-002  3.1664e-001 -3.3328e-002 64271 66279,66383,66305
 1.0500e+001 66481 -4.8125e-002  3.4042e-001  4.8285e-002 64271 66279,66409,66383
 1.0500e+001 66458 -3.4854e-002  3.3022e-001 -3.5001e-002 64271 66305,66357,66331
 1.0500e+001 66435 -4.4340e-002  4.2074e-001 -1.6463e-003 64271 66305,66383,66357
 1.0500e+001 66705 -7.6026e-003  5.7003e-002 -3.7954e-002 64073 66728,66581,66555
 1.0500e+001 66682  6.6782e-002  1.3505e-001 -7.1249e-003 64073 66728,66555,66529
 1.0500e+001 66659 -3.3467e-001  2.1441e-001  2.1796e-001 64073 66581,66633,66607
 1.0500e+001 66754 -1.0763e-001  1.4735e-001 -7.2020e-002 64073 66633,66581,66728
 1.0500e+001 66777 -4.4016e-002  2.2942e-001 -4.4211e-002 64073 66633,66728,66529
 1.0500e+001 66951  2.6977e-002 -1.6992e-001  7.7247e-002 63783 66824,66876,66850
 1.0500e+001 66928 -1.1000e-001  7.4522e-002  2.9559e-002 63783 66824,66902,66876
 1.0500e+001 67201  1.8068e-001  3.0946e-001 -2.5091e-002 63585 66976,67080,67054
 1.0500e+001 67178  4.0541e-002  2.5130e-001 -4.1869e-002 63585 66976,67106,67080
 1.0500e+001 67155  1.4109e-001  1.4730e-001 -1.4198e-002 63585 66976,67054,67028
 1.0500e+001 67132  1.6149e-001  1.7947e-001  3.0045e-002 63585 66976,67028,67002
 1.0500e+001 67654 -5.4481e-002  1.1193e-001  2.8821e-002 63295 67357,67487,67383
 1.0500e+001 67631 -4.4698e-002  2.9084e-001 -7.1716e-002 63295 67331,67487,67357
 1.0500e+001 67608  1.0665e-003  4.2120e-001  5.3021e-002 63295 67331,67513,67487
 1.0500e+001 67585 -1.7178e-002  4.4265e-001 -4.0065e-002 63295 67435,67487,67461
 1.0500e+001 67562  1.5217e-002  3.8843e-001  3.3068e-002 63295 67383,67487,67435
 1.0500e+001 67539  1.7228e-002  1.7361e-001 -1.7252e-002 63295 67383,67435,67409
 1.0500e+001 67853 -1.3021e-001  6.2447e-002  4.5888e-002 62891 67876,67703,67677
 1.0500e+001 67830 -7.5042e-002  2.8838e-001  5.3569e-002 62891 67876,67677,67781
 1.0500e+001 67807 -2.0931e-001 -2.2898e-002 -5.1228e-002 62891 67948,67729,67703
 1.0500e+001 67902 -1.2197e-001  1.8541e-002 -6.4899e-002 62891 67948,67703,67876
 1.0500e+001 67925  2.3732e-002  1.2803e-001 -6.0310e-002 62891 67755,67876,67781
 1.0500e+001 67974 -8.8024e-002 -6.2009e-002 -2.4649e-002 62891 67755,67729,67948
 1.0500e+001 67997 -4.3876e-002 -4.6751e-002 -2.5660e-002 62891 67755,67948,67876
 1.0500e+001 68218  3.7578e-002 -6.7478e-002 -5.7507e-002 62693 68042,68120,68068
 1.0500e+001 68195 -1.6995e-002 -4.7943e-002  3.8565e-002 62693 68042,68146,68120
 1.0500e+001 68172 -1.7159e-001  8.9979e-002 -2.9353e-002 62693 68068,68120,68094
 1.0500e+001 68468 -1.3947e-002 -2.4545e-002  1.0788e-002 62289 68491,68295,68269
 1.0500e+001 68445 -2.6689e-002 -1.4087e-002 -2.5991e-002 62289 68563,68491,68269
 1.0500e+001 68422  9.5874e-003  3.1844e-002  1.2540e-003 62289 68563,68269,68243
 1.0500e+001 68399 -1.6262e-001 -4.8850e-002  3.7084e-002 62289 68295,68347,68321
 1.0500e+001 68517 -2.1804e-002 -4.7666e-002  9.4045e-003 62289 68347,68295,68491
 1.0500e+001 68540 -1.4889e-001 -1.3714e-002 -3.3775e-002 62289 68347,68491,68373
 1.0500e+001 68589 -3.9550e-002  8.0449e-002  6.5333e-003 62289 68373,68491,68563
 1.0500e+001 68612 -3.2201e-002  9.8256e-002  2.8838e-002 62289 68373,68563,68243
 1.0500e+001 68911 -1.8381e-002 -9.6866e-002  1.0249e-002 62091 69222,68934,68741
 1.0500e+001 68888 -9.1995e-002  2.6208e-002 -2.5126e-003 62091 69006,68934,68689
 1.0500e+001 68865 -1.2857e-001 -9.5060e-003 -4.5305e-002 62091 69006,68689,68663
 1.0500e+001 68842  7.5306e-003  1.6938e-001  7.9155e-002 62091 69078,68793,68767
 1.0500e+001 68819 -6.8317e-002 -1.2493e-001  6.7281e-002 62091 69222,68741,68715
 1.0500e+001 68960  1.7442e-002  5.8722e-002 -4.2925e-002 62091 68767,68741,68934
 1.0500e+001 68983  2.1424e-003  1.9200e-001  4.5672e-002 62091 69078,68767,68934
 1.0500e+001 69032 -7.2376e-002  1.5188e-001  1.9450e-002 62091 69150,69006,68637
 1.0500e+001 69055 -1.0018e-001  7.8064e-002  1.1117e-002 62091 68637,69006,68663
 1.0500e+001 69104  4.6595e-002  2.6030e-001 -1.1203e-002 62091 68637,68793,69078
 1.0500e+001 69127 -8.2923e-002  1.7580e-001  2.5936e-002 62091 69150,68637,69078
 1.0500e+001 69176 -6.0684e-002  2.5414e-002  1.1390e-002 62091 68934,69006,69150
 1.0500e+001 69199 -2.3323e-002  1.1800e-001 -5.1462e-003 62091 68934,69150,69078
 1.0500e+001 69248  8.9724e-003 -4.2297e-002 -3.0592e-003 62091 68689,68934,69222
 1.0500e+001 69271 -3.2377e-004 -2.4100e-002  3.7588e-002 62091 68689,69222,68715
 1.0500e+001 69521 -2.3488e-001  1.0961e-001  7.8464e-002 61893 69544,69348,69296
 1.0500e+001 69498 -7.4072e-002  1.9248e-001  4.9066e-002 61893 69544,69296,69400
 1.0500e+001 69475  3.2378e-002  1.5556e-001 -1.3341e-003 61893 69296,69426,69400
 1.0500e+001 69452 -2.1874e-001  2.6463e-002  5.6200e-002 61893 69296,69348,69322
 1.0500e+001 69570 -1.5403e-001 -3.2592e-002  2.2727e-001 61893 69374,69348,69544
 1.0500e+001 69593  1.4600e-001  1.1421e-001  1.7951e-001 61893 69374,69544,69400
 1.0500e+001 70046 -2.5346e-002  1.4900e-001 -1.7890e-002 61467 69749,69905,69879
 1.0500e+001 70023  1.9585e-003  1.3998e-001 -4.2238e-002 61467 69723,69905,69749
 1.0500e+001 70000 -3.4857e-002  4.1959e-002 -5.7556e-003 61467 70069,69827,69775
 1.0500e+001 69977  3.2858e-002  2.4250e-001 -7.2834e-002 61467 70069,69775,69749
 1.0500e+001 69954  2.1865e-003 -1.4476e-001 -2.0489e-002 61467 70141,69853,69827
 1.0500e+001 69931 -8.6541e-002 -1.2067e-001 -3.8365e-002 61467 69775,69827,69801
 1.0500e+001 70095 -2.7098e-002 -9.1225e-002  1.3384e-002 61467 70141,69827,70069
 1.0500e+001 70118 -3.2711e-002  6.2747e-002 -2.3137e-003 61467 69879,70069,69749
 1.0500e+001 70167 -4.7291e-002 -6.0000e-002 -2.1317e-002 61467 69879,69853,70141
 1.0500e+001 70190 -1.8097e-002  6.7476e-002  1.5876e-002 61467 69879,70141,70069
 1.0500e+001 70291  3.1705e-002  2.2460e-001  1.6051e-002 61013 70213,70265,70239
 1.0500e+001 70441  5.1501e-002 -3.3860e-002 -2.1081e-002 60651 70340,70392,70366
 1.0500e+001 70418  9.0013e-002 -4.6916e-002  1.5876e-002 60651 70314,70392,70340
 1.0500e+001 70642 -1.3219e-001  3.5125e-002  2.1851e-001 60311 70665,70492,70466
 1.0500e+001 70619 -9.5641e-002  5.2148e-002  8.6912e-002 60311 70665,70466,70570
 1.0500e+001 70596 -3.7196e-001 -2.3614e-001  3.0703e-001 60311 70492,70544,70518
 1.0500e+001 70691  1.6661e-002  4.8805e-002  1.8225e-001 60311 70544,70492,70665
 1.0500e+001 70714  5.4424e-002  8.6701e-002  4.2931e-002 60311 70544,70665,70570
 1.0500e+001 70964 -1.1592e-001 -3.4779e-001  1.2829e-001 59907 70987,70765,70739
 1.0500e+001 70941 -3.9795e-003 -1.0202e-001 -3.6192e-004 59907 71059,70987,70739
 1.0500e+001 70918  3.1323e-002  1.6233e-001 -2.3514e-002 59907 71059,70739,70869
 1.0500e+001 70895  2.7174e-002  2.7506e-002  2.5045e-003 59907 70817,70869,70843
 1.0500e+001 71013  2.6787e-001 -1.9078e-001  7.8579e-002 59907 70791,70765,70987
 1.0500e+001 71036  4.0779e-002 -3.0630e-001 -2.7761e-002 59907 70791,70987,70817
 1.0500e+001 71085  3.0379e-002 -2.8214e-001 -4.6251e-002 59907 70817,70987,71059
 1.0500e+001 71108 -2.8866e-002 -1.5791e-001 -2.6869e-002 59907 70817,71059,70869
 1.0500e+001 71441 -5.5923e-002  6.4134e-002  2.1448e-001 59417 71464,71242,71216
 1.0500e+001 71418 -2.5964e-002  9.8847e-002  2.9122e-001 59417 71464,71216,71320
 1.0500e+001 71395  3.6478e-002 -4.6033e-002  2.7186e-001 59417 71216,71346,71320
 1.0500e+001 71372 -1.0040e-001 -1.1659e-001  2.2449e-001 59417 71268,71320,71294
 1.0500e+001 71490 -1.1204e-001  4.3802e-002  1.8574e-001 59417 71268,71242,71464
 1.0500e+001 71513 -1.3612e-001  6.9882e-002  2.6616e-001 59417 71268,71464,71320
 1.0500e+001 71712  2.6157e-001  4.9289e-001  5.7214e-001 58913 71562,71614,71588
 1.0500e+001 71689  1.2738e-001 -7.3237e-002  1.0354e-001 58913 71536,71614,71562
 1.0500e+001 71666  1.2609e-001  1.2244e-001  1.0822e-002 58913 71536,71640,71614
 1.0500e+001 72171 -2.3419e-001 -1.2293e+000 -1.4599e-001 58409 72194,72027,72001
 1.0500e+001 72148 -4.1067e-001 -1.4690e+000 -4.8919e-002 58409 72194,72001,71949
 1.0500e+001 72125 -3.7744e-001 -9.8753e-001  7.9464e-002 58409 71923,72053,71949
 1.0500e+001 72102 -2.0236e-001 -1.3958e+000 -3.9872e-002 58409 71949,72001,71975
 1.0500e+001 72079 -3.4553e-001 -7.3988e-001  3.2667e-001 58409 71897,72053,71923
 1.0500e+001 72220 -4.2758e-001 -1.2508e+000 -1.2623e-002 58409 72053,72027,72194
 1.0500e+001 72243 -5.0440e-001 -1.3253e+000  5.1588e-002 58409 72053,72194,71949
 1.0500e+001 72491 -3.8474e-001  2.2312e-002 -4.2262e-002 57855 72514,72318,72292
 1.0500e+001 72468  1.5100e-001  2.9127e-001 -1.3531e-001 57855 72514,72292,72266
 1.0500e+001 72445 -4.4358e-001  7.4681e-002  1.5049e-002 57855 72318,72396,72370
 1.0500e+001 72422 -1.2778e+000  5.5978e-001 -4.2532e-001 57855 72318,72370,72344
 1.0500e+001 72540 -4.3387e-001  7.0474e-002  2.4675e-002 57855 72396,72318,72514
 1.0500e+001 72563 -3.8331e-001  3.7223e-002 -3.8011e-003 57855 72396,72514,72266
 1.0500e+001 72811  1.5446e+000 -6.8497e-001 -1.8721e-001 57401 72612,72690,72638
 1.0500e+001 72788 -2.7339e-001 -1.4479e+000  3.7195e-001 57401 72586,72690,72612
 1.0500e+001 72765 -1.0665e-001 -1.7859e+000 -6.6389e-001 57401 72638,72690,72664
 1.0500e+001 72742  4.1953e-002 -4.9925e-001  9.0908e-002 57401 72586,72716,72690
 1.0500e+001 73144 -1.2193e-001 -3.6049e-001 -1.0437e-002 57004 72919,72997,72945
 1.0500e+001 73121 -1.0743e-001 -8.5029e-002 -8.2728e-002 57004 72919,73049,72997
 1.0500e+001 73098 -2.0950e-001 -2.3856e-001 -1.0882e-001 57004 72945,72997,72971
 1.0500e+001 73075 -7.5259e-002 -3.9850e-002 -5.6069e-002 57004 72997,73049,73023
 1.0500e+001 73650 -5.9776e-001 -2.5753e+000 -1.1086e-001 56592 73673,73379,73353
 1.0500e+001 73627 -8.5145e-001 -1.8439e+000  9.3379e-001 56592 73673,73353,73327
 1.0500e+001 73604  2.7010e-001 -1.2353e+000  7.8186e-001 56592 73745,73509,73483
 1.0500e+001 73581 -4.0082e-001 -7.6784e-001 -8.9222e-002 56592 73379,73457,73405
 1.0500e+001 73558  5.7192e-001 -6.7410e-001  5.3888e-001 56592 73379,73483,73457
 1.0500e+001 73535  1.3393e+000 -7.3515e-002  1.5872e-001 56592 73405,73457,73431
 1.0500e+001 73699 -5.5396e-002 -1.5304e+000  2.0617e-001 56592 73483,73379,73673
 1.0500e+001 73722  1.7181e-001 -1.6280e+000  9.2664e-001 56592 73745,73483,73673
 1.0500e+001 73771  4.1266e-002 -3.7996e-001  4.5743e-001 56592 73327,73509,73745
 1.0500e+001 73794 -2.9964e-001 -8.9092e-001  7.0826e-001 56592 73327,73745,73673
 1.0500e+001 74123  3.5634e-002  7.9589e-002 -1.3511e-001 56152 74146,74002,73924
 1.0500e+001 74100 -3.2948e-002 -4.8263e-002 -1.1323e-002 56152 74146,73924,73898
 1.0500e+001 74077  6.8845e-001  3.2622e-001 -2.7595e-001 56152 73924,74002,73976
 1.0500e+001 74054  2.6023e-001 -6.3705e-001  7.2231e-001 56152 73924,73976,73950
 1.0500e+001 74172  2.4321e-001  3.1266e-001 -2.3176e-001 56152 74028,74002,74146
 1.0500e+001 74195  7.4652e-002  5.0282e-002 -7.9533e-002 56152 74028,74146,73898
 1.0500e+001 74345  8.3484e-001 -4.0857e-001 -4.9098e-001 55634 74218,74270,74244
 1.0500e+001 74322 -2.4189e-001 -1.8376e-001 -2.4514e-001 55634 74218,74296,74270
 1.0500e+001 74823 -4.2165e-002 -2.1289e+000  9.0011e-001 55016 74918,74846,74581
 1.0500e+001 74800 -5.0488e-001 -2.1071e+000  5.6028e-001 55016 74846,74477,74633
 1.0500e+001 74777 -7.9202e-001 -3.4808e+000  1.3628e+000 55016 74918,74581,74555
 1.0500e+001 74754 -8.1197e-001 -1.6421e+000  7.0774e-001 55016 74990,74503,74477
 1.0500e+001 74731 -6.3465e-001 -2.4976e+000  3.7508e-002 55016 74451,74633,74477
 1.0500e+001 74708 -1.1790e+000 -1.9303e+000 -1.4710e-001 55016 74451,74659,74633
 1.0500e+001 74685 -2.1377e+000 -2.8076e+000  2.4841e+000 55016 74503,74555,74529
 1.0500e+001 74872 -2.2370e-001 -2.7148e+000  6.6548e-001 55016 74607,74581,74846
 1.0500e+001 74895 -4.2260e-001 -2.4922e+000  5.9868e-001 55016 74607,74846,74633
 1.0500e+001 74944 -1.2223e+000 -2.5801e+000  7.7731e-001 55016 74477,74846,74918
 1.0500e+001 74967 -8.9435e-001 -1.8519e+000  7.0403e-001 55016 74990,74477,74918
 1.0500e+001 75016 -5.2731e-001 -1.4642e+000  1.5386e+000 55016 74555,74503,74990
 1.0500e+001 75039 -8.5217e-001 -2.2187e+000  1.4919e+000 55016 74555,74990,74918
 1.0500e+001 75287 -1.5585e+000 -5.1344e+000  5.2111e-001 54726 75310,75140,75114
 1.0500e+001 75264 -1.9620e+000 -4.0775e+000  2.7105e-001 54726 75310,75114,75088
 1.0500e+001 75241 -1.4229e+000 -3.2572e+000 -1.6420e-002 54726 75088,75192,75166
 1.0500e+001 75218 -6.4921e-001 -7.8188e-001  7.2891e-001 54726 75062,75192,75088
 1.0500e+001 75336 -1.0817e+000 -4.5464e+000 -1.3023e-001 54726 75166,75140,75310
 1.0500e+001 75359 -1.8726e+000 -3.4672e+000 -1.1631e-001 54726 75166,75310,75088
 1.0500e+001 75946 -1.5927e-001 -3.6701e-001 -2.1799e-002 54322 75969,75701,75649
 1.0500e+001 75923 -1.9122e-001 -4.0246e-001 -3.6586e-003 54322 75969,75649,75623
 1.0500e+001 75900 -1.6519e-001 -4.2831e-001 -5.9682e-002 54322 76041,75753,75701
 1.0500e+001 75877 -1.5323e-001 -2.4366e-001 -8.6685e-003 54322 75623,75805,75779
 1.0500e+001 75854 -2.5237e-001 -4.7965e-001 -2.0852e-002 54322 75701,75753,75727
 1.0500e+001 75831 -1.5680e-001 -3.8803e-001 -6.8700e-002 54322 75649,75701,75675
 1.0500e+001 75995 -1.8472e-001 -4.0731e-001 -3.3654e-002 54322 76041,75701,75969
 1.0500e+001 76018 -1.6001e-001 -3.3221e-001  5.9801e-003 54322 75779,75969,75623
 1.0500e+001 76067 -1.7966e-001 -3.7097e-001 -6.3976e-002 54322 75779,75753,76041
 1.0500e+001 76090 -1.7805e-001 -3.2668e-001 -3.4153e-002 54322 75779,76041,75969
 1.0500e+001 76468 -5.4930e-002 -2.8804e-001 -7.8540e-002 53868 76491,76272,76220
 1.0500e+001 76445  1.2419e-002 -3.0120e-001 -4.2674e-002 53868 76491,76220,76324
 1.0500e+001 76422 -2.5173e-002 -5.1959e-001 -1.2320e-001 53868 76220,76272,76246
 1.0500e+001 76399  1.4580e-002 -1.2876e-001  3.8513e-002 53868 76194,76324,76220
 1.0500e+001 76376  6.8534e-002 -1.0852e-001  6.6499e-002 53868 76194,76350,76324
 1.0500e+001 76517 -1.6943e-002 -2.5823e-001 -4.0456e-002 53868 76298,76272,76491
 1.0500e+001 76540  5.0168e-002 -2.8031e-001 -7.6793e-003 53868 76298,76491,76324
 1.0500e+001 76690 -3.6437e-002 -3.6672e-001  2.5878e-002 53356 76589,76641,76615
 1.0500e+001 76667 -1.1850e-001 -2.1907e-001 -8.4560e-003 53356 76563,76641,76589
 1.0500e+001 76938 -2.7252e-001 -7.7954e-001 -5.3647e-001 53009 77105,76961,76765
 1.0500e+001 76915 -5.5538e-002 -5.5047e-001 -1.8689e-001 53009 76961,76713,76843
 1.0500e+001 76892 -2.7896e-001 -4.8836e-001 -1.4539e-001 53009 77033,76817,76791
 1.0500e+001 76869 -6.5179e-001 -1.2512e+000 -8.0239e-001 53009 77105,76765,76739
 1.0500e+001 76987 -1.6026e-001 -1.3380e-001 -4.1117e-001 53009 76791,76765,76961
 1.0500e+001 77010 -3.6656e-001 -5.8286e-001 -3.1690e-001 53009 77033,76791,76961
 1.0500e+001 77059 -3.2212e-002 -4.0819e-001 -4.1688e-002 53009 76843,76817,77033
 1.0500e+001 77082 -1.0232e-001 -4.3748e-001 -1.9805e-001 53009 76843,77033,76961
 1.0500e+001 77131 -5.6245e-002 -4.9553e-001 -1.9133e-001 53009 76713,76961,77105
 1.0500e+001 77154 -1.4294e-001 -6.1823e-001 -4.0421e-001 53009 76713,77105,76739
 1.0500e+001 77355  6.0262e-001 -3.0953e+000  6.4645e-001 52390 77378,77257,77231
 1.0500e+001 77332  5.9530e-001 -3.8614e+000  7.1023e-001 52390 77378,77231,77179
 1.0500e+001 77309  1.1380e+000 -3.2300e+000  2.4504e-001 52390 77179,77231,77205
 1.0500e+001 77404  9.3484e-001 -3.7329e+000  1.0593e+000 52390 77283,77257,77378
 1.0500e+001 77427  7.5257e-001 -4.7949e+000  1.0497e+000 52390 77283,77378,77179
 1.0500e+001 77677 -1.3066e+000  1.0588e+000 -1.6657e+000 51986 77700,77504,77478
 1.0500e+001 77654  6.2003e-001  2.0952e+000 -2.0667e+000 51986 77700,77478,77452
 1.0500e+001 77631  2.2483e-002  1.6737e-001 -2.3060e-001 51986 77772,77556,77530
 1.0500e+001 77608  4.2505e-002 -1.7519e-001 -4.2219e-001 51986 77452,77582,77556
 1.0500e+001 77726 -8.8471e-003  1.1129e+000 -6.8884e-001 51986 77530,77504,77700
 1.0500e+001 77749  2.6708e-001  6.0679e-001 -7.0433e-001 51986 77772,77530,77700
 1.0500e+001 77798  6.4623e-001  5.4035e-001 -6.8403e-001 51986 77452,77556,77772
 1.0500e+001 77821  9.7419e-001  6.6187e-001 -1.0897e+000 51986 77452,77772,77700
 1.0500e+001 78282 -5.1960e-001 -1.7371e+000  2.2178e-002 51738 78008,78138,78060
 1.0500e+001 78259 -9.6026e-001 -2.3498e+000  1.2083e+000 51738 78008,78164,78138
 1.0500e+001 78236 -3.2101e-001 -5.2835e-001  1.9533e-001 51738 78086,78138,78112
 1.0500e+001 78213 -2.6742e-001 -7.7839e-001  3.5590e-001 51738 78060,78138,78086
 1.0500e+001 78190 -1.4649e-001 -1.7656e+000 -1.8078e-001 51738 78008,78060,78034
 1.0500e+001 78432  4.4318e-002 -3.6077e-001  1.4135e-002 51148 78305,78357,78331
 1.0500e+001 78409  2.1588e-003 -1.7940e-001  6.7125e-004 51148 78305,78383,78357
 1.0500e+001 78891 -2.0906e-001 -5.6937e-001 -1.6350e-001 50808 78914,78695,78669
 1.0500e+001 78868 -2.0243e-001 -5.4278e-001 -1.3737e-001 50808 78914,78669,78643
 1.0500e+001 78845 -2.1572e-001 -5.3021e-001 -1.6341e-001 50808 78643,78773,78747
 1.0500e+001 78822 -3.9242e-001 -6.3917e-001 -2.4460e-001 50808 78617,78773,78643
 1.0500e+001 78799 -2.8596e-001 -4.3524e-001 -7.8196e-002 50808 78695,78747,78721
 1.0500e+001 78940 -2.6606e-001 -5.5915e-001 -1.8683e-001 50808 78747,78695,78914
 1.0500e+001 78963 -2.2837e-001 -5.3594e-001 -1.6513e-001 50808 78747,78914,78643
 1.0500e+001 79260 -3.2000e-002 -5.5530e-001 -1.5696e-001 50468 79283,79090,79012
 1.0500e+001 79237  1.0629e-001 -4.9203e-001 -1.1093e-001 50468 79283,79012,78986
 1.0500e+001 79214 -2.6332e-001 -6.5637e-001 -1.8030e-001 50468 79012,79090,79038
 1.0500e+001 79191  1.6301e-002 -4.0579e-001 -2.4171e-002 50468 78986,79142,79116
 1.0500e+001 79168 -1.6987e-001 -6.7753e-001 -2.4167e-001 50468 79038,79090,79064
 1.0500e+001 79309 -1.9901e-001 -4.8716e-001 -1.8389e-001 50468 79116,79090,79283
 1.0500e+001 79332 -1.8766e-002 -3.7989e-001 -1.2159e-001 50468 79116,79283,78986
 1.0500e+001 79889  1.0681e+000  1.0154e+000 -2.4147e-001 50064 79569,79725,79699
 1.0500e+001 79866  9.8720e-001  9.0317e-001 -2.8047e-001 50064 79543,79725,79569
 1.0500e+001 79843  9.6807e-001  6.2905e-001 -5.1244e-001 50064 79621,79699,79673
 1.0500e+001 79820  1.1756e+000  1.0846e+000 -8.8860e-001 50064 79595,79699,79621
 1.0500e+001 79797  1.9583e+000  1.1517e+000 -5.8620e-001 50064 79569,79699,79595
 1.0500e+001 79774  9.9177e-001  1.3638e+000  1.5010e-001 50064 79517,79725,79543
 1.0500e+001 79751  4.3482e-001  6.4893e-001 -5.6671e-001 50064 79621,79673,79647
 1.0500e+001 80169  1.1274e+000  1.3920e+000 -6.8187e-001 49724 80019,80097,80071
 1.0500e+001 80146  8.6587e-001  1.7164e+000 -8.7437e-001 49724 79993,80097,80019
 1.0500e+001 80123  6.3463e-001  1.2224e+000 -7.7240e-001 49724 80019,80071,80045
 1.0500e+001 80626 -5.9916e-001 -5.0076e-001 -1.8610e-001 49277 80352,80482,80378
 1.0500e+001 80603 -3.2263e-001 -4.1676e-001  1.3124e-002 49277 80352,80508,80482
 1.0500e+001 80580 -4.7183e-001 -5.0604e-001 -1.5851e-001 49277 80378,80482,80456
 1.0500e+001 80557 -6.7055e-001 -9.0513e-001  1.1727e-002 49277 80378,80430,80404
 1.0500e+001 80534 -8.3988e-001 -6.2522e-001  8.7312e-003 49277 80378,80456,80430
 1.0500e+001 81230 -7.3627e-001 -2.1808e+000  5.3592e-001 48716 81253,80835,80809
 1.0500e+001 81207 -4.6272e-001 -1.4946e+000  6.0277e-001 48716 81397,81253,80809
 1.0500e+001 81184 -1.5127e+000 -2.4655e+000 -1.2696e+000 48716 81325,80913,80887
 1.0500e+001 81161 -1.2987e+000 -1.5632e+000  7.9241e-001 48716 81397,80809,81017
 1.0500e+001 81138 -1.5852e+000 -3.9866e-001 -1.1933e+000 48716 81469,80965,80913
 1.0500e+001 81115 -6.8353e-001 -3.5340e+000  7.9055e-001 48716 80835,80887,80861
 1.0500e+001 81092 -6.6553e-001 -2.0823e+000  2.0489e+000 48716 80809,81043,81017
 1.0500e+001 81069 -1.7513e+000 -1.7495e+000 -2.1051e+000 48716 80913,80965,80939
 1.0500e+001 81279  3.8319e-001 -1.6361e+000  3.6654e-001 48716 80887,80835,81253
 1.0500e+001 81302 -1.3719e+000 -2.0664e+000 -3.0007e-001 48716 81325,80887,81253
 1.0500e+001 81351 -7.9986e-001 -1.0292e+000 -9.0362e-001 48716 81469,80913,81325
 1.0500e+001 81374 -1.2502e+000 -5.0987e-001  7.0455e-002 48716 80991,81325,81253
 1.0500e+001 81423 -1.6718e+000 -1.0545e+000  6.9204e-001 48716 80991,81253,81397
 1.0500e+001 81446 -2.6173e+000 -1.2554e+000  9.6054e-001 48716 80991,81397,81017
 1.0500e+001 81495 -2.6840e+000 -1.1364e+000 -8.7116e-001 48716 80991,80965,81469
 1.0500e+001 81518 -2.0321e+000 -1.8330e+000 -5.5692e-001 48716 80991,81469,81325
 1.0500e+001 81717 -1.2292e-001 -4.4115e-001 -2.0000e-002 48262 81740,81567,81541
 1.0500e+001 81694 -1.4412e-001 -4.2091e-001 -5.2739e-002 48262 81740,81541,81645
 1.0500e+001 81671 -1.7266e-001 -5.4774e-001 -6.1895e-002 48262 81567,81619,81593
 1.0500e+001 81766 -1.3882e-001 -4.6289e-001 -2.8475e-002 48262 81619,81567,81740
 1.0500e+001 81789 -1.6794e-001 -4.5961e-001 -6.3946e-002 48262 81619,81740,81645
 1.0500e+001 81939  1.1330e+000  5.5870e-001 -4.1779e-001 47957 82034,81962,81864
 1.0500e+001 81916  8.1454e-001  1.8122e-001 -3.1985e-001 47957 82166,81962,81838
 1.0500e+001 81988  9.5445e-002  8.1331e-001 -1.5289e-001 47957 82294,81962,81890
 1.0500e+001 82011  1.0094e+000  1.3436e+000  5.0254e-001 47957 81890,81962,81812
 1.0500e+001 82060  1.2387e+000  1.4181e+000 -3.8349e-002 47957 81838,81962,82034
 1.0500e+001 82192  1.1022e+000  3.9141e-001  5.9136e-001 47957 81812,81962,82166
 1.0500e+001 82320  3.9865e-001  5.1134e-001 -5.3317e-001 47957 81864,81962,82294
 1.0500e+001 82549 -1.1852e-001 -5.4849e-001 -1.7788e-001 47617 82448,82500,82474
 1.0500e+001 82526  1.8268e-001 -4.7239e-001 -1.8261e-002 47617 82422,82500,82448
 1.0500e+001 82902 -4.5585e-001 -5.0448e-001 -1.6470e-002 47255 82729,82807,82755
 1.0500e+001 82879 -3.5403e-001 -1.0968e+000  1.1580e-001 47255 82703,82807,82729
 1.0500e+001 82856 -6.0807e-001 -5.6864e-001  1.3407e-001 47255 82755,82807,82781
 1.0500e+001 82833  1.5595e-001 -8.7838e-001  1.6714e-001 47255 82677,82807,82703
 1.0500e+001 83182 -2.6784e-002 -9.4944e-001  2.5219e-001 46680 83032,83084,83058
 1.0500e+001 83159  3.1036e-001 -4.9687e-001  4.1023e-001 46680 83205,83084,83032
 1.0500e+001 83136 -3.3738e-001 -1.5641e-001  1.3036e-001 46680 83006,83110,83084
 1.0500e+001 83231  5.1626e-001 -3.6391e-001  4.6857e-001 46680 83006,83084,83205
 1.0500e+001 83737 -9.7467e-001 -5.0426e-001  2.4679e-001 46290 83832,83760,83492
 1.0500e+001 83714 -8.1292e-001 -1.8131e-001  1.1039e-001 46290 83760,83440,83414
 1.0500e+001 83691 -7.2970e-001 -6.5767e-001  2.0207e-001 46290 83832,83492,83466
 1.0500e+001 83668 -8.4396e-001 -1.2196e+000  4.3503e-001 46290 83492,83570,83544
 1.0500e+001 83645 -1.2308e+000 -4.9555e-001 -2.3452e-003 46290 83414,83596,83570
 1.0500e+001 83622 -9.7986e-001 -9.9813e-001  6.2442e-001 46290 83492,83544,83518
 1.0500e+001 83786 -9.8696e-001 -4.7014e-001  2.7276e-001 46290 83570,83492,83760
 1.0500e+001 83809 -9.5387e-001 -5.8981e-001  9.8015e-002 46290 83570,83760,83414
 1.0500e+001 83858 -6.6425e-001 -3.0333e-001  3.4007e-001 46290 83440,83760,83832
 1.0500e+001 83881 -2.5365e-001 -4.5183e-001  2.5451e-001 46290 83440,83832,83466
 1.0500e+001 84161 -1.1793e-001 -8.7197e-001  1.1911e-001 45829 84011,84063,84037
 1.0500e+001 84138 -1.7248e-001 -6.6633e-001 -8.6632e-002 45829 84011,84089,84063
 1.0500e+001 84115 -1.8485e-001 -6.6808e-001 -1.6785e-002 45829 83985,84089,84011
 1.0500e+001 84311  3.1342e-001 -1.7720e+000  5.5780e-002 45631 84184,84236,84210
 1.0500e+001 84288 -6.6058e-001 -4.3225e+000  3.5177e-004 45631 84184,84262,84236
 1.0500e+001 84657 -2.1421e-001 -5.4494e-001 -5.8821e-002 45155 84680,84490,84412
 1.0500e+001 84634 -2.7579e-001 -4.8116e-001 -3.5452e-002 45155 84680,84412,84360
 1.0500e+001 84611 -3.2713e-001 -6.1762e-001  1.3562e-002 45155 84412,84490,84438
 1.0500e+001 84588 -4.9074e-002 -3.2786e-001 -5.7244e-002 45155 84334,84516,84360
 1.0500e+001 84565 -2.9596e-001 -5.0741e-001 -2.8436e-001 45155 84360,84412,84386
 1.0500e+001 84542 -2.7973e-001 -5.5963e-001  4.3068e-002 45155 84438,84490,84464
 1.0500e+001 84706 -1.9766e-001 -4.8775e-001 -7.4553e-002 45155 84516,84490,84680
 1.0500e+001 84729 -2.4528e-001 -4.1205e-001 -6.0984e-002 45155 84516,84680,84360
 1.0500e+001 85077 -8.6842e-002 -4.8725e-001 -1.4308e-001 44508 85100,84754,84910
 1.0500e+001 85054 -1.7500e-001 -1.1928e-001 -1.3905e-002 44508 84754,84936,84910
 1.0500e+001 85031 -3.3423e-001 -7.4747e-001  1.1001e-001 44508 85100,84910,84884
 1.0500e+001 85008 -3.1142e-001 -2.8838e-001 -2.0696e-001 44508 84780,84884,84832
 1.0500e+001 84985 -2.7170e-001 -2.2322e-001 -2.5214e-001 44508 84780,84832,84806
 1.0500e+001 84962 -3.0665e-001 -4.9403e-001 -9.1815e-002 44508 84832,84884,84858
 1.0500e+001 85126 -2.8945e-001 -8.7583e-002 -3.3504e-001 44508 84780,84754,85100
 1.0500e+001 85149 -4.7550e-001 -3.5111e-001 -1.0374e-001 44508 84780,85100,84884
 1.0500e+001 85482 -3.9534e-001 -6.7752e-001 -1.1482e-001 44104 85335,85387,85361
 1.0500e+001 85459 -3.8770e-001 -1.0131e+000 -6.3569e-002 44104 85309,85387,85335
 1.0500e+001 85436 -2.6440e-001 -8.6139e-001  1.1583e-002 44104 85257,85387,85309
 1.0500e+001 85413 -3.1669e-001 -1.0099e+000  1.5090e-002 44104 85257,85309,85283
 1.0500e+001 85811 -2.8434e-001 -4.9524e-001 -1.7627e-001 43600 85586,85664,85612
 1.0500e+001 85788 -3.1990e-001 -4.2719e-001 -1.1897e-001 43600 85586,85690,85664
 1.0500e+001 85765 -9.5084e-002 -3.0954e-001 -1.6776e-001 43600 85586,85716,85690
 1.0500e+001 85742 -2.6543e-001 -4.4943e-001 -2.4058e-001 43600 85612,85664,85638
 1.0500e+001 86010  8.2746e-003 -3.8025e-001 -2.8015e-001 43224 85886,85938,85912
 1.0500e+001 85987  1.1824e-001 -1.3634e-001 -2.5467e-001 43224 85834,85938,85886
 1.0500e+001 85964 -1.1226e-001 -7.7236e-001 -1.4181e-001 43224 85834,85886,85860
 1.0500e+001 86420  2.4840e+000  1.1181e+000 -3.0279e-001 42820 86195,86299,86221
 1.0500e+001 86397  1.8896e+000  9.5929e-001 -1.0935e+000 42820 86195,86325,86299
 1.0500e+001 86374  1.4421e+000  1.1989e+000  1.7721e-001 42820 86221,86299,86273
 1.0500e+001 86351  1.1918e+000  9.2497e-001 -3.7833e-002 42820 86221,86273,86247
 1.0500e+001 86749  5.1381e-001 -8.3483e-001 -3.4522e-001 42223 86550,86602,86576
 1.0500e+001 86726  1.3694e+000 -1.5388e+000 -2.5390e-002 42223 86550,86628,86602
 1.0500e+001 86703 -2.6256e-002 -1.9599e+000  6.0033e-001 42223 86524,86628,86550
 1.0500e+001 86680  9.7519e-001 -2.7475e-001  1.7464e-001 42223 86524,86654,86628
 1.0500e+001 87078  8.5370e-001 -3.2259e-001  3.9120e-001 41883 87173,87101,86905
 1.0500e+001 87055  4.3586e-001  1.5813e-001  2.1686e-001 41883 87101,86879,86853
 1.0500e+001 87032  3.0866e-002 -1.2801e-001  1.1082e-002 41883 86853,86983,86931
 1.0500e+001 87009 -4.1148e-002 -1.3561e-001 -1.1680e-001 41883 86931,86983,86957
 1.0500e+001 87127  1.1456e+000  9.8847e-003 -1.3857e-001 41883 86931,86905,87101
 1.0500e+001 87150  1.9922e-001 -3.6957e-001 -6.3224e-002 41883 86931,87101,86853
 1.0500e+001 87199  2.9838e-001 -2.6676e-001  3.6835e-001 41883 86879,87101,87173
 1.0500e+001 87558 -2.6813e-001 -9.1919e-001 -4.0716e-001 41471 87382,87460,87408
 1.0500e+001 87535 -1.2366e+000 -1.4983e+000 -6.4996e-001 41471 87382,87486,87460
 1.0500e+001 87512  5.9423e-001 -1.3648e+000  1.1389e-002 41471 87408,87460,87434
 1.0500e+001 87806  6.7908e-002 -1.6505e-001 -2.4795e-001 41017 87829,87607,87581
 1.0500e+001 87783  1.8920e-002 -4.2383e-001 -6.8298e-002 41017 87829,87581,87685
 1.0500e+001 87760  3.1758e-001 -1.9292e-001 -1.7816e-001 41017 87581,87711,87685
 1.0500e+001 87737  2.1929e-001 -8.8706e-001 -1.4150e-002 41017 87633,87685,87659
 1.0500e+001 87855 -2.8333e-002 -2.8380e-001 -6.2095e-002 41017 87633,87607,87829
 1.0500e+001 87878 -1.1921e-001 -5.6692e-001  1.2417e-001 41017 87633,87829,87685
 1.0500e+001 88258 -1.8024e-002 -4.7005e-002 -2.1604e-003 40613 88281,88036,88010
 1.0500e+001 88235 -4.0869e-003 -5.4067e-002 -7.6783e-003 40613 88281,88010,88088
 1.0500e+001 88212 -4.0102e-003 -7.4210e-002  7.0488e-003 40613 87984,88088,88010
 1.0500e+001 88189  9.0385e-003 -4.6098e-002  1.6540e-002 40613 87984,88114,88088
 1.0500e+001 88166 -1.0830e-002 -7.3046e-002  2.6870e-002 40613 87984,88140,88114
 1.0500e+001 88307 -8.9750e-003 -4.3389e-002 -1.2510e-003 40613 88062,88036,88281
 1.0500e+001 88330  7.9722e-003 -4.8965e-002 -7.2330e-003 40613 88062,88281,88088
 1.0500e+001 88649  1.1246e-002 -9.7704e-002 -5.0356e-004 40095 88375,88505,88401
 1.0500e+001 88626 -3.0509e-002 -4.5681e-002 -2.8675e-002 40095 88375,88531,88505
 1.0500e+001 88603  2.1562e-002 -1.1349e-001 -9.9181e-003 40095 88401,88505,88479
 1.0500e+001 88580  1.7851e-001 -1.6432e-001  1.7079e-002 40095 88427,88479,88453
 1.0500e+001 88557 -1.3709e-002 -1.7347e-001  6.9225e-003 40095 88401,88479,88427
 1.0500e+001 89078  3.8388e-001 -1.4439e+000 -7.1130e-001 39897 89101,88833,88807
 1.0500e+001 89055 -9.0657e-002 -2.0630e+000 -1.0270e+000 39897 89101,88807,88911
 1.0500e+001 89032 -6.3391e-001 -1.4794e+000 -1.4702e+000 39897 88781,88911,88807
 1.0500e+001 89009 -1.4748e+000 -2.3599e+000 -2.2470e+000 39897 88781,88937,88911
 1.0500e+001 88986  2.1333e+000 -1.1476e-001 -7.2899e-001 39897 88833,88885,88859
 1.0500e+001 88963 -1.5411e+000 -2.0967e+000 -2.3087e+000 39897 88755,88937,88781
 1.0500e+001 89127  8.9363e-001 -2.1846e+000 -1.3221e+000 39897 88885,88833,89101
 1.0500e+001 89150 -2.2688e-002 -3.1344e+000 -1.7512e+000 39897 88885,89101,88911
 1.0500e+001 89300 -1.2116e+000 -1.5938e+000  2.3469e-001 39607 89453,89323,89199
 1.0500e+001 89277 -1.8271e+000 -1.4351e+000  8.8393e-002 39607 89525,89453,89199
 1.0500e+001 89349 -9.6455e-001 -1.5300e+000 -1.4092e-001 39607 89225,89199,89323
 1.0500e+001 89479 -1.1344e+000 -1.2203e+000  1.8503e-001 39607 89251,89323,89453
 1.0500e+001 89502 -8.9302e-001 -7.4964e-001  6.2637e-001 39607 89251,89453,89173
 1.0500e+001 89551 -6.9423e-001 -1.1840e+000  2.6022e-001 39607 89173,89453,89525
 1.0500e+001 90264 -1.0707e+000 -2.1820e+000 -4.3379e-001 39039 89996,90074,90048
 1.0500e+001 90241 -6.0397e-001 -1.1701e+000 -2.7929e-001 39039 89918,90074,89996
 1.0500e+001 90218 -7.7457e-001 -1.1449e+000 -1.8071e-001 39039 89918,89996,89944
 1.0500e+001 90195 -7.1077e-001 -1.1396e+000 -1.6269e-001 39039 89892,90074,89918
 1.0500e+001 90172 -2.0902e-001 -2.0249e+000 -4.2880e-001 39039 89996,90048,90022
 1.0500e+001 90149 -1.6887e+000 -9.3807e-002 -8.1762e-002 39039 89892,90100,90074
 1.0500e+001 90126 -9.1093e-001 -1.2115e+000 -2.6309e-002 39039 89944,89996,89970
 1.0500e+001 90770 -4.1764e-001 -6.4333e-001 -5.8245e-002 38635 90473,90603,90577
 1.0500e+001 90747 -2.4659e-001 -5.7198e-001 -6.1924e-002 38635 90447,90603,90473
 1.0500e+001 90724 -3.4734e-001 -7.2458e-001 -8.4502e-002 38635 90499,90577,90551
 1.0500e+001 90701 -4.1968e-001 -7.7566e-001 -4.6644e-002 38635 90473,90577,90499
 1.0500e+001 90678 -3.0973e-001 -8.7233e-001 -8.0394e-002 38635 90499,90551,90525
 1.0500e+001 90655 -4.1881e-001 -5.7943e-001  1.0992e-003 38635 90447,90629,90603
 1.0500e+001 90871 -1.6547e-001 -5.0674e-001 -1.3099e-001 38231 90793,90845,90819
 1.0500e+001 91458  1.5957e-002 -3.6304e-001 -7.5212e-002 37534 91161,91317,91291
 1.0500e+001 91435 -2.0261e-001 -2.9572e-001 -5.1332e-003 37534 91135,91317,91161
 1.0500e+001 91412 -3.2187e-001 -1.2578e+000 -4.3813e-001 37534 91187,91291,91239
 1.0500e+001 91389 -1.3763e-001 -1.3068e+000  8.8365e-002 37534 91161,91291,91187
 1.0500e+001 91366 -7.6385e-002 -8.0647e-001 -2.7367e-001 37534 91239,91291,91265
 1.0500e+001 91343  7.0034e-001 -1.2454e+000 -8.7725e-001 37534 91187,91239,91213
 1.0500e+001 91915 -6.0428e-001 -8.9362e-001  3.1161e-002 37080 91938,91745,91667
 1.0500e+001 91892 -4.8492e-001 -8.4554e-001  3.4652e-002 37080 91938,91667,91797
 1.0500e+001 91869 -4.9404e-001 -2.5457e-001 -7.6024e-002 37080 91641,91797,91667
 1.0500e+001 91846 -6.5093e-001 -9.1538e-001  1.5232e-002 37080 91667,91719,91693
 1.0500e+001 91823 -6.1615e-001 -8.3668e-001  7.9945e-003 37080 91667,91745,91719
 1.0500e+001 91964 -6.3325e-001 -8.7388e-001  1.3013e-001 37080 91771,91745,91938
 1.0500e+001 91987 -5.3474e-001 -8.3036e-001  1.2206e-001 37080 91771,91938,91797
 1.0500e+001 92235 -4.5018e-001 -6.1447e-001 -3.4578e-002 36397 92036,92088,92062
 1.0500e+001 92212 -3.4230e-001 -5.6203e-001 -7.7926e-002 36397 92036,92114,92088
 1.0500e+001 92189 -1.9482e-001 -4.5732e-001 -7.3948e-003 36397 92036,92140,92114
 1.0500e+001 92166 -2.2983e-001 -5.2578e-001 -3.0166e-002 36397 92010,92140,92036
 1.0500e+001 92694  3.1844e-003 -9.7792e-004  1.6993e-003 36057 92446,92498,92472
 1.0500e+001 92671  7.8929e-002  8.1989e-002  7.9999e-002 36057 92446,92550,92498
 1.0500e+001 92648  8.5638e-003 -2.9002e-001  1.3888e-001 36057 92446,92576,92550
 1.0500e+001 92625  7.7010e-002 -5.5964e-002 -1.7564e-001 36057 92420,92576,92446
 1.0500e+001 92602 -7.0123e-002 -2.8409e-002  1.4849e-002 36057 92498,92550,92524
 1.0500e+001 93023 -5.0325e-001 -5.2951e-001 -9.6385e-002 35717 92876,92928,92902
 1.0500e+001 93000 -4.5563e-001 -5.8931e-001 -1.1979e-001 35717 92824,92928,92876
 1.0500e+001 92977 -2.2291e-001 -5.5537e-001 -7.5861e-002 35717 92798,92928,92824
 1.0500e+001 92954 -4.1772e-001 -6.9022e-001 -3.9264e-001 35717 92824,92876,92850
 1.0500e+001 93499 -9.1621e-003 -8.1477e-001  1.0951e-001 35405 93522,93309,93257
 1.0500e+001 93476  1.1281e-001 -5.0219e-001  5.3894e-002 35405 93666,93522,93257
 1.0500e+001 93453  6.6164e-002 -2.0467e+000  5.7484e-002 35405 93594,93127,93335
 1.0500e+001 93430 -7.0441e-002 -4.5742e-001 -5.2878e-002 35405 93666,93257,93231
 1.0500e+001 93407 -6.8129e-001 -2.3995e+000 -8.1398e-001 35405 93127,93179,93153
 1.0500e+001 93384 -8.8328e-001 -2.7655e-002  3.1707e-001 35405 93179,93231,93205
 1.0500e+001 93361  6.5142e-002 -1.4329e-001 -9.5531e-002 35405 93257,93309,93283
 1.0500e+001 93548  4.3619e-001 -5.2975e-001  3.7288e-001 35405 93335,93309,93522
 1.0500e+001 93571  1.3035e-001 -1.1672e+000  1.9830e-001 35405 93594,93335,93522
 1.0500e+001 93620  8.8392e-002 -1.0768e+000 -5.1363e-002 35405 93179,93127,93594
 1.0500e+001 93643 -1.6036e-001 -7.3302e-001 -5.3791e-002 35405 93738,93594,93522
 1.0500e+001 93692 -7.4137e-002 -6.7988e-001 -2.4527e-002 35405 93738,93522,93666
 1.0500e+001 93715 -1.3690e-001 -5.7745e-001 -7.9140e-002 35405 93179,93666,93231
 1.0500e+001 93764 -1.3902e-001 -6.6121e-001  9.9082e-003 35405 93179,93594,93738
 1.0500e+001 93787 -1.3334e-001 -6.4634e-001  2.6067e-002 35405 93179,93738,93666
 1.0500e+001 94372  5.8376e-001 -3.1429e-002 -3.7029e-002 34951 94395,94127,94075
 1.0500e+001 94349  8.9437e-001 -3.0646e-002  3.5438e-002 34951 94395,94075,94231
 1.0500e+001 94326  2.7943e-001 -3.7820e-001 -1.3101e-001 34951 94049,94231,94075
 1.0500e+001 94303 -9.4911e-003 -1.4380e-001  3.8219e-001 34951 94075,94127,94101
 1.0500e+001 94280  1.1499e+000  3.4872e-001  4.4281e-001 34951 94127,94205,94153
 1.0500e+001 94257  1.0776e+000  7.5823e-002  4.8143e-001 34951 94153,94205,94179
 1.0500e+001 94421  8.4335e-001 -1.8442e-001  1.6860e-001 34951 94205,94127,94395
 1.0500e+001 94444  1.4393e+000 -1.2642e-002  2.1277e-001 34951 94205,94395,94231
 1.0500e+001 94692  1.6173e-002 -7.6608e-002 -5.0712e-003 34397 94715,94519,94467
 1.0500e+001 94669  1.2910e-002 -5.0846e-002  1.1262e-003 34397 94715,94467,94597
 1.0500e+001 94646 -3.0385e-002 -6.1885e-002 -3.8228e-002 34397 94545,94597,94571
 1.0500e+001 94623 -3.4833e-002 -2.0632e-001  1.7280e-002 34397 94467,94519,94493
 1.0500e+001 94741 -6.1579e-003 -1.5474e-001 -1.8550e-002 34397 94545,94519,94715
 1.0500e+001 94764  2.6269e-002 -7.5495e-002 -8.1497e-003 34397 94545,94715,94597
 1.0500e+001 94985  6.6237e-002 -1.2353e-001 -4.9670e-004 33985 94835,94913,94887
 1.0500e+001 94962 -5.0690e-002 -4.4743e-001  7.7552e-002 33985 94809,94913,94835
 1.0500e+001 94939  7.5863e-003 -1.2944e-001  5.9083e-003 33985 94835,94887,94861
 1.0500e+001 95186 -3.2461e-001 -6.4600e-001 -2.9200e-001 33645 95281,95209,95036
 1.0500e+001 95163  7.1576e-002 -8.0445e-001  1.7085e-002 33645 95209,95010,95088
 1.0500e+001 95140  2.3014e-001 -4.8553e-001 -6.8472e-002 33645 95010,95114,95088
 1.0500e+001 95235 -5.4993e-001 -7.1017e-001 -2.5153e-001 33645 95062,95036,95209
 1.0500e+001 95258 -4.4782e-001 -1.0062e+000  2.6319e-001 33645 95413,95209,95088
 1.0500e+001 95307 -5.0608e-002 -3.1321e-001 -4.1978e-001 33645 95010,95209,95281
 1.0500e+001 95439 -2.7161e-001 -7.4724e-001  1.6932e-001 33645 95062,95209,95413
 1.0500e+001 95766 -4.6040e-001  5.9582e-003 -5.2460e-001 33141 95789,95593,95567
 1.0500e+001 95743 -1.5948e-001 -2.4199e-001 -1.8558e-001 33141 95861,95789,95567
 1.0500e+001 95720 -1.8903e-001 -1.7546e-001 -6.0568e-002 33141 95861,95567,95671
 1.0500e+001 95697 -1.7938e-001 -2.6131e-001 -8.7489e-002 33141 95541,95671,95567
 1.0500e+001 95815 -2.0214e-001  6.5769e-001 -4.6831e-001 33141 95619,95593,95789
 1.0500e+001 95838 -1.0672e-001  8.4017e-002 -1.9252e-001 33141 95619,95789,95645
 1.0500e+001 95887 -5.9105e-002 -1.9386e-002 -2.0694e-001 33141 95645,95789,95861
 1.0500e+001 95910 -1.0078e-001  4.1680e-002 -6.5432e-002 33141 95645,95861,95671
 1.0500e+001 96060 -5.3108e-001 -4.2413e-001 -2.7289e-001 32487 95959,96011,95985
 1.0500e+001 96037 -1.9280e-001 -4.4147e-001 -5.3639e-002 32487 95933,96011,95959
 1.0500e+001 96570 -3.2663e-001 -3.9767e-001  1.1971e-001 32033 96665,96593,96377
 1.0500e+001 96547 -4.0275e-001 -1.3841e-001 -2.5789e-001 32033 96737,96593,96325
 1.0500e+001 96524 -3.9271e-001 -4.8560e-001  6.4381e-002 32033 96665,96377,96351
 1.0500e+001 96501 -3.9053e-001  7.1169e-003 -2.2465e-001 32033 96737,96325,96299
 1.0500e+001 96478 -4.3641e-001 -1.7708e-001 -2.8360e-001 32033 96247,96429,96299
 1.0500e+001 96455 -6.6763e-001 -8.9362e-001 -2.9916e-001 32033 96247,96299,96273
 1.0500e+001 96619  2.4004e-002 -1.9787e-001  7.1666e-002 32033 96809,96593,96403
 1.0500e+001 96642  2.5745e-001  4.2301e-001 -5.9240e-001 32033 96403,96593,96429
 1.0500e+001 96691 -1.1833e-001 -6.1677e-001 -1.8174e-002 32033 96325,96593,96665
 1.0500e+001 96714 -2.9879e-001 -7.8639e-001 -1.0214e-001 32033 96325,96665,96351
 1.0500e+001 96763 -4.1475e-001 -2.1602e-001 -3.2443e-001 32033 96429,96593,96737
 1.0500e+001 96786 -4.0884e-001 -1.2148e-001 -2.7444e-001 32033 96429,96737,96299
 1.0500e+001 96835 -1.6576e-001 -2.9040e-001  3.3856e-002 32033 96377,96593,96809
 1.0500e+001 97064 -5.6686e-002 -8.2626e-002 -4.1297e-002 31671 97087,96989,96963
 1.0500e+001 97041 -9.1588e-003 -9.1333e-002  3.8247e-002 31671 97087,96963,96937
 1.0500e+001 97113  4.3658e-002 -9.4580e-002 -1.2622e-002 31671 97159,97087,97015
 1.0500e+001 97136 -1.8808e-002 -8.8261e-002 -1.2828e-003 31671 97015,97087,96937
 1.0500e+001 97185  4.8038e-003  4.9550e-002 -2.5382e-002 31671 96989,97087,97159
 1.0500e+001 97563  7.1778e-004 -1.0612e-001  5.9797e-003 31117 97586,97367,97341
 1.0500e+001 97540  7.6276e-003 -1.3275e-001 -1.7277e-002 31117 97658,97586,97341
 1.0500e+001 97517  4.9738e-003 -1.2349e-001 -1.8222e-002 31117 97658,97341,97315
 1.0500e+001 97494  4.3865e-002 -1.0975e-001 -3.3898e-002 31117 97289,97445,97315
 1.0500e+001 97471 -5.1032e-002 -1.1535e-002 -1.9399e-002 31117 97367,97419,97393
 1.0500e+001 97612 -6.5245e-002 -1.9744e-001  3.5894e-002 31117 97419,97367,97586
 1.0500e+001 97635  4.3524e-003 -1.2912e-001 -1.8805e-002 31117 97419,97586,97445
 1.0500e+001 97684  7.7646e-003 -1.2075e-001 -2.2161e-002 31117 97445,97586,97658
 1.0500e+001 97707  5.2844e-003 -1.1086e-001 -2.2690e-002 31117 97445,97658,97315
 1.0500e+001 98215 -2.1767e-001 -1.2543e-001 -2.6982e-001 30563 98238,97996,97944
 1.0500e+001 98192 -3.6688e-001 -1.0509e-001 -2.7539e-001 30563 98310,98238,97944
 1.0500e+001 98169 -5.2066e-001 -3.8767e-001 -3.3566e-001 30563 98310,97944,97918
 1.0500e+001 98146 -1.1354e-001 -1.9827e-001 -4.6714e-002 30563 97892,98074,97918
 1.0500e+001 98123 -1.2418e-001  8.7018e-002 -1.8550e-001 30563 97996,98048,98022
 1.0500e+001 98100 -3.7019e-001 -7.2365e-002 -4.3792e-001 30563 97944,97996,97970
 1.0500e+001 98264 -2.4847e-001 -7.9697e-002 -2.4873e-001 30563 98048,97996,98238
 1.0500e+001 98287 -1.4619e-001  2.1675e-001 -7.8646e-003 30563 98048,98238,98074
 1.0500e+001 98336 -2.9896e-001 -2.2227e-001 -7.0506e-002 30563 98074,98238,98310
 1.0500e+001 98359 -3.6018e-001 -2.9270e-001 -1.0224e-001 30563 98074,98310,97918
 1.0500e+001 98607 -7.2193e-001  2.8648e-002 -7.8441e-004 30073 98630,98460,98408
 1.0500e+001 98584 -1.0334e+000 -3.3176e-002 -6.0353e-002 30073 98630,98408,98382
 1.0500e+001 98561 -3.5187e-001  9.0922e-002 -1.5273e-001 30073 98382,98512,98486
 1.0500e+001 98538 -5.4303e-001 -5.1418e-002  1.4749e-001 30073 98408,98460,98434
 1.0500e+001 98656 -5.5673e-001 -1.0647e-001 -6.3982e-002 30073 98486,98460,98630
 1.0500e+001 98679 -7.6358e-001 -8.6438e-002 -1.1444e-001 30073 98486,98630,98382
 1.0500e+001 99157  3.6580e-001 -2.4757e-001  2.0856e-001 29669 99180,98837,98811
 1.0500e+001 99134  3.8216e-001 -1.4241e-001  2.3340e-001 29669 99324,99180,98811
 1.0500e+001 99111  4.9621e-001  3.1313e-001 -1.9499e-001 29669 99252,98863,98837
 1.0500e+001 99088  3.0739e-001 -3.9525e-001  3.1269e-001 29669 99324,98811,98993
 1.0500e+001 99065 -3.5542e-001  6.0393e-001  1.5606e-001 29669 98863,98941,98915
 1.0500e+001 99042 -1.5484e-001  5.0504e-001  2.6061e-001 29669 98863,98915,98889
 1.0500e+001 99019 -6.6298e-002 -5.1311e-001  5.3504e-001 29669 98785,98993,98811
 1.0500e+001 99206  3.8032e-001 -2.2878e-001 -5.0907e-003 29669 99252,98837,99180
 1.0500e+001 99229  4.0074e-002  7.8388e-002  1.9750e-001 29669 98941,99180,98967
 1.0500e+001 99278  2.0106e-001  7.2506e-001 -1.2480e-001 29669 98941,98863,99252
 1.0500e+001 99301  3.1298e-001  4.7990e-001  7.8299e-002 29669 98941,99252,99180
 1.0500e+001 99350  2.6926e-001  1.7267e-001  1.9342e-001 29669 98967,99180,99324
 1.0500e+001 99373  2.6878e-001 -2.1114e-002  2.3241e-001 29669 98967,99324,98993
 1.0500e+001 99958  4.3628e-001  6.3136e-001  1.6446e-001 29051 99981,99765,99739
 1.0500e+001 99935  6.7061e-002  3.5612e-002  6.6854e-003 29051 99981,99739,99661
 1.0500e+001 99912  4.2443e-001 -6.6235e-001 -2.4927e-001 29051 99765,99817,99791
 1.0500e+001 99889 -4.5881e-001 -4.7365e-001  3.7146e-001 29051 99635,99817,99661
 1.0500e+001 99866 -7.5280e-001 -1.9963e-002  6.0411e-001 29051 99661,99739,99687
 1.0500e+001 99843 -1.0110e+000  2.1936e-001  3.2567e-001 29051 99687,99739,99713
 1.0500e+001 100007  6.3635e-001  5.8603e-002  2.2444e-001 29051 99817,99765,99981
 1.0500e+001 100030  4.8401e-001 -2.2350e-001  1.5534e-001 29051 99817,99981,99661
 1.0500e+001 100278  6.2609e-001  3.0632e-001  5.1985e-002 28525 100445,100301,100131
 1.0500e+001 100255  1.5724e-001  2.7071e-001 -3.7495e-002 28525 100373,100301,100079
 1.0500e+001 100232  1.2688e-001 -9.2619e-002  8.9871e-003 28525 100373,100079,100053
 1.0500e+001 100209  4.4450e-001  4.9962e-001 -1.3150e-001 28525 100445,100131,100105
 1.0500e+001 100327  1.3623e+000  1.0211e-001  2.3946e-002 28525 100517,100301,100157
 1.0500e+001 100350  4.0168e-001  1.9021e-001 -2.7320e-001 28525 100157,100301,100183
 1.0500e+001 100399  1.4597e-001 -1.0852e-001  1.4917e-001 28525 100183,100301,100373
 1.0500e+001 100422  1.9787e-001 -3.6637e-001  1.9263e-001 28525 100183,100373,100053
 1.0500e+001 100471  3.8329e-001  1.2019e-001 -1.6958e-001 28525 100079,100301,100445
 1.0500e+001 100494 -7.4137e-002  8.0097e-002 -3.8870e-001 28525 100079,100445,100105
 1.0500e+001 100543  1.0006e+000  4.7923e-002 -8.8801e-002 28525 100131,100301,100517
 1.0500e+001 101209 -1.4408e+000  1.4375e-001  1.5249e-002 28185 100938,101016,100990
 1.0500e+001 101186 -1.5101e+000 -1.3442e-001 -1.5427e-001 28185 100912,101016,100938
 1.0500e+001 101163 -5.1825e-001  1.7610e-001 -3.4281e-002 28185 100912,101068,101016
 1.0500e+001 101140 -1.8744e+000 -5.3792e-001 -3.9250e-001 28185 100886,101068,100912
 1.0500e+001 101117 -5.6558e-001  4.1662e-002 -2.6265e-002 28185 101016,101068,101042
 1.0500e+001 101094 -3.5100e+000 -5.1979e-001  3.0527e-002 28185 100938,100990,100964
 1.0500e+001 101408  4.9390e-002 -1.2525e-001 -2.3933e-001 27781 101503,101431,101310
 1.0500e+001 101385 -2.6521e-001  2.7551e-001 -5.0587e-001 27781 101431,101258,101232
 1.0500e+001 101362  1.5217e-001 -1.7540e-001 -2.9085e-001 27781 101503,101310,101284
 1.0500e+001 101457  6.9434e-001  2.3124e-001 -3.8063e-001 27781 101336,101310,101431
 1.0500e+001 101480  1.1261e-001  4.9177e-001 -6.6599e-001 27781 101575,101431,101232
 1.0500e+001 101529  2.6801e-001 -2.9832e-002 -4.5735e-001 27781 101258,101431,101503
 1.0500e+001 101552  1.0059e-001 -3.6817e-001 -2.8306e-001 27781 101705,101503,101284
 1.0500e+001 101601  2.5614e-001  6.8056e-001 -7.4236e-001 27781 101336,101431,101575
 1.0500e+001 101731 -1.4875e-001 -2.1150e-001 -4.3426e-001 27781 101258,101503,101705
 1.0500e+001 102237 -7.4727e-001 -3.0148e-001  5.0430e-002 27419 102476,102260,101992
 1.0500e+001 102214 -5.2782e-001 -4.3986e-001 -4.3674e-002 27419 102260,101940,101914
 1.0500e+001 102191 -8.0573e-001 -5.1142e-001  8.4008e-002 27419 102404,102332,102096
 1.0500e+001 102168 -7.1906e-001 -4.7542e-001  4.0955e-003 27419 102404,102096,102044
 1.0500e+001 102145 -7.0609e-001 -3.3388e-001  7.5183e-002 27419 102476,101992,101966
 1.0500e+001 102122 -5.2026e-001 -5.0244e-001 -1.6992e-002 27419 102044,102096,102070
 1.0500e+001 102286 -9.5425e-001 -5.0142e-001  1.4422e-001 27419 102018,101992,102260
 1.0500e+001 102309 -7.5853e-001 -3.9981e-001  4.5151e-003 27419 102332,102018,102260
 1.0500e+001 102358 -8.1924e-001 -8.0402e-001  2.1106e-001 27419 101914,102096,102332
 1.0500e+001 102381 -7.0482e-001 -5.8124e-001  3.9222e-002 27419 101914,102332,102260
 1.0500e+001 102430 -6.3429e-001 -4.9222e-001 -1.1861e-002 27419 102018,102332,102404
 1.0500e+001 102453 -5.6549e-001 -4.3278e-001 -1.0041e-001 27419 102018,102404,102044
 1.0500e+001 102502 -6.4043e-001 -3.8616e-001  7.7202e-002 27419 101940,102260,102476
 1.0500e+001 102525 -1.8494e-001 -1.7671e-001  2.5184e-002 27419 101940,102476,101966
 1.0500e+001 103031 -1.1151e+000  7.7885e-001  8.4476e-001 26715 102708,102786,102760
 1.0500e+001 103008 -9.0111e-002 -3.9807e-001  1.7866e-001 26715 102708,102890,102786
 1.0500e+001 102985  1.0181e+000 -7.9613e-001  1.7089e-001 26715 102838,102890,102864
 1.0500e+001 102962  3.3785e-001  7.4034e-001  1.8627e-001 26715 102786,102890,102838
 1.0500e+001 102939  1.5403e+000  1.3258e+000  7.6452e-001 26715 102786,102838,102812
 1.0500e+001 102916 -1.7283e+000 -5.4265e-002  3.0680e-001 26715 102708,102760,102734
 1.0500e+001 103279 -6.5436e-003 -5.0636e-003 -1.2495e-002 26303 103302,103158,103080
 1.0500e+001 103256  1.0358e-002 -2.6272e-002 -1.4810e-002 26303 103302,103080,103054
 1.0500e+001 103233  4.9480e-002  2.2759e-002 -8.5750e-004 26303 103080,103158,103106
 1.0500e+001 103210 -5.8894e-002 -1.3049e-002 -7.2956e-003 26303 103106,103158,103132
 1.0500e+001 103328 -4.0523e-002 -1.8313e-002 -6.5452e-003 26303 103184,103158,103302
 1.0500e+001 103351 -4.5302e-003 -2.3756e-002 -1.2211e-002 26303 103184,103302,103054
 1.0500e+001 103501 -8.6170e-001 -3.7125e-001  5.1882e-002 25849 103374,103426,103400
 1.0500e+001 103478 -7.8052e-001 -4.5084e-001  1.3639e-002 25849 103374,103452,103426
 1.0500e+001 104090 -9.4685e-002  8.8927e-002  8.5944e-002 25445 103793,103871,103819
 1.0500e+001 104067  1.2349e-001 -2.4691e-002 -6.0598e-003 25445 103793,103949,103871
 1.0500e+001 104044  2.0275e-001  1.4118e-001  1.7173e-002 25445 103871,103949,103923
 1.0500e+001 104021 -1.2410e-001  1.5518e-001 -5.4361e-002 25445 103819,103871,103845
 1.0500e+001 103998  1.1045e-001  6.3972e-002  1.7152e-001 25445 103767,103949,103793
 1.0500e+001 103975  2.3486e-001  1.0605e-001  1.0154e-002 25445 103871,103923,103897
 1.0500e+001 104419 -4.1263e-001 -2.0031e-001 -1.1094e-001 25083 104220,104298,104272
 1.0500e+001 104396 -6.8877e-001 -4.8694e-001  1.7507e-003 25083 104220,104324,104298
 1.0500e+001 104373 -3.4121e-001 -2.4298e-001 -3.8662e-002 25083 104220,104272,104246
 1.0500e+001 104350 -6.8745e-001 -4.5911e-001  1.0260e-002 25083 104194,104324,104220
 1.0500e+001 105102 -3.8825e-002 -2.6361e-001 -8.9740e-002 24793 104785,104863,104837
 1.0500e+001 105079 -9.7976e-002 -5.4856e-001 -2.6437e-001 24793 104759,104863,104785
 1.0500e+001 105056 -1.4086e-001 -1.5666e-001 -2.6527e-001 24793 104759,104915,104863
 1.0500e+001 105033 -1.9615e-001 -1.8972e-001 -2.2896e-001 24793 104733,104915,104759
 1.0500e+001 105010  8.5247e-002 -5.8209e-002 -2.7744e-001 24793 104863,104915,104889
 1.0500e+001 104987 -3.1293e-001 -4.9734e-002 -3.2160e-001 24793 104681,104915,104733
 1.0500e+001 104964 -1.4076e-001 -3.6097e-001 -1.4219e-001 24793 104785,104837,104811
 1.0500e+001 104941 -2.3036e-001  2.2399e-001 -3.2182e-001 24793 104681,104733,104707
 1.0500e+001 105252  8.4961e-001  9.3786e-001 -6.1965e-002 24389 105477,105275,105177
 1.0500e+001 105229  6.5806e-001  8.4715e-001 -1.2217e-002 24389 105347,105275,105151
 1.0500e+001 105301  8.9373e-001  7.7631e-001 -8.8994e-002 24389 105203,105177,105275
 1.0500e+001 105324  9.4005e-001  9.1082e-001 -2.2373e-002 24389 105203,105275,105125
 1.0500e+001 105373  8.2990e-001  6.2994e-001 -4.8624e-003 24389 105125,105275,105347
 1.0500e+001 105503  9.1645e-001  9.6148e-001  1.6729e-002 24389 105151,105275,105477
 1.0500e+001 106088 -6.1794e-001  3.7404e-001  5.5245e-001 23735 105791,105921,105895
 1.0500e+001 106065 -1.8612e+000 -9.4623e-002  5.9456e-001 23735 105765,105921,105791
 1.0500e+001 106042 -4.8039e-001  5.2593e-001  3.0846e-001 23735 105765,105947,105921
 1.0500e+001 106019 -2.1197e+000 -4.4744e-002  7.8979e-001 23735 105817,105895,105869
 1.0500e+001 105996 -1.3349e+000  1.4651e-001  6.7610e-001 23735 105791,105895,105817
 1.0500e+001 105973 -1.0918e+000  5.5786e-002  6.5413e-001 23735 105817,105869,105843
 1.0500e+001 106417  5.3864e-001  1.7135e+000 -3.8655e-001 23295 106218,106296,106270
 1.0500e+001 106394  1.5529e-001  5.0741e-001 -2.8680e-001 23295 106218,106322,106296
 1.0500e+001 106371 -4.5412e-002  3.2373e-001 -3.5988e-001 23295 106218,106270,106244
 1.0500e+001 106348  3.2836e-001  5.8125e-001 -1.3581e-001 23295 106192,106322,106218
 1.0500e+001 106746 -1.5274e-001  4.7944e-001  1.6138e-001 23005 106521,106599,106547
 1.0500e+001 106723  3.5315e-001  6.8566e-001  1.5377e-002 23005 106521,106651,106599
 1.0500e+001 106700  2.0979e-001  4.8997e-001  2.9942e-002 23005 106547,106599,106573
 1.0500e+001 106677  4.8256e-001  6.4418e-001  3.4791e-001 23005 106599,106651,106625
 1.0500e+001 107331 -3.2028e-001  1.5695e-001 -1.7760e-001 22601 107060,107190,107138
 1.0500e+001 107308 -1.2172e+000  1.1046e-001 -4.7841e-001 22601 107034,107190,107060
 1.0500e+001 107285 -1.4396e+000 -3.5093e-001 -4.2061e-001 22601 107060,107138,107112
 1.0500e+001 107262 -1.7142e+000 -1.7633e-002 -3.0886e-001 22601 107008,107190,107034
 1.0500e+001 107239 -9.2953e-001 -6.7113e-001 -3.9472e-001 22601 107060,107112,107086
 1.0500e+001 107216 -5.0602e-001  4.8675e-001 -4.5343e-003 22601 107138,107190,107164
 1.0500e+001 107807 -5.8131e-001  3.6038e-003 -8.6563e-002 22031 107974,107902,107617
 1.0500e+001 107784 -6.8021e-001  2.5087e-001 -2.2035e-001 22031 107830,107565,107513
 1.0500e+001 107761 -4.6809e-001 -4.3620e-002 -2.5269e-001 22031 108046,107830,107513
 1.0500e+001 107738 -4.7109e-001  1.9523e-001  1.6823e-002 22031 107974,107617,107591
 1.0500e+001 107715 -5.0339e-001 -1.6073e-001 -2.2252e-001 22031 108046,107513,107461
 1.0500e+001 107692 -1.5044e+000  4.2989e-001 -3.9035e-001 22031 107513,107565,107539
 1.0500e+001 107669 -2.8867e-001  1.6037e-001 -3.2846e-001 22031 107461,107513,107487
 1.0500e+001 107856 -7.9415e-001  1.1527e-001 -1.4931e-001 22031 107902,107565,107830
 1.0500e+001 107879 -5.5005e-001 -2.2143e-001 -2.1094e-002 22031 107643,107830,107435
 1.0500e+001 107928 -1.0533e+000  2.9174e-001 -4.1584e-001 22031 107643,107617,107902
 1.0500e+001 107951 -7.6340e-001  9.7360e-002  2.3474e-002 22031 107643,107902,107830
 1.0500e+001 108000 -7.1052e-001  2.7554e-001 -1.0970e-001 22031 107565,107902,107974
 1.0500e+001 108023 -6.9040e-001  2.1613e-001 -8.5311e-002 22031 107565,107974,107591
 1.0500e+001 108072 -4.2890e-001 -1.9411e-001 -9.0252e-002 22031 107435,107830,108046
 1.0500e+001 108095 -5.0382e-001 -3.7998e-001 -5.9504e-002 22031 107435,108046,107461
 1.0500e+001 108196 -1.3113e-002 -4.8443e-002 -4.2670e-002 21783 108118,108170,108144
 1.0500e+001 108655  1.5628e-001  9.0840e-001  5.2614e-001 21379 108407,108485,108459
 1.0500e+001 108632  1.7936e+000  4.8849e-002  7.1253e-001 21379 108407,108511,108485
 1.0500e+001 108609  1.8322e+000 -2.0491e-002  6.1613e-001 21379 108381,108511,108407
 1.0500e+001 108586  6.7966e-001  6.2383e-001 -3.7704e-001 21379 108381,108537,108511
 1.0500e+001 108563  4.6992e-001  1.2630e-001  2.4060e-001 21379 108407,108459,108433
 1.0500e+001 109082  1.6001e-001  5.4213e-002 -4.1352e-002 20974 109105,108863,108811
 1.0500e+001 109059  3.4397e-002 -9.4843e-003  2.1082e-002 20974 109105,108811,108759
 1.0500e+001 109036  5.1037e-002  5.9204e-001 -3.7665e-001 20974 109177,108889,108863
 1.0500e+001 109013  3.7317e-002 -6.4537e-002  8.2126e-003 20974 108811,108863,108837
 1.0500e+001 108990 -6.8483e-002 -9.7964e-002 -4.6923e-002 20974 108759,108941,108915
 1.0500e+001 108967 -1.4531e-002 -1.4781e-001  1.7693e-002 20974 108759,108811,108785
 1.0500e+001 109131  3.1235e-001  3.2955e-001 -1.8035e-001 20974 109177,108863,109105
 1.0500e+001 109154  9.4481e-002 -1.0389e-001 -2.6055e-002 20974 108915,109105,108759
 1.0500e+001 109203 -2.0593e-001  3.7021e-001 -2.0126e-001 20974 108915,108889,109177
 1.0500e+001 109226 -6.0631e-002 -9.2143e-002  1.1349e-002 20974 108915,109177,109105
 1.0500e+001 109496 -8.0535e-001 -4.6416e-004 -6.1483e-002 20470 109271,109375,109297
 1.0500e+001 109473 -7.5414e-001  9.4615e-002 -1.0869e-001 20470 109271,109401,109375
 1.0500e+001 109450 -9.3640e-001 -1.7878e-001 -1.2472e-001 20470 109297,109375,109349
 1.0500e+001 109427 -1.2509e+000 -8.2262e-001  2.2863e-001 20470 109297,109349,109323
 1.0500e+001 109955  1.3866e-001  1.4117e+000  8.6760e-001 20123 110050,109733,109707
 1.0500e+001 109932 -6.9295e-001  6.2446e-001  4.7908e-001 20123 110050,109707,109681
 1.0500e+001 109909  8.1653e-002  2.8425e-001  5.2565e-001 20123 109978,109759,109733
 1.0500e+001 109886 -2.0073e-001  2.0319e-001  4.9432e-001 20123 110122,109978,109733
 1.0500e+001 109863  1.7514e-001  1.7853e-001  2.7832e-001 20123 109785,109837,109811
 1.0500e+001 110004  7.1628e-002  3.2285e-001  3.8099e-001 20123 109785,109759,109978
 1.0500e+001 110027 -4.3274e-002  2.3271e-001  2.9633e-001 20123 109785,109978,109837
 1.0500e+001 110076 -3.5741e-001  4.4006e-001  3.9609e-001 20123 110122,109733,110050
 1.0500e+001 110099 -3.3020e-001  3.5550e-001  9.9044e-002 20123 109837,110050,109681
 1.0500e+001 110148  1.0237e-001  5.4368e-001  3.5696e-001 20123 109837,109978,110122
 1.0500e+001 110171 -4.3063e-002  7.4459e-001  2.5413e-001 20123 109837,110122,110050
 1.0500e+001 110500  8.3583e-001  1.7932e-001 -2.1898e-001 19511 110301,110379,110353
 1.0500e+001 110477  1.3901e+000  7.3785e-001 -4.5405e-001 19511 110301,110405,110379
 1.0500e+001 110454  2.9017e-001  1.9968e-001 -2.5362e-001 19511 110275,110405,110301
 1.0500e+001 110431  7.3670e-001  2.9620e-001  2.9469e-001 19511 110301,110353,110327
 1.0500e+001 110957  2.9056e-001  1.2690e+000 -4.3692e-001 19107 110683,110735,110709
 1.0500e+001 110934  2.2329e-001  3.6504e-002 -7.2544e-001 19107 110683,110813,110735
 1.0500e+001 110911  5.8343e-001  8.1607e-001 -6.0321e-001 19107 110735,110813,110761
 1.0500e+001 110888 -2.4726e-001 -3.1656e-001 -4.4027e-001 19107 110683,110839,110813
 1.0500e+001 110865  3.9277e-001  2.9664e-001 -7.0830e-001 19107 110761,110813,110787
 1.0500e+001 111335  1.1036e-002 -6.1068e-001  5.8783e-002 18653 111087,111165,111139
 1.0500e+001 111312  4.3183e-002 -1.7102e-001 -6.9302e-002 18653 111087,111217,111165
 1.0500e+001 111289 -2.3836e-001 -3.3898e-001  2.5506e-001 18653 111061,111217,111087
 1.0500e+001 111266  3.7096e-001 -5.0706e-001  5.4580e-001 18653 111087,111139,111113
 1.0500e+001 111243  1.8312e-002 -1.7067e-001 -1.5179e-001 18653 111165,111217,111191
 1.0500e+001 111735 -1.1094e+000 -4.7030e-001 -2.2662e-002 18213 111461,111513,111487
 1.0500e+001 111712 -1.1885e+000 -8.3820e-001  1.8796e-002 18213 111461,111617,111513
 1.0500e+001 111689 -1.1325e+000 -7.4468e-001 -1.3871e-001 18213 111513,111617,111591
 1.0500e+001 111666 -5.0882e-001 -3.7956e-001  8.6099e-002 18213 111513,111591,111539
 1.0500e+001 111643 -2.5599e-001 -3.9546e-001  1.2129e-002 18213 111539,111591,111565
 1.0500e+001 111885  1.2369e-001 -1.6368e+000  1.0197e-001 17659 111784,111836,111810
 1.0500e+001 111862  9.8007e-001 -7.4459e-001  4.8415e-001 17659 111758,111836,111784
 1.0500e+001 112287 -7.0863e-002 -6.7390e-001 -4.3805e-001 17411 112065,112169,112143
 1.0500e+001 112264 -1.0968e+000 -5.0767e-001 -1.7714e-001 17411 112039,112169,112065
 1.0500e+001 112241 -1.1605e+000 -2.9113e-001 -5.3896e-001 17411 112013,112169,112039
 1.0500e+001 112218  3.2829e+000 -2.3744e-001 -8.4533e-001 17411 112091,112143,112117
 1.0500e+001 112195 -2.4867e-002 -1.0052e+000 -1.2019e-002 17411 112065,112143,112091
 1.0500e+001 112508 -8.0327e-001  3.4696e-001  7.9585e-002 17007 112384,112436,112410
 1.0500e+001 112485 -6.3831e-001  5.0195e-001  1.4649e-001 17007 112332,112436,112384
 1.0500e+001 112462 -7.9293e-001  2.0090e-001  9.1631e-002 17007 112332,112384,112358
 1.0500e+001 112658 -1.7370e+000 -4.7477e-001  3.4655e-001 16553 112557,112609,112583
 1.0500e+001 112635 -1.8940e+000 -2.3924e-001  4.2358e-001 16553 112531,112609,112557
 1.0500e+001 112761  9.7769e-002 -1.3934e-001  9.2928e-003 16355 112683,112735,112709
 1.0500e+001 112913 -1.2130e+000  4.8210e-001  6.5080e-002 15949 112786,112838,112812
 1.0500e+001 112890 -6.5049e-001  1.4456e+000 -2.0328e-001 15949 112786,112864,112838
 1.0500e+001 113065  8.2794e-002 -3.5637e-002 -1.7685e-003 15609 112938,112990,112964
 1.0500e+001 113042  3.8479e-002 -1.5900e-001 -6.1304e-002 15609 112938,113016,112990
 1.0500e+001 113420  5.8865e-001  5.0730e-001  2.2417e-001 15284 113247,113325,113299
 1.0500e+001 113397  5.5474e-001  4.2292e-001  1.2362e-001 15284 113195,113325,113247
 1.0500e+001 113374  3.8520e-001  3.8518e-001  6.6835e-002 15284 113195,113247,113221
 1.0500e+001 113351  5.5891e-001  9.3550e-001  2.6001e-001 15284 113247,113299,113273
 1.0500e+001 113521 -6.3695e-001 -7.7378e-001  4.7899e-001 202 113443,113495,113469
 1.1000e+001 65564  8.2688e-002 -5.1265e-002 -1.4430e-002 65155 65414,65466,65440
 1.1000e+001 65541  5.8232e-002 -5.7773e-002  4.2982e-003 65155 65414,65492,65466
 1.1000e+001 65518  3.5931e-002 -7.8298e-002  2.8182e-002 65155 65388,65492,65414
 1.1000e+001 65883  8.4032e-002 -6.2798e-001  1.7237e-002 64957 65635,65739,65713
 1.1000e+001 65860  9.9065e-002 -7.5958e-001 -1.3407e-002 64957 65635,65765,65739
 1.1000e+001 65837 -7.3454e-002 -8.4046e-001  8.6809e-003 64957 65609,65765,65635
 1.1000e+001 65814  9.7900e-002 -6.5253e-001  1.4497e-001 64957 65635,65713,65687
 1.1000e+001 65791 -6.2587e-002 -6.4179e-001  1.6850e-001 64957 65635,65687,65661
 1.1000e+001 65984 -4.1497e-002 -1.7220e-001  6.5088e-002 64781 65906,65958,65932
 1.1000e+001 66232 -2.9704e-001 -3.5570e-001  3.2621e-001 64469 66007,66059,66033
 1.1000e+001 66209 -3.6422e-002 -4.5626e-001  3.3868e-001 64469 66007,66085,66059
 1.1000e+001 66186 -2.8350e-001 -9.8630e-001  5.4653e-001 64469 66007,66137,66085
 1.1000e+001 66163 -2.0988e-001 -1.1626e+000  9.1375e-001 64469 66085,66137,66111
 1.1000e+001 66504  1.8702e-003 -7.1617e-001  4.6329e-003 64271 66279,66383,66305
 1.1000e+001 66481  7.2762e-002 -7.1009e-001 -2.8311e-002 64271 66279,66409,66383
 1.1000e+001 66458  1.1865e-001 -8.6881e-001  4.8533e-004 64271 66305,66357,66331
 1.1000e+001 66435 -6.4125e-002 -7.5720e-001  3.3549e-002 64271 66305,66383,66357
 1.1000e+001 66705  3.4731e-001 -2.1603e+000  1.4620e-001 64073 66728,66581,66555
 1.1000e+001 66682  4.2675e-001 -1.5233e+000  3.1840e-001 64073 66728,66555,66529
 1.1000e+001 66659  1.5164e-001 -1.2508e+000 -2.6235e-001 64073 66581,66633,66607
 1.1000e+001 66754 -1.0409e-001 -1.5490e+000 -8.9618e-002 64073 66633,66581,66728
 1.1000e+001 66777  1.0433e-001 -7.3398e-001 -2.0017e-003 64073 66633,66728,66529
 1.1000e+001 66951 -6.1262e-002 -2.3364e-001 -4.2342e-002 63783 66824,66876,66850
 1.1000e+001 66928  2.1168e-001 -2.5142e-001  6.5843e-002 63783 66824,66902,66876
 1.1000e+001 67201 -5.8523e-001 -9.9277e-001 -7.8805e-002 63585 66976,67080,67054
 1.1000e+001 67178 -7.6207e-002 -7.8611e-001  2.5654e-002 63585 66976,67106,67080
 1.1000e+001 67155 -2.0567e-002 -1.3223e+000 -3.9497e-001 63585 66976,67054,67028
 1.1000e+001 67132 -1.8363e-001 -1.6679e+000 -4.9793e-001 63585 66976,67028,67002
 1.1000e+001 67654  4.1438e-002 -5.2138e-001 -1.5930e-002 63295 67357,67487,67383
 1.1000e+001 67631  3.6363e-002 -6.2907e-001  4.5918e-002 63295 67331,67487,67357
 1.1000e+001 67608 -4.0702e-002 -7.0464e-001 -7.2334e-003 63295 67331,67513,67487
 1.1000e+001 67585 -6.3148e-003 -6.9552e-001 -1.1987e-002 63295 67435,67487,67461
 1.1000e+001 67562 -4.5373e-002 -7.2698e-001  7.7904e-003 63295 67383,67487,67435
 1.1000e+001 67539  1.9161e-002 -7.1857e-001  2.0432e-002 63295 67383,67435,67409
 1.1000e+001 67853 -7.6287e-002 -8.0404e-001  1.0162e-002 62891 67876,67703,67677
 1.1000e+001 67830 -3.1916e-002 -7.3147e-001 -8.9138e-003 62891 67876,67677,67781
 1.1000e+001 67807 -1.5602e-002 -7.1868e-001 -9.3148e-002 62891 67948,67729,67703
 1.1000e+001 67902 -2.8184e-002 -8.0242e-001 -3.2335e-002 62891 67948,67703,67876
 1.1000e+001 67925 -1.0240e-001 -7.4312e-001 -7.1949e-003 62891 67755,67876,67781
 1.1000e+001 67974 -5.9787e-002 -6.0317e-001 -8.8736e-002 62891 67755,67729,67948
 1.1000e+001 67997 -3.1254e-002 -6.4771e-001 -3.8337e-002 62891 67755,67948,67876
 1.1000e+001 68218  6.4426e-002 -6.2263e-002 -7.7437e-002 62693 68042,68120,68068
 1.1000e+001 68195 -1.1938e-003 -5.3820e-002  3.6992e-003 62693 68042,68146,68120
 1.1000e+001 68172 -2.3750e-001  1.8165e-001 -3.9358e-002 62693 68068,68120,68094
 1.1000e+001 68468  1.7171e-001 -4.6043e-002  2.1459e-002 62289 68491,68295,68269
 1.1000e+001 68445  1.8412e-002 -5.5516e-002 -1.0397e-001 62289 68563,68491,68269
 1.1000e+001 68422  5.3483e-002  4.1785e-002 -3.8037e-002 62289 68563,68269,68243
 1.1000e+001 68399 -2.4910e-001 -7.6917e-002  1.2066e-001 62289 68295,68347,68321
 1.1000e+001 68517  6.5916e-002 -1.9094e-001 -2.8691e-002 62289 68347,68295,68491
 1.1000e+001 68540 -2.0739e-001 -6.8328e-002 -1.5534e-001 62289 68347,68491,68373
 1.1000e+001 68589  2.9159e-002  1.3090e-001 -6.9176e-002 62289 68373,68491,68563
 1.1000e+001 68612  1.3216e-002  1.6665e-001 -6.9945e-003 62289 68373,68563,68243
 1.1000e+001 68911 -7.1237e-002 -7.6132e-001 -1.9152e-002 62091 69222,68934,68741
 1.1000e+001 68888  3.2425e-002 -7.1696e-001 -5.7616e-002 62091 69006,68934,68689
 1.1000e+001 68865  2.7402e-002 -7.3424e-001 -5.3914e-002 62091 69006,68689,68663
 1.1000e+001 68842 -8.3298e-002 -7.0385e-001 -8.2335e-002 62091 69078,68793,68767
 1.1000e+001 68819 -1.7900e-001 -8.2094e-001  9.5927e-002 62091 69222,68741,68715
 1.1000e+001 68960 -1.2689e-001 -7.3259e-001 -2.3401e-002 62091 68767,68741,68934
 1.1000e+001 68983 -4.6591e-002 -7.2758e-001 -3.1357e-002 62091 69078,68767,68934
 1.1000e+001 69032  4.2392e-002 -6.8883e-001 -3.4145e-002 62091 69150,69006,68637
 1.1000e+001 69055  3.4175e-002 -7.1464e-001 -4.1356e-002 62091 68637,69006,68663
 1.1000e+001 69104 -1.3813e-002 -5.4170e-001 -6.6522e-002 62091 68637,68793,69078
 1.1000e+001 69127  1.8701e-002 -6.5495e-001 -2.0532e-002 62091 69150,68637,69078
 1.1000e+001 69176  2.9516e-004 -7.3358e-001 -5.1646e-002 62091 68934,69006,69150
 1.1000e+001 69199 -3.1729e-002 -6.9470e-001 -3.8133e-002 62091 68934,69150,69078
 1.1000e+001 69248 -1.5255e-002 -6.5222e-001 -4.9503e-002 62091 68689,68934,69222
 1.1000e+001 69271 -3.4076e-002 -6.1546e-001  3.2666e-002 62091 68689,69222,68715
 1.1000e+001 69521 -2.7064e-001  1.2171e-001  3.9869e-002 61893 69544,69348,69296
 1.1000e+001 69498 -7.0853e-002  1.8022e-001  5.1802e-002 61893 69544,69296,69400
 1.1000e+001 69475  4.7015e-002  1.9285e-001  3.7075e-002 61893 69296,69426,69400
 1.1000e+001 69452 -2.9761e-001 -4.0662e-001 -1.7075e-002 61893 69296,69348,69322
 1.1000e+001 69570 -1.6617e-001  2.8405e-003  2.0613e-001 61893 69374,69348,69544
 1.1000e+001 69593  1.9406e-001  1.4551e-001  2.0374e-001 61893 69374,69544,69400
 1.1000e+001 70046  2.3185e-002 -5.5558e-001 -1.3591e-002 61467 69749,69905,69879
 1.1000e+001 70023  8.1572e-002 -4.3074e-001  1.1813e-001 61467 69723,69905,69749
 1.1000e+001 70000 -5.3052e-003 -6.2728e-001 -3.2010e-002 61467 70069,69827,69775
 1.1000e+001 69977 -7.7151e-002 -8.4618e-001  4.0976e-002 61467 70069,69775,69749
 1.1000e+001 69954 -4.7334e-002 -5.0251e-001 -2.9935e-002 61467 70141,69853,69827
 1.1000e+001 69931  6.2121e-003 -8.4655e-001 -2.5570e-001 61467 69775,69827,69801
 1.1000e+001 70095 -2.1459e-002 -5.3565e-001 -5.1652e-002 61467 70141,69827,70069
 1.1000e+001 70118  1.5512e-002 -6.1274e-001 -2.5958e-003 61467 69879,70069,69749
 1.1000e+001 70167 -2.6851e-002 -5.5232e-001 -2.7324e-002 61467 69879,69853,70141
 1.1000e+001 70190 -3.5463e-002 -6.3067e-001 -4.8844e-002 61467 69879,70141,70069
 1.1000e+001 70291 -6.3547e-002 -9.8001e-001 -1.1546e-001 61013 70213,70265,70239
 1.1000e+001 70441  1.5739e-001 -9.9140e-003 -4.9996e-002 60651 70340,70392,70366
 1.1000e+001 70418  1.4175e-001 -1.7680e-001 -1.9465e-002 60651 70314,70392,70340
 1.1000e+001 70642  6.3524e-002 -6.0390e-001 -7.7171e-002 60311 70665,70492,70466
 1.1000e+001 70619 -9.8161e-002 -9.8554e-001 -7.7179e-002 60311 70665,70466,70570
 1.1000e+001 70596 -2.6435e+000 -6.5581e-001  4.4728e-001 60311 70492,70544,70518
 1.1000e+001 70691 -1.7578e-002 -2.3085e-001  3.2520e-001 60311 70544,70492,70665
 1.1000e+001 70714 -2.6982e-001 -8.1835e-001  3.3711e-001 60311 70544,70665,70570
 1.1000e+001 70964  2.6733e-001 -1.0498e+000  7.0089e-002 59907 70987,70765,70739
 1.1000e+001 70941  2.8737e-001 -1.0152e+000 -3.1432e-002 59907 71059,70987,70739
 1.1000e+001 70918  1.8109e-001 -9.8558e-001  8.8082e-003 59907 71059,70739,70869
 1.1000e+001 70895  1.4890e-001 -7.9593e-001  3.8842e-003 59907 70817,70869,70843
 1.1000e+001 71013  9.0860e-001 -7.3287e-001  3.8807e-001 59907 70791,70765,70987
 1.1000e+001 71036  3.4115e-001 -1.2815e+000  1.3149e-001 59907 70791,70987,70817
 1.1000e+001 71085  1.5214e-001 -1.0524e+000 -5.8814e-002 59907 70817,70987,71059
 1.1000e+001 71108  9.7787e-002 -9.8942e-001 -3.9402e-002 59907 70817,71059,70869
 1.1000e+001 71441 -4.4825e-001 -7.3835e-001  5.7292e-001 59417 71464,71242,71216
 1.1000e+001 71418 -2.9094e-001 -4.5574e-001  7.6097e-001 59417 71464,71216,71320
 1.1000e+001 71395 -4.5111e-001 -2.3311e-001  8.1576e-001 59417 71216,71346,71320
 1.1000e+001 71372 -3.0137e-001 -8.4034e-001  3.7470e-001 59417 71268,71320,71294
 1.1000e+001 71490 -6.2206e-001 -7.7500e-001  2.7582e-001 59417 71268,71242,71464
 1.1000e+001 71513 -5.3659e-001 -3.7578e-001  4.5681e-001 59417 71268,71464,71320
 1.1000e+001 71712  6.7372e-001  1.7260e-001  1.7359e-001 58913 71562,71614,71588
 1.1000e+001 71689  3.5272e-001  3.0367e-001  3.7991e-001 58913 71536,71614,71562
 1.1000e+001 71666  2.2151e-001  1.4608e+000 -1.7143e-001 58913 71536,71640,71614
 1.1000e+001 72171 -8.5330e-001 -1.9427e+000  1.6532e-001 58409 72194,72027,72001
 1.1000e+001 72148 -8.0975e-001 -2.3706e+000 -2.3319e-002 58409 72194,72001,71949
 1.1000e+001 72125 -6.0338e-001 -1.4060e+000  4.1276e-002 58409 71923,72053,71949
 1.1000e+001 72102 -9.2755e-001 -2.2570e+000 -2.5160e-001 58409 71949,72001,71975
 1.1000e+001 72079 -4.2678e-001 -1.0038e+000  3.9828e-001 58409 71897,72053,71923
 1.1000e+001 72220 -7.0626e-001 -1.8002e+000  3.5509e-001 58409 72053,72027,72194
 1.1000e+001 72243 -6.4437e-001 -2.0689e+000  1.4351e-001 58409 72053,72194,71949
 1.1000e+001 72491  8.4052e-001  8.7987e-001  2.8076e-001 57855 72514,72318,72292
 1.1000e+001 72468  7.3088e-001  7.1657e-001  4.5601e-001 57855 72514,72292,72266
 1.1000e+001 72445  6.2259e-001  8.4554e-001  1.2021e-001 57855 72318,72396,72370
 1.1000e+001 72422 -1.6187e-001  3.6319e-001 -2.5111e-001 57855 72318,72370,72344
 1.1000e+001 72540  8.4708e-001  9.3494e-001  2.9309e-001 57855 72396,72318,72514
 1.1000e+001 72563  8.3722e-001  1.0220e+000  3.5078e-001 57855 72396,72514,72266
 1.1000e+001 72811 -5.0899e-001 -2.0859e+000  6.9288e-001 57401 72612,72690,72638
 1.1000e+001 72788 -1.6343e+000 -2.5552e+000  1.1434e+000 57401 72586,72690,72612
 1.1000e+001 72765  2.8411e+000 -3.4205e+000 -1.6820e-001 57401 72638,72690,72664
 1.1000e+001 72742  2.4557e-001 -1.0592e+000  4.8232e-001 57401 72586,72716,72690
 1.1000e+001 73144 -2.7216e-002 -8.1673e-001 -7.1620e-002 57004 72919,72997,72945
 1.1000e+001 73121 -1.2402e-001 -9.0270e-001 -3.5437e-002 57004 72919,73049,72997
 1.1000e+001 73098 -1.7181e-001 -6.6975e-001 -1.9656e-001 57004 72945,72997,72971
 1.1000e+001 73075 -8.0406e-002 -8.0893e-001 -2.4074e-002 57004 72997,73049,73023
 1.1000e+001 73650 -5.8636e-001 -4.0122e+000 -8.4113e-002 56592 73673,73379,73353
 1.1000e+001 73627 -1.0987e+000 -2.9670e+000  1.4782e+000 56592 73673,73353,73327
 1.1000e+001 73604  5.3355e-001 -1.9566e+000  1.1189e+000 56592 73745,73509,73483
 1.1000e+001 73581 -3.1772e-001 -2.1369e+000  2.4563e-001 56592 73379,73457,73405
 1.1000e+001 73558  1.1175e+000 -1.7711e+000  6.9781e-001 56592 73379,73483,73457
 1.1000e+001 73535  1.9419e+000 -9.9152e-001  7.0094e-001 56592 73405,73457,73431
 1.1000e+001 73699  1.7130e-001 -2.5547e+000  3.6155e-001 56592 73483,73379,73673
 1.1000e+001 73722  4.6064e-001 -2.7084e+000  1.3887e+000 56592 73745,73483,73673
 1.1000e+001 73771  2.5288e-001 -4.7392e-001  6.4056e-001 56592 73327,73509,73745
 1.1000e+001 73794 -1.6629e-001 -1.3738e+000  1.0949e+000 56592 73327,73745,73673
 1.1000e+001 74123  1.4415e-001 -5.5244e-002 -2.9396e-001 56152 74146,74002,73924
 1.1000e+001 74100  3.9445e-001  7.3093e-003 -2.6038e-001 56152 74146,73924,73898
 1.1000e+001 74077  8.7588e-001  2.6826e-001 -4.6645e-001 56152 73924,74002,73976
 1.1000e+001 74054  3.8733e-001 -8.3594e-001  5.3596e-001 56152 73924,73976,73950
 1.1000e+001 74172 -1.8477e-001  1.8694e-002 -1.0343e-001 56152 74028,74002,74146
 1.1000e+001 74195  2.2767e-001  9.4612e-002 -8.9392e-002 56152 74028,74146,73898
 1.1000e+001 74345  1.4754e+000 -5.6796e-001 -8.0195e-001 55634 74218,74270,74244
 1.1000e+001 74322 -2.9494e-001 -3.7784e-001 -3.7188e-001 55634 74218,74296,74270
 1.1000e+001 74823 -2.8673e-001 -2.6628e+000  5.2511e-001 55016 74918,74846,74581
 1.1000e+001 74800 -5.7820e-001 -2.5858e+000  3.1138e-001 55016 74846,74477,74633
 1.1000e+001 74777 -9.3961e-001 -3.1524e+000  7.4494e-001 55016 74918,74581,74555
 1.1000e+001 74754 -1.1067e+000 -2.5569e+000  5.7072e-001 55016 74990,74503,74477
 1.1000e+001 74731 -5.2876e-001 -2.9206e+000 -2.3250e-001 55016 74451,74633,74477
 1.1000e+001 74708 -1.2108e+000 -2.1085e+000 -5.0138e-001 55016 74451,74659,74633
 1.1000e+001 74685 -1.8369e+000 -1.7958e+000  1.5123e+000 55016 74503,74555,74529
 1.1000e+001 74872 -3.7326e-001 -2.9597e+000  3.8656e-001 55016 74607,74581,74846
 1.1000e+001 74895 -4.5196e-001 -2.8962e+000  3.6887e-001 55016 74607,74846,74633
 1.1000e+001 74944 -1.1886e+000 -2.9355e+000  4.7953e-001 55016 74477,74846,74918
 1.1000e+001 74967 -1.1271e+000 -2.6042e+000  5.6735e-001 55016 74990,74477,74918
 1.1000e+001 75016 -1.0366e+000 -2.5140e+000  7.6243e-001 55016 74555,74503,74990
 1.1000e+001 75039 -1.1128e+000 -2.6869e+000  7.4887e-001 55016 74555,74990,74918
 1.1000e+001 75287 -6.7812e-001 -5.3313e+000  9.4870e-001 54726 75310,75140,75114
 1.1000e+001 75264 -1.1039e+000 -4.3737e+000  6.9205e-001 54726 75310,75114,75088
 1.1000e+001 75241  1.5988e-001 -3.3496e+000  4.7353e-001 54726 75088,75192,75166
 1.1000e+001 75218  1.9379e+000 -7.0665e-001  1.4096e+000 54726 75062,75192,75088
 1.1000e+001 75336 -1.2803e-001 -4.7739e+000  3.9357e-001 54726 75166,75140,75310
 1.1000e+001 75359 -9.7223e-001 -3.8507e+000  3.6806e-001 54726 75166,75310,75088
 1.1000e+001 75946 -1.7565e-001 -4.4883e-001 -1.4725e-001 54322 75969,75701,75649
 1.1000e+001 75923  2.8644e-003 -3.7418e-001 -1.7163e-001 54322 75969,75649,75623
 1.1000e+001 75900 -1.0435e-001 -3.7328e-001 -5.7602e-002 54322 76041,75753,75701
 1.1000e+001 75877 -1.0601e-001 -5.9146e-001 -5.1713e-002 54322 75623,75805,75779
 1.1000e+001 75854 -1.6420e-001 -4.4991e-001  7.3953e-002 54322 75701,75753,75727
 1.1000e+001 75831 -7.7390e-002 -1.7815e-001 -8.0425e-002 54322 75649,75701,75675
 1.1000e+001 75995 -4.5344e-002 -4.0069e-001 -1.0193e-001 54322 76041,75701,75969
 1.1000e+001 76018 -2.3114e-002 -4.5840e-001 -9.2382e-002 54322 75779,75969,75623
 1.1000e+001 76067 -1.5269e-001 -4.4612e-001 -3.4674e-002 54322 75779,75753,76041
 1.1000e+001 76090 -1.0355e-001 -4.9704e-001 -7.7002e-002 54322 75779,76041,75969
 1.1000e+001 76468 -6.7736e-002 -4.4437e-001 -8.0489e-002 53868 76491,76272,76220
 1.1000e+001 76445  1.0972e-002 -4.5844e-001 -3.9895e-002 53868 76491,76220,76324
 1.1000e+001 76422 -4.5063e-002 -6.1592e-001 -1.1397e-001 53868 76220,76272,76246
 1.1000e+001 76399  3.9868e-002 -4.4665e-001 -3.5052e-002 53868 76194,76324,76220
 1.1000e+001 76376  3.5267e-001 -3.2052e-001  4.0348e-002 53868 76194,76350,76324
 1.1000e+001 76517 -2.3703e-002 -4.1146e-001 -3.5454e-002 53868 76298,76272,76491
 1.1000e+001 76540  5.5011e-002 -4.3553e-001  1.5273e-003 53868 76298,76491,76324
 1.1000e+001 76690 -3.4043e-002 -5.6663e-001  4.8723e-002 53356 76589,76641,76615
 1.1000e+001 76667 -1.9395e-001 -6.7008e-001 -2.0400e-002 53356 76563,76641,76589
 1.1000e+001 76938 -1.4636e-002  2.9958e-001 -5.4202e-002 53009 77105,76961,76765
 1.1000e+001 76915 -7.6717e-002 -1.2127e+000 -6.1038e-001 53009 76961,76713,76843
 1.1000e+001 76892 -2.8703e-001 -6.1390e-001  2.3066e-002 53009 77033,76817,76791
 1.1000e+001 76869  1.5069e-001  1.4104e+000 -3.7642e-001 53009 77105,76765,76739
 1.1000e+001 76987 -2.8774e-001 -5.1770e-001 -2.4577e-001 53009 76791,76765,76961
 1.1000e+001 77010 -2.5245e-001 -3.4113e-001 -2.6439e-001 53009 77033,76791,76961
 1.1000e+001 77059  1.7631e-001 -3.6159e-001 -2.1741e-001 53009 76843,76817,77033
 1.1000e+001 77082  1.2468e-001 -2.4642e-001 -4.8546e-001 53009 76843,77033,76961
 1.1000e+001 77131  7.0675e-001  5.6893e-002 -9.7404e-001 53009 76713,76961,77105
 1.1000e+001 77154  8.4358e-001  4.9823e-001 -1.2898e+000 53009 76713,77105,76739
 1.1000e+001 77355  5.8177e-001 -3.6114e+000  5.2424e-001 52390 77378,77257,77231
 1.1000e+001 77332  6.5876e-001 -4.5044e+000  6.4703e-001 52390 77378,77231,77179
 1.1000e+001 77309  1.2836e+000 -3.4913e+000  2.8529e-001 52390 77179,77231,77205
 1.1000e+001 77404  8.4139e-001 -4.3355e+000  9.8062e-001 52390 77283,77257,77378
 1.1000e+001 77427  7.3881e-001 -5.5420e+000  1.0289e+000 52390 77283,77378,77179
 1.1000e+001 77677 -1.0145e+000  1.3249e+000 -1.3241e+000 51986 77700,77504,77478
 1.1000e+001 77654 -1.6345e-001  1.2643e+000 -1.1529e+000 51986 77700,77478,77452
 1.1000e+001 77631  3.9544e-001  1.2601e+000 -1.2131e+000 51986 77772,77556,77530
 1.1000e+001 77608  2.8986e+000  2.2515e+000 -1.9401e+000 51986 77452,77582,77556
 1.1000e+001 77726 -2.9971e-001  1.6643e+000 -8.4956e-001 51986 77530,77504,77700
 1.1000e+001 77749  3.5429e-001  1.2294e+000 -9.8031e-001 51986 77772,77530,77700
 1.1000e+001 77798  1.2453e-001  1.1250e+000 -1.1276e+000 51986 77452,77556,77772
 1.1000e+001 77821 -1.9009e-002  1.1124e+000 -9.2797e-001 51986 77452,77772,77700
 1.1000e+001 78282 -7.8574e-001 -3.4218e+000 -1.3446e-001 51738 78008,78138,78060
 1.1000e+001 78259 -1.4587e+000 -4.3747e+000  1.7244e+000 51738 78008,78164,78138
 1.1000e+001 78236 -5.6595e-001 -1.6093e+000  3.3318e-001 51738 78086,78138,78112
 1.1000e+001 78213 -4.6227e-001 -1.6546e+000  4.6858e-001 51738 78060,78138,78086
 1.1000e+001 78190  2.4579e-001 -4.5094e+000 -7.6198e-001 51738 78008,78060,78034
 1.1000e+001 78432  1.0995e-001 -4.0126e-001  1.6614e-002 51148 78305,78357,78331
 1.1000e+001 78409  5.4095e-002 -2.7631e-001  1.4499e-002 51148 78305,78383,78357
 1.1000e+001 78891 -2.2004e-001 -5.9461e-001 -6.7586e-002 50808 78914,78695,78669
 1.1000e+001 78868 -1.4567e-001 -4.2065e-001 -6.9646e-002 50808 78914,78669,78643
 1.1000e+001 78845 -9.6371e-002 -5.1085e-001 -2.9756e-001 50808 78643,78773,78747
 1.1000e+001 78822 -1.0366e-001 -5.8075e-001 -2.9899e-001 50808 78617,78773,78643
 1.1000e+001 78799 -3.0870e-001 -5.2057e-001 -9.1442e-002 50808 78695,78747,78721
 1.1000e+001 78940 -2.3233e-001 -4.6690e-001 -1.7974e-001 50808 78747,78695,78914
 1.1000e+001 78963 -1.9868e-001 -3.7967e-001 -1.7045e-001 50808 78747,78914,78643
 1.1000e+001 79260 -2.6694e-003 -5.3961e-001 -8.5367e-002 50468 79283,79090,79012
 1.1000e+001 79237  1.5950e-001 -5.0660e-001 -3.6781e-002 50468 79283,79012,78986
 1.1000e+001 79214 -1.9902e-001 -6.2549e-001 -1.0625e-001 50468 79012,79090,79038
 1.1000e+001 79191  4.7707e-002 -4.3144e-001  2.7131e-002 50468 78986,79142,79116
 1.1000e+001 79168 -1.2427e-001 -6.3085e-001 -1.4224e-001 50468 79038,79090,79064
 1.1000e+001 79309 -1.8050e-001 -4.8823e-001 -1.0510e-001 50468 79116,79090,79283
 1.1000e+001 79332  2.3663e-002 -4.1309e-001 -4.1082e-002 50468 79116,79283,78986
 1.1000e+001 79889  8.1474e-001  1.0698e+000 -4.5877e-001 50064 79569,79725,79699
 1.1000e+001 79866  8.5358e-001  9.0189e-001 -3.9152e-001 50064 79543,79725,79569
 1.1000e+001 79843  8.3191e-001  6.8104e-001 -5.4404e-001 50064 79621,79699,79673
 1.1000e+001 79820  1.0711e+000  1.2156e+000 -8.5502e-001 50064 79595,79699,79621
 1.1000e+001 79797  1.5930e+000  1.2545e+000 -6.5361e-001 50064 79569,79699,79595
 1.1000e+001 79774  5.3529e-001  1.1236e+000 -8.7765e-002 50064 79517,79725,79543
 1.1000e+001 79751  4.8526e-001  6.8796e-001 -5.8105e-001 50064 79621,79673,79647
 1.1000e+001 80169  1.0782e+000  1.4742e+000 -6.6523e-001 49724 80019,80097,80071
 1.1000e+001 80146  9.1991e-001  1.7527e+000 -7.9071e-001 49724 79993,80097,80019
 1.1000e+001 80123  6.9036e-001  1.3711e+000 -8.1607e-001 49724 80019,80071,80045
 1.1000e+001 80626 -1.3583e-001  1.8486e-001  1.3908e-001 49277 80352,80482,80378
 1.1000e+001 80603 -3.2509e-001  1.3139e-001 -2.1259e-002 49277 80352,80508,80482
 1.1000e+001 80580 -2.6723e-001 -4.0512e-001  5.5658e-003 49277 80378,80482,80456
 1.1000e+001 80557 -3.0765e-001 -7.6070e-001  2.3601e-001 49277 80378,80430,80404
 1.1000e+001 80534 -3.0255e-001 -3.8280e-001  1.7508e-001 49277 80378,80456,80430
 1.1000e+001 81230 -4.0217e-001 -1.1614e+000  4.5261e-001 48716 81253,80835,80809
 1.1000e+001 81207 -2.0400e-001 -7.8716e-001  2.8934e-001 48716 81397,81253,80809
 1.1000e+001 81184 -3.5349e-001  3.4392e-002 -1.5995e-001 48716 81325,80913,80887
 1.1000e+001 81161 -5.9776e-001 -1.0861e+000  4.2898e-001 48716 81397,80809,81017
 1.1000e+001 81138 -8.0454e-001  2.1871e-001 -4.5334e-001 48716 81469,80965,80913
 1.1000e+001 81115 -5.1756e-001 -1.7943e+000  3.5166e-001 48716 80835,80887,80861
 1.1000e+001 81092  5.7523e-001 -1.2230e+000  1.4058e+000 48716 80809,81043,81017
 1.1000e+001 81069 -3.7597e-001 -3.4085e-001 -9.1430e-001 48716 80913,80965,80939
 1.1000e+001 81279  1.1455e-001 -6.5908e-001  1.0230e-001 48716 80887,80835,81253
 1.1000e+001 81302 -6.9629e-001 -1.1056e-001 -1.6631e-001 48716 81325,80887,81253
 1.1000e+001 81351 -3.6845e-001  8.8901e-002 -2.8561e-001 48716 81469,80913,81325
 1.1000e+001 81374 -6.2467e-001  3.0754e-001 -1.0413e-001 48716 80991,81325,81253
 1.1000e+001 81423 -9.3857e-001 -1.6667e-001  4.7102e-001 48716 80991,81253,81397
 1.1000e+001 81446 -1.4474e+000 -6.1062e-001  6.6587e-001 48716 80991,81397,81017
 1.1000e+001 81495 -1.4960e+000  1.5012e-001 -4.2209e-001 48716 80991,80965,81469
 1.1000e+001 81518 -1.1466e+000 -4.4730e-002 -2.5700e-001 48716 80991,81469,81325
 1.1000e+001 81717 -1.0879e-001 -5.1792e-001  3.2182e-002 48262 81740,81567,81541
 1.1000e+001 81694 -1.9326e-001 -5.0818e-001 -1.4924e-002 48262 81740,81541,81645
 1.1000e+001 81671 -1.7345e-001 -5.8445e-001 -3.4476e-002 48262 81567,81619,81593
 1.1000e+001 81766 -1.6315e-001 -5.3405e-001 -1.5072e-002 48262 81619,81567,81740
 1.1000e+001 81789 -2.5810e-001 -5.4990e-001 -6.8887e-002 48262 81619,81740,81645
 1.1000e+001 81939  8.0354e-001  1.1782e+000 -6.7295e-001 47957 82034,81962,81864
 1.1000e+001 81916  5.7174e-001  7.4351e-001 -3.4837e-001 47957 82166,81962,81838
 1.1000e+001 81988 -4.4707e-001  9.5142e-001 -5.3372e-001 47957 82294,81962,81890
 1.1000e+001 82011  5.4716e-001  1.3723e+000  2.2063e-001 47957 81890,81962,81812
 1.1000e+001 82060  7.7404e-001  1.9457e+000 -1.3091e-001 47957 81838,81962,82034
 1.1000e+001 82192  5.0685e-001  7.7806e-001  3.0395e-001 47957 81812,81962,82166
 1.1000e+001 82320 -2.5855e-002  9.4698e-001 -6.6753e-001 47957 81864,81962,82294
 1.1000e+001 82549 -7.2537e-002 -5.8873e-001 -1.6445e-001 47617 82448,82500,82474
 1.1000e+001 82526  2.0289e-001 -6.7742e-001 -6.2443e-003 47617 82422,82500,82448
 1.1000e+001 82902 -2.6684e-001 -9.2496e-001  1.6275e-001 47255 82729,82807,82755
 1.1000e+001 82879  7.5514e-003 -1.7246e+000  4.2511e-001 47255 82703,82807,82729
 1.1000e+001 82856 -2.4132e-001 -6.7430e-001  2.3714e-001 47255 82755,82807,82781
 1.1000e+001 82833  1.5177e+000 -1.0775e+000  5.7713e-001 47255 82677,82807,82703
 1.1000e+001 83182  3.5977e-001 -9.1647e-001  2.4544e-001 46680 83032,83084,83058
 1.1000e+001 83159  5.1063e-001 -4.0134e-001  2.6581e-001 46680 83205,83084,83032
 1.1000e+001 83136  6.2280e-001 -1.1584e-001  8.8129e-002 46680 83006,83110,83084
 1.1000e+001 83231  4.2291e-001 -4.1199e-001  2.7399e-001 46680 83006,83084,83205
 1.1000e+001 83737 -7.9798e-001 -3.9864e-001  9.4239e-002 46290 83832,83760,83492
 1.1000e+001 83714 -6.5237e-001 -8.6714e-002 -2.9466e-002 46290 83760,83440,83414
 1.1000e+001 83691 -5.3821e-001 -5.6105e-001  4.6788e-002 46290 83832,83492,83466
 1.1000e+001 83668 -6.3435e-001 -1.0807e+000  2.8742e-001 46290 83492,83570,83544
 1.1000e+001 83645 -7.0092e-001 -3.0811e-001 -1.6017e-001 46290 83414,83596,83570
 1.1000e+001 83622 -7.9063e-001 -8.5557e-001  4.8344e-001 46290 83492,83544,83518
 1.1000e+001 83786 -8.0342e-001 -3.6378e-001  1.1309e-001 46290 83570,83492,83760
 1.1000e+001 83809 -7.7649e-001 -4.8248e-001 -5.7297e-002 46290 83570,83760,83414
 1.1000e+001 83858 -4.6821e-001 -1.8929e-001  1.9209e-001 46290 83440,83760,83832
 1.1000e+001 83881 -2.8862e-002 -3.4093e-001  9.9510e-002 46290 83440,83832,83466
 1.1000e+001 84161 -1.4386e-001 -8.0504e-001  2.9423e-001 45829 84011,84063,84037
 1.1000e+001 84138 -5.1751e-002 -5.0618e-001  4.5458e-002 45829 84011,84089,84063
 1.1000e+001 84115 -2.5906e-003 -4.8038e-001  1.3857e-001 45829 83985,84089,84011
 1.1000e+001 84311  3.3161e-001 -1.1708e-001  8.5984e-002 45631 84184,84236,84210
 1.1000e+001 84288 -1.8851e-001 -1.4527e+000  7.4726e-002 45631 84184,84262,84236
 1.1000e+001 84657 -1.6268e-001 -4.9530e-001 -3.4009e-002 45155 84680,84490,84412
 1.1000e+001 84634 -2.2046e-001 -4.4470e-001 -1.5739e-002 45155 84680,84412,84360
 1.1000e+001 84611 -2.3996e-001 -5.4663e-001  2.0009e-002 45155 84412,84490,84438
 1.1000e+001 84588 -3.3202e-002 -3.2523e-001 -4.8755e-002 45155 84334,84516,84360
 1.1000e+001 84565 -2.4499e-001 -4.8790e-001 -1.8361e-001 45155 84360,84412,84386
 1.1000e+001 84542 -2.0817e-001 -4.8354e-001  5.4236e-002 45155 84438,84490,84464
 1.1000e+001 84706 -1.4352e-001 -4.5111e-001 -4.7289e-002 45155 84516,84490,84680
 1.1000e+001 84729 -1.8773e-001 -3.8915e-001 -3.6902e-002 45155 84516,84680,84360
 1.1000e+001 85077  9.9330e-002 -2.9225e-001  3.2729e-004 44508 85100,84754,84910
 1.1000e+001 85054  9.1370e-002  7.4004e-002  7.1737e-002 44508 84754,84936,84910
 1.1000e+001 85031 -7.7422e-002 -4.7687e-001  1.7915e-001 44508 85100,84910,84884
 1.1000e+001 85008 -1.9199e-001 -3.7233e-001  7.3842e-003 44508 84780,84884,84832
 1.1000e+001 84985 -2.2859e-002 -7.1731e-002 -1.4910e-001 44508 84780,84832,84806
 1.1000e+001 84962  3.5784e-001 -1.9518e-002 -1.4394e-001 44508 84832,84884,84858
 1.1000e+001 85126 -4.5287e-002 -9.3305e-003 -1.3633e-001 44508 84780,84754,85100
 1.1000e+001 85149 -1.7831e-001 -1.9608e-001  2.7074e-002 44508 84780,85100,84884
 1.1000e+001 85482 -3.9560e-001 -6.3643e-001 -5.2202e-002 44104 85335,85387,85361
 1.1000e+001 85459 -3.6043e-001 -9.9038e-001 -4.7431e-003 44104 85309,85387,85335
 1.1000e+001 85436 -1.8804e-001 -7.2232e-001  8.0146e-002 44104 85257,85387,85309
 1.1000e+001 85413 -3.5059e-001 -1.2835e+000  5.9539e-002 44104 85257,85309,85283
 1.1000e+001 85811 -1.7676e-001 -3.7830e-001 -8.4424e-002 43600 85586,85664,85612
 1.1000e+001 85788 -2.3534e-001 -4.0337e-001 -3.4818e-002 43600 85586,85690,85664
 1.1000e+001 85765 -4.5563e-002 -3.0630e-001 -7.4872e-002 43600 85586,85716,85690
 1.1000e+001 85742 -1.6912e-001 -3.7331e-001 -8.7754e-002 43600 85612,85664,85638
 1.1000e+001 86010 -1.4849e-002 -3.7438e-001 -1.2547e-001 43224 85886,85938,85912
 1.1000e+001 85987  8.0745e-002 -6.4000e-002 -1.4947e-001 43224 85834,85938,85886
 1.1000e+001 85964 -2.1587e-001 -5.8350e-001 -1.5469e-002 43224 85834,85886,85860
 1.1000e+001 86420  1.8273e+000  7.8360e-001 -2.8520e-001 42820 86195,86299,86221
 1.1000e+001 86397  1.3234e+000  7.6179e-001 -1.0199e+000 42820 86195,86325,86299
 1.1000e+001 86374  1.0644e+000  1.0707e+000  7.0037e-002 42820 86221,86299,86273
 1.1000e+001 86351  9.3956e-001  6.0519e-001  1.5001e-001 42820 86221,86273,86247
 1.1000e+001 86749  3.0642e-001 -4.4668e-001 -2.5197e-001 42223 86550,86602,86576
 1.1000e+001 86726  1.0990e+000 -9.5386e-001 -2.0285e-002 42223 86550,86628,86602
 1.1000e+001 86703 -1.8555e-002 -1.3176e+000  3.8131e-001 42223 86524,86628,86550
 1.1000e+001 86680  7.3191e-001 -2.2857e-001  1.5344e-002 42223 86524,86654,86628
 1.1000e+001 87078  7.7573e-001 -2.8051e-001  3.0396e-001 41883 87173,87101,86905
 1.1000e+001 87055  5.1850e-001  2.7411e-001  7.1902e-002 41883 87101,86879,86853
 1.1000e+001 87032  1.2839e-001 -5.4322e-002  3.3487e-002 41883 86853,86983,86931
 1.1000e+001 87009  5.7477e-002 -3.2440e-001  1.0228e-001 41883 86931,86983,86957
 1.1000e+001 87127  9.6903e-001 -6.2737e-002 -5.0375e-002 41883 86931,86905,87101
 1.1000e+001 87150  2.6499e-001 -3.0891e-001 -2.6902e-002 41883 86931,87101,86853
 1.1000e+001 87199  2.1371e-001 -2.5322e-001  2.7093e-001 41883 86879,87101,87173
 1.1000e+001 87558 -2.1345e-002 -2.2729e-002  5.1974e-003 41471 87382,87460,87408
 1.1000e+001 87535 -2.0697e-001 -2.7323e-001 -1.1992e-001 41471 87382,87486,87460
 1.1000e+001 87512 -1.0175e-001 -4.5941e-002 -3.2236e-002 41471 87408,87460,87434
 1.1000e+001 87806  1.2187e-001 -2.1717e-001 -3.3974e-002 41017 87829,87607,87581
 1.1000e+001 87783  7.9182e-002 -3.8644e-001  5.1189e-002 41017 87829,87581,87685
 1.1000e+001 87760  3.1082e-001 -1.2928e-001 -4.5776e-002 41017 87581,87711,87685
 1.1000e+001 87737  2.7034e-001 -8.0014e-001  3.6064e-002 41017 87633,87685,87659
 1.1000e+001 87855  8.3229e-002 -2.8611e-001  9.0495e-002 41017 87633,87607,87829
 1.1000e+001 87878  1.9737e-002 -4.6852e-001  1.7953e-001 41017 87633,87829,87685
 1.1000e+001 88258 -2.5586e-002 -7.1390e-003  8.2675e-003 40613 88281,88036,88010
 1.1000e+001 88235 -3.0899e-003 -1.5872e-002 -6.9714e-004 40613 88281,88010,88088
 1.1000e+001 88212  8.5655e-003 -2.2013e-002  5.9684e-003 40613 87984,88088,88010
 1.1000e+001 88189  1.9915e-002  8.6682e-003 -8.1205e-003 40613 87984,88114,88088
 1.1000e+001 88166  1.9127e-002 -4.9218e-002  1.1163e-002 40613 87984,88140,88114
 1.1000e+001 88307 -7.6717e-003 -2.8159e-003  7.8116e-003 40613 88062,88036,88281
 1.1000e+001 88330  2.1412e-002 -6.6268e-003 -2.7496e-003 40613 88062,88281,88088
 1.1000e+001 88649 -1.5520e-002 -7.1759e-002  3.5141e-004 40095 88375,88505,88401
 1.1000e+001 88626 -1.8671e-002 -5.0957e-002 -1.0347e-002 40095 88375,88531,88505
 1.1000e+001 88603 -1.1017e-002 -8.3244e-002 -6.2704e-003 40095 88401,88505,88479
 1.1000e+001 88580 -1.2077e-001 -6.4009e-001 -2.7381e-001 40095 88427,88479,88453
 1.1000e+001 88557 -7.3756e-003 -1.1149e-001 -4.6172e-003 40095 88401,88479,88427
 1.1000e+001 89078  6.4361e-001 -5.9894e-001 -2.9244e-001 39897 89101,88833,88807
 1.1000e+001 89055  2.0053e-001 -1.0947e+000 -5.3874e-001 39897 89101,88807,88911
 1.1000e+001 89032  1.7307e-001 -5.2215e-001 -6.4029e-001 39897 88781,88911,88807
 1.1000e+001 89009 -7.4340e-001 -1.3694e+000 -1.3318e+000 39897 88781,88937,88911
 1.1000e+001 88986  1.8542e+000  1.4389e-001 -5.0961e-001 39897 88833,88885,88859
 1.1000e+001 88963  4.6876e-002 -7.3527e-001 -9.3844e-001 39897 88755,88937,88781
 1.1000e+001 89127  1.1036e+000 -1.2027e+000 -8.2755e-001 39897 88885,88833,89101
 1.1000e+001 89150  2.8321e-001 -1.9723e+000 -1.1726e+000 39897 88885,89101,88911
 1.1000e+001 89300 -9.0299e-001 -1.1990e+000  1.5189e-001 39607 89453,89323,89199
 1.1000e+001 89277 -1.4046e+000 -1.0391e+000  3.6681e-002 39607 89525,89453,89199
 1.1000e+001 89349 -7.7152e-001 -1.1733e+000 -1.2106e-001 39607 89225,89199,89323
 1.1000e+001 89479 -8.6533e-001 -8.4017e-001  1.1729e-001 39607 89251,89323,89453
 1.1000e+001 89502 -6.2988e-001 -4.5774e-001  4.5980e-001 39607 89251,89453,89173
 1.1000e+001 89551 -4.1430e-001 -7.6308e-001  1.2252e-001 39607 89173,89453,89525
 1.1000e+001 90264 -8.1625e-001 -1.9172e+000 -2.6934e-001 39039 89996,90074,90048
 1.1000e+001 90241 -4.5391e-001 -9.2053e-001 -1.8555e-001 39039 89918,90074,89996
 1.1000e+001 90218 -6.4171e-001 -1.0172e+000 -8.7915e-002 39039 89918,89996,89944
 1.1000e+001 90195 -5.7532e-001 -9.2850e-001 -1.2186e-001 39039 89892,90074,89918
 1.1000e+001 90172 -7.4690e-003 -1.8407e+000 -3.0631e-001 39039 89996,90048,90022
 1.1000e+001 90149 -1.2591e+000  1.2315e-001 -1.1471e-001 39039 89892,90100,90074
 1.1000e+001 90126 -8.6790e-001 -1.1208e+000  3.7570e-002 39039 89944,89996,89970
 1.1000e+001 90770 -2.4024e-001 -4.7653e-001 -1.4559e-002 38635 90473,90603,90577
 1.1000e+001 90747 -1.3765e-001 -4.2963e-001 -2.5573e-002 38635 90447,90603,90473
 1.1000e+001 90724 -1.7891e-001 -5.3950e-001 -4.8473e-002 38635 90499,90577,90551
 1.1000e+001 90701 -2.6172e-001 -6.0281e-001  2.9458e-003 38635 90473,90577,90499
 1.1000e+001 90678 -1.7158e-001 -7.2067e-001 -3.1693e-002 38635 90499,90551,90525
 1.1000e+001 90655 -3.0364e-001 -4.5477e-001  3.6157e-002 38635 90447,90629,90603
 1.1000e+001 90871 -1.0349e-001 -4.1035e-001 -1.0734e-001 38231 90793,90845,90819
 1.1000e+001 91458  4.5348e-002 -2.3637e-001 -3.0673e-002 37534 91161,91317,91291
 1.1000e+001 91435 -1.4606e-001 -1.3615e-001  5.6624e-002 37534 91135,91317,91161
 1.1000e+001 91412 -2.8062e-001 -1.1669e+000 -3.2088e-001 37534 91187,91291,91239
 1.1000e+001 91389 -6.1647e-002 -1.1806e+000  1.2011e-001 37534 91161,91291,91187
 1.1000e+001 91366 -2.5923e-002 -8.0417e-001 -1.8310e-001 37534 91239,91291,91265
 1.1000e+001 91343  6.0110e-001 -1.2143e+000 -6.9935e-001 37534 91187,91239,91213
 1.1000e+001 91915 -3.8850e-001 -8.5169e-001  1.1535e-001 37080 91938,91745,91667
 1.1000e+001 91892 -1.4666e-001 -8.0023e-001  5.5390e-002 37080 91938,91667,91797
 1.1000e+001 91869  1.4414e-003 -2.5304e-001  6.4232e-002 37080 91641,91797,91667
 1.1000e+001 91846 -3.9867e-001 -9.1367e-001  4.3071e-002 37080 91667,91719,91693
 1.1000e+001 91823 -3.3659e-001 -7.5450e-001  7.4453e-002 37080 91667,91745,91719
 1.1000e+001 91964 -4.9673e-001 -9.2291e-001  3.2498e-001 37080 91771,91745,91938
 1.1000e+001 91987 -2.6478e-001 -8.0541e-001  2.3751e-001 37080 91771,91938,91797
 1.1000e+001 92235 -3.0690e-001 -4.7577e-001 -2.5144e-002 36397 92036,92088,92062
 1.1000e+001 92212 -2.2968e-001 -4.2489e-001 -5.6711e-002 36397 92036,92114,92088
 1.1000e+001 92189 -1.1420e-001 -3.4034e-001  2.2666e-003 36397 92036,92140,92114
 1.1000e+001 92166 -1.3512e-001 -4.0453e-001 -1.7383e-002 36397 92010,92140,92036
 1.1000e+001 92694  8.3003e-002  5.9743e-003 -1.4969e-002 36057 92446,92498,92472
 1.1000e+001 92671  1.3947e-001  2.6936e-002  7.3447e-002 36057 92446,92550,92498
 1.1000e+001 92648 -1.4823e-002 -3.5480e-001  1.5921e-001 36057 92446,92576,92550
 1.1000e+001 92625  1.1752e-001 -3.4862e-002 -2.4810e-001 36057 92420,92576,92446
 1.1000e+001 92602  1.8539e-003 -2.4350e-003  9.5183e-002 36057 92498,92550,92524
 1.1000e+001 93023 -3.1893e-001 -4.1026e-001 -5.8752e-002 35717 92876,92928,92902
 1.1000e+001 93000 -2.7387e-001 -4.4553e-001 -7.2203e-002 35717 92824,92928,92876
 1.1000e+001 92977 -1.3744e-001 -4.3957e-001 -3.2454e-002 35717 92798,92928,92824
 1.1000e+001 92954 -2.7727e-001 -5.6763e-001 -2.3493e-001 35717 92824,92876,92850
 1.1000e+001 93499  1.4044e-001 -5.8944e-001  1.4361e-001 35405 93522,93309,93257
 1.1000e+001 93476  2.0375e-001 -3.9883e-001  1.1428e-001 35405 93666,93522,93257
 1.1000e+001 93453  1.6993e-001 -1.5236e+000  1.3336e-001 35405 93594,93127,93335
 1.1000e+001 93430  6.8030e-002 -3.8080e-001  5.0412e-002 35405 93666,93257,93231
 1.1000e+001 93407 -2.9335e-001 -1.7642e+000 -2.7151e-001 35405 93127,93179,93153
 1.1000e+001 93384 -6.5023e-001 -1.6565e-001  3.6983e-001 35405 93179,93231,93205
 1.1000e+001 93361  2.4168e-001  8.8628e-002 -3.1732e-002 35405 93257,93309,93283
 1.1000e+001 93548  4.3939e-001 -3.8103e-001  3.6506e-001 35405 93335,93309,93522
 1.1000e+001 93571  2.0967e-001 -8.6134e-001  2.3712e-001 35405 93594,93335,93522
 1.1000e+001 93620  2.0140e-001 -8.0040e-001  4.7659e-002 35405 93179,93127,93594
 1.1000e+001 93643  4.8899e-003 -5.3147e-001  4.6635e-002 35405 93738,93594,93522
 1.1000e+001 93692  6.5452e-002 -5.0079e-001  5.7557e-002 35405 93738,93522,93666
 1.1000e+001 93715  1.9344e-002 -4.4503e-001  2.3816e-002 35405 93179,93666,93231
 1.1000e+001 93764  1.3907e-002 -4.9579e-001  8.9120e-002 35405 93179,93594,93738
 1.1000e+001 93787  2.0968e-002 -4.9038e-001  9.2679e-002 35405 93179,93738,93666
 1.1000e+001 94372  6.7544e-001 -9.4287e-002  5.8928e-002 34951 94395,94127,94075
 1.1000e+001 94349  9.2089e-001 -1.2921e-001  1.4520e-001 34951 94395,94075,94231
 1.1000e+001 94326  7.3622e-001 -4.0564e-001 -1.6398e-001 34951 94049,94231,94075
 1.1000e+001 94303  2.9328e-001 -3.1697e-003  3.6081e-001 34951 94075,94127,94101
 1.1000e+001 94280  1.3238e+000  5.2643e-001  5.5044e-001 34951 94127,94205,94153
 1.1000e+001 94257  1.0926e+000 -7.4161e-002  5.4069e-001 34951 94153,94205,94179
 1.1000e+001 94421  8.7210e-001 -1.5452e-001  2.0548e-001 34951 94205,94127,94395
 1.1000e+001 94444  1.3205e+000 -6.1732e-002  2.8008e-001 34951 94205,94395,94231
 1.1000e+001 94692 -2.3869e-002 -1.3170e-001 -2.4259e-003 34397 94715,94519,94467
 1.1000e+001 94669 -2.3523e-002 -1.0655e-001  1.2326e-003 34397 94715,94467,94597
 1.1000e+001 94646 -2.7911e-002 -1.6817e-002 -2.5790e-002 34397 94545,94597,94571
 1.1000e+001 94623 -1.4327e-002 -1.1992e-001  2.2059e-002 34397 94467,94519,94493
 1.1000e+001 94741 -3.9906e-002 -2.1096e-001 -1.3878e-002 34397 94545,94519,94715
 1.1000e+001 94764 -7.1932e-003 -1.3268e-001 -8.5308e-003 34397 94545,94715,94597
 1.1000e+001 94985  4.8402e-002 -1.5052e-001  2.5419e-002 33985 94835,94913,94887
 1.1000e+001 94962 -2.7379e-001 -9.1424e-001  3.0289e-002 33985 94809,94913,94835
 1.1000e+001 94939 -1.8108e-002 -1.3411e-001  2.4842e-002 33985 94835,94887,94861
 1.1000e+001 95186 -1.2021e-001 -6.0007e-001 -2.2335e-001 33645 95281,95209,95036
 1.1000e+001 95163  2.6882e-001 -6.8179e-001  3.9612e-002 33645 95209,95010,95088
 1.1000e+001 95140  3.2093e-001 -3.7773e-001 -1.5297e-002 33645 95010,95114,95088
 1.1000e+001 95235 -3.3437e-001 -7.0570e-001 -2.5900e-001 33645 95062,95036,95209
 1.1000e+001 95258 -2.7727e-001 -8.9509e-001  2.8390e-001 33645 95413,95209,95088
 1.1000e+001 95307  1.7500e-001 -1.1774e-001 -3.9625e-001 33645 95010,95209,95281
 1.1000e+001 95439  4.5686e-003 -5.8436e-001  1.6210e-001 33645 95062,95209,95413
 1.1000e+001 95766 -3.1006e-001 -5.7813e-002 -3.8760e-001 33141 95789,95593,95567
 1.1000e+001 95743 -5.9345e-002 -2.4025e-001 -1.2873e-001 33141 95861,95789,95567
 1.1000e+001 95720 -7.8711e-002 -1.9193e-001 -3.9234e-002 33141 95861,95567,95671
 1.1000e+001 95697 -6.2464e-002 -2.3077e-001 -5.0376e-002 33141 95541,95671,95567
 1.1000e+001 95815 -1.0106e-001  4.3648e-001 -3.3407e-001 33141 95619,95593,95789
 1.1000e+001 95838 -1.5625e-002 -8.4329e-004 -1.2348e-001 33141 95619,95789,95645
 1.1000e+001 95887  9.3853e-003 -8.1808e-002 -1.3697e-001 33141 95645,95789,95861
 1.1000e+001 95910 -1.1926e-002 -3.4478e-002 -3.5264e-002 33141 95645,95861,95671
 1.1000e+001 96060 -3.3563e-001 -3.5479e-001 -1.8116e-001 32487 95959,96011,95985
 1.1000e+001 96037 -1.0577e-001 -3.3554e-001 -3.6361e-002 32487 95933,96011,95959
 1.1000e+001 96570 -2.2248e-001 -4.0123e-001  2.1047e-001 32033 96665,96593,96377
 1.1000e+001 96547 -2.3489e-001 -2.6395e-001 -1.5497e-001 32033 96737,96593,96325
 1.1000e+001 96524 -2.8808e-001 -5.1438e-001  1.3486e-001 32033 96665,96377,96351
 1.1000e+001 96501 -2.9089e-001 -2.9094e-001 -1.0998e-001 32033 96737,96325,96299
 1.1000e+001 96478 -3.5408e-001 -1.4159e-001 -1.5199e-001 32033 96247,96429,96299
 1.1000e+001 96455 -6.7055e-001 -1.0065e+000 -1.3121e-001 32033 96247,96299,96273
 1.1000e+001 96619  1.1590e-001 -1.6688e-001  2.2475e-001 32033 96809,96593,96403
 1.1000e+001 96642  3.2672e-001  3.9869e-001 -4.1811e-001 32033 96403,96593,96429
 1.1000e+001 96691  1.1674e-002 -6.7795e-001  5.2760e-002 32033 96325,96593,96665
 1.1000e+001 96714 -1.9009e-001 -8.9164e-001 -5.6351e-002 32033 96325,96665,96351
 1.1000e+001 96763 -3.1715e-001 -2.7345e-001 -1.4037e-001 32033 96429,96593,96737
 1.1000e+001 96786 -3.3752e-001 -2.6406e-001 -1.0165e-001 32033 96429,96737,96299
 1.1000e+001 96835 -5.2194e-002 -3.0828e-001  1.6155e-001 32033 96377,96593,96809
 1.1000e+001 97064 -4.3373e-002 -7.4014e-002 -6.1492e-003 31671 97087,96989,96963
 1.1000e+001 97041 -2.3675e-002 -8.7497e-002  5.4398e-002 31671 97087,96963,96937
 1.1000e+001 97113  2.8009e-002 -5.9384e-002  7.7976e-003 31671 97159,97087,97015
 1.1000e+001 97136  9.6097e-003 -2.2666e-003  4.5152e-002 31671 97015,97087,96937
 1.1000e+001 97185 -1.2943e-002 -2.5467e-002  1.2596e-002 31671 96989,97087,97159
 1.1000e+001 97563 -6.6937e-003 -9.6776e-002 -8.1980e-003 31117 97586,97367,97341
 1.1000e+001 97540 -2.3946e-002 -7.9067e-002  1.0163e-002 31117 97658,97586,97341
 1.1000e+001 97517 -3.9430e-002 -8.6456e-002  3.6330e-003 31117 97658,97341,97315
 1.1000e+001 97494  8.1984e-003 -1.5312e-001 -4.2902e-002 31117 97289,97445,97315
 1.1000e+001 97471  8.0856e-003 -3.4775e-002  2.8988e-003 31117 97367,97419,97393
 1.1000e+001 97612 -9.0591e-003 -3.6342e-002 -1.5296e-002 31117 97419,97367,97586
 1.1000e+001 97635  2.3960e-002 -6.4588e-002  3.7007e-002 31117 97419,97586,97445
 1.1000e+001 97684  9.4422e-003 -9.5902e-002  1.6266e-002 31117 97445,97586,97658
 1.1000e+001 97707 -9.1680e-003 -1.0659e-001  8.7387e-003 31117 97445,97658,97315
 1.1000e+001 98215 -1.0834e-002 -1.1983e-001 -1.8247e-001 30563 98238,97996,97944
 1.1000e+001 98192 -1.7329e-001 -8.3406e-002 -1.8382e-001 30563 98310,98238,97944
 1.1000e+001 98169 -3.3021e-001 -2.9662e-001 -2.7312e-001 30563 98310,97944,97918
 1.1000e+001 98146  1.0485e-001 -1.2314e-001 -3.2056e-002 30563 97892,98074,97918
 1.1000e+001 98123  1.3258e-001 -6.0595e-002  2.3260e-003 30563 97996,98048,98022
 1.1000e+001 98100 -2.3619e-001 -1.4309e-001 -2.7804e-001 30563 97944,97996,97970
 1.1000e+001 98264 -4.8850e-002 -4.7094e-002 -1.5507e-001 30563 98048,97996,98238
 1.1000e+001 98287  7.1859e-002  2.3521e-001  6.7610e-002 30563 98048,98238,98074
 1.1000e+001 98336 -4.7322e-002 -1.4920e-001 -2.0837e-002 30563 98074,98238,98310
 1.1000e+001 98359 -1.3845e-001 -1.9283e-001 -7.9936e-002 30563 98074,98310,97918
 1.1000e+001 98607 -4.6086e-001 -2.2641e-002  1.2104e-002 30073 98630,98460,98408
 1.1000e+001 98584 -6.9057e-001 -8.4632e-002 -3.6159e-002 30073 98630,98408,98382
 1.1000e+001 98561 -2.1877e-001 -2.2199e-002 -8.6172e-002 30073 98382,98512,98486
 1.1000e+001 98538 -3.1086e-001 -7.9680e-002  1.2583e-001 30073 98408,98460,98434
 1.1000e+001 98656 -3.3656e-001 -1.3661e-001 -3.5139e-002 30073 98486,98460,98630
 1.1000e+001 98679 -4.8827e-001 -1.3797e-001 -7.4467e-002 30073 98486,98630,98382
 1.1000e+001 99157  5.8972e-001 -2.6915e-001  2.5609e-001 29669 99180,98837,98811
 1.1000e+001 99134  5.7996e-001 -1.7915e-001  3.0508e-001 29669 99324,99180,98811
 1.1000e+001 99111  4.9023e-001  1.5157e-001 -6.5436e-002 29669 99252,98863,98837
 1.1000e+001 99088  5.5650e-001 -3.5693e-001  3.5709e-001 29669 99324,98811,98993
 1.1000e+001 99065  2.5785e-001  4.9637e-001  1.7184e-001 29669 98863,98941,98915
 1.1000e+001 99042 -2.2528e-001  3.2246e-001  2.1077e-001 29669 98863,98915,98889
 1.1000e+001 99019  1.0154e-001 -5.1030e-001  5.7401e-001 29669 98785,98993,98811
 1.1000e+001 99206  4.9202e-001 -3.0099e-001  8.5388e-002 29669 99252,98837,99180
 1.1000e+001 99229  3.1345e-001 -5.1026e-002  2.9665e-001 29669 98941,99180,98967
 1.1000e+001 99278  3.6258e-001  4.7435e-001  3.6051e-003 29669 98941,98863,99252
 1.1000e+001 99301  5.6033e-001  2.7981e-001  1.8585e-001 29669 98941,99252,99180
 1.1000e+001 99350  5.3396e-001  4.0797e-002  2.9059e-001 29669 98967,99180,99324
 1.1000e+001 99373  5.5085e-001 -1.0408e-001  3.1632e-001 29669 98967,99324,98993
 1.1000e+001 99958  4.7088e-001  6.8353e-001  2.0097e-001 29051 99981,99765,99739
 1.1000e+001 99935  8.6264e-002  2.1468e-002  3.8705e-002 29051 99981,99739,99661
 1.1000e+001 99912  3.6007e-001 -8.7811e-001 -1.4653e-001 29051 99765,99817,99791
 1.1000e+001 99889 -2.4281e-001 -5.0630e-001  3.1348e-001 29051 99635,99817,99661
 1.1000e+001 99866 -6.3955e-001 -3.7043e-002  5.6566e-001 29051 99661,99739,99687
 1.1000e+001 99843 -9.1574e-001  1.5658e-001  3.2228e-001 29051 99687,99739,99713
 1.1000e+001 100007  6.7273e-001  5.3951e-002  2.7092e-001 29051 99817,99765,99981
 1.1000e+001 100030  5.2502e-001 -2.6550e-001  2.0237e-001 29051 99817,99981,99661
 1.1000e+001 100278  4.2345e-001 -3.8342e-002  1.0685e-001 28525 100445,100301,100131
 1.1000e+001 100255  1.0982e-001  1.3531e-001  1.7289e-002 28525 100373,100301,100079
 1.1000e+001 100232  8.6118e-002 -1.9913e-001  6.3211e-002 28525 100373,100079,100053
 1.1000e+001 100209  2.4215e-001  1.1012e-001 -4.2597e-002 28525 100445,100131,100105
 1.1000e+001 100327  8.6334e-001 -1.0216e-001  1.5228e-001 28525 100517,100301,100157
 1.1000e+001 100350  3.5532e-001  2.9529e-001  2.7480e-002 28525 100157,100301,100183
 1.1000e+001 100399  9.2429e-002 -2.1318e-001  1.8857e-001 28525 100183,100301,100373
 1.1000e+001 100422  1.4505e-001 -4.5067e-001  2.3115e-001 28525 100183,100373,100053
 1.1000e+001 100471  1.8205e-001 -1.2050e-001 -1.6175e-001 28525 100079,100301,100445
 1.1000e+001 100494 -3.1352e-001 -2.0756e-001 -3.3001e-001 28525 100079,100445,100105
 1.1000e+001 100543  7.7023e-001 -3.2871e-003 -3.1625e-002 28525 100131,100301,100517
 1.1000e+001 101209 -1.0013e+000 -3.1287e-002 -9.7304e-003 28185 100938,101016,100990
 1.1000e+001 101186 -1.1007e+000 -1.0351e-001 -4.2664e-002 28185 100912,101016,100938
 1.1000e+001 101163 -3.3104e-001  1.2778e-001  6.5776e-002 28185 100912,101068,101016
 1.1000e+001 101140 -1.2488e+000 -2.0844e-001 -1.3205e-001 28185 100886,101068,100912
 1.1000e+001 101117 -3.2884e-001  2.2445e-001  8.4743e-002 28185 101016,101068,101042
 1.1000e+001 101094 -2.5525e+000 -4.8815e-001 -3.4835e-002 28185 100938,100990,100964
 1.1000e+001 101408  1.4347e-001 -1.3351e-001 -1.5639e-001 27781 101503,101431,101310
 1.1000e+001 101385 -1.5558e-001  1.3306e-001 -4.2265e-001 27781 101431,101258,101232
 1.1000e+001 101362  2.1921e-001 -1.8444e-001 -2.0401e-001 27781 101503,101310,101284
 1.1000e+001 101457  7.5363e-001  1.5874e-001 -2.4540e-001 27781 101336,101310,101431
 1.1000e+001 101480  1.9374e-001  3.0804e-001 -5.0351e-001 27781 101575,101431,101232
 1.1000e+001 101529  3.3401e-001 -1.0555e-001 -3.6989e-001 27781 101258,101431,101503
 1.1000e+001 101552  2.0653e-001 -2.7829e-001 -2.0806e-001 27781 101705,101503,101284
 1.1000e+001 101601  3.5899e-001  5.8510e-001 -5.7447e-001 27781 101336,101431,101575
 1.1000e+001 101731 -1.1020e-001 -2.8611e-001 -3.8332e-001 27781 101258,101503,101705
 1.1000e+001 102237 -4.6303e-001 -2.2011e-001  5.4005e-002 27419 102476,102260,101992
 1.1000e+001 102214 -3.0469e-001 -3.4753e-001 -7.5024e-003 27419 102260,101940,101914
 1.1000e+001 102191 -5.3561e-001 -4.1928e-001  6.2151e-002 27419 102404,102332,102096
 1.1000e+001 102168 -4.6771e-001 -4.0093e-001 -4.1228e-003 27419 102404,102096,102044
 1.1000e+001 102145 -4.3165e-001 -2.4517e-001  7.3096e-002 27419 102476,101992,101966
 1.1000e+001 102122 -3.4288e-001 -3.9098e-001 -2.4401e-002 27419 102044,102096,102070
 1.1000e+001 102286 -5.8974e-001 -3.7050e-001  1.1039e-001 27419 102018,101992,102260
 1.1000e+001 102309 -4.8345e-001 -3.1255e-001  1.3068e-002 27419 102332,102018,102260
 1.1000e+001 102358 -5.3193e-001 -6.3503e-001  1.7392e-001 27419 101914,102096,102332
 1.1000e+001 102381 -4.2611e-001 -4.6515e-001  4.8323e-002 27419 101914,102332,102260
 1.1000e+001 102430 -3.9584e-001 -3.9328e-001  3.9304e-003 27419 102018,102332,102404
 1.1000e+001 102453 -3.4681e-001 -3.6370e-001 -6.9345e-002 27419 102018,102404,102044
 1.1000e+001 102502 -3.7127e-001 -3.0647e-001  7.5778e-002 27419 101940,102260,102476
 1.1000e+001 102525  2.9133e-002 -1.1392e-001  1.8630e-002 27419 101940,102476,101966
 1.1000e+001 103031 -1.0998e+000  3.7196e-001  8.7991e-001 26715 102708,102786,102760
 1.1000e+001 103008 -4.8443e-002 -4.6577e-001  2.2710e-001 26715 102708,102890,102786
 1.1000e+001 102985  9.3262e-001 -9.9211e-001  2.4418e-001 26715 102838,102890,102864
 1.1000e+001 102962  3.2036e-001  4.8880e-001  2.4633e-001 26715 102786,102890,102838
 1.1000e+001 102939  1.5224e+000  1.0678e+000  7.7298e-001 26715 102786,102838,102812
 1.1000e+001 102916 -1.5778e+000 -4.7358e-002  2.8124e-001 26715 102708,102760,102734
 1.1000e+001 103279 -3.1621e-002 -2.7855e-002  4.5113e-002 26303 103302,103158,103080
 1.1000e+001 103256 -8.8037e-002  1.4612e-002  4.6126e-002 26303 103302,103080,103054
 1.1000e+001 103233 -1.4537e-001 -8.3457e-002  2.3504e-002 26303 103080,103158,103106
 1.1000e+001 103210  1.2646e-001 -1.0548e-002  2.8138e-002 26303 103106,103158,103132
 1.1000e+001 103328  6.2331e-002  1.6932e-002  2.5155e-002 26303 103184,103158,103302
 1.1000e+001 103351 -4.4100e-002  2.1611e-002  3.5662e-002 26303 103184,103302,103054
 1.1000e+001 103501 -4.7281e-001 -4.0882e-001  2.8572e-002 25849 103374,103426,103400
 1.1000e+001 103478 -4.4817e-001 -3.2607e-001  1.8531e-002 25849 103374,103452,103426
 1.1000e+001 104090  4.1626e-002  2.5966e-002  1.2863e-001 25445 103793,103871,103819
 1.1000e+001 104067  2.4272e-001 -6.7251e-003  4.3273e-002 25445 103793,103949,103871
 1.1000e+001 104044  3.0911e-001  7.3211e-002  9.9551e-002 25445 103871,103949,103923
 1.1000e+001 104021 -2.8730e-002  8.9885e-002 -3.6825e-002 25445 103819,103871,103845
 1.1000e+001 103998  2.3534e-001  6.5704e-002  1.8585e-001 25445 103767,103949,103793
 1.1000e+001 103975  3.1244e-001  7.6772e-002  1.0100e-001 25445 103871,103923,103897
 1.1000e+001 104419 -2.3285e-001 -1.3980e-001 -8.2940e-002 25083 104220,104298,104272
 1.1000e+001 104396 -4.1903e-001 -3.5934e-001 -1.3936e-003 25083 104220,104324,104298
 1.1000e+001 104373 -1.7974e-001 -1.3875e-001 -3.7652e-002 25083 104220,104272,104246
 1.1000e+001 104350 -4.1726e-001 -3.6162e-001 -1.8880e-003 25083 104194,104324,104220
 1.1000e+001 105102  8.3243e-002 -1.9296e-001  3.8132e-003 24793 104785,104863,104837
 1.1000e+001 105079  5.0385e-002 -4.2033e-001 -1.7750e-001 24793 104759,104863,104785
 1.1000e+001 105056  3.3402e-002 -6.0824e-002 -1.6976e-001 24793 104759,104915,104863
 1.1000e+001 105033  2.2644e-002 -1.8277e-001 -1.8813e-001 24793 104733,104915,104759
 1.1000e+001 105010  3.3685e-001  7.3275e-002 -1.9571e-001 24793 104863,104915,104889
 1.1000e+001 104987 -9.5020e-002  1.2474e-002 -2.8860e-001 24793 104681,104915,104733
 1.1000e+001 104964 -1.1232e-002 -2.9084e-001 -4.3740e-002 24793 104785,104837,104811
 1.1000e+001 104941 -5.0965e-002  2.5850e-001 -2.6298e-001 24793 104681,104733,104707
 1.1000e+001 105252  9.2361e-001  7.4245e-001  1.5917e-002 24389 105477,105275,105177
 1.1000e+001 105229  4.0926e-001  4.5376e-001  1.9484e-001 24389 105347,105275,105151
 1.1000e+001 105301  9.6566e-001  4.9730e-001 -1.3003e-002 24389 105203,105177,105275
 1.1000e+001 105324  1.0809e+000  8.8369e-001  1.7930e-001 24389 105203,105275,105125
 1.1000e+001 105373  8.9042e-001  5.0756e-001  8.5989e-002 24389 105125,105275,105347
 1.1000e+001 105503  8.0772e-001  4.1040e-001  2.8001e-002 24389 105151,105275,105477
 1.1000e+001 106088 -4.4605e-001  2.8559e-001  4.0446e-001 23735 105791,105921,105895
 1.1000e+001 106065 -1.2929e+000  7.4976e-003  5.0499e-001 23735 105765,105921,105791
 1.1000e+001 106042 -3.1093e-001  4.9633e-001  2.8258e-001 23735 105765,105947,105921
 1.1000e+001 106019 -1.5220e+000 -5.1388e-002  5.6285e-001 23735 105817,105895,105869
 1.1000e+001 105996 -9.7053e-001  9.8842e-002  5.0220e-001 23735 105791,105895,105817
 1.1000e+001 105973 -8.2743e-001 -1.5970e-001  5.2515e-001 23735 105817,105869,105843
 1.1000e+001 106417  5.3526e-001  1.2641e+000 -2.2920e-001 23295 106218,106296,106270
 1.1000e+001 106394  3.3245e-001  4.4023e-001 -1.9618e-001 23295 106218,106322,106296
 1.1000e+001 106371  1.2074e-001  2.9543e-001 -2.4621e-001 23295 106218,106270,106244
 1.1000e+001 106348  4.5255e-001  4.9149e-001 -9.9643e-002 23295 106192,106322,106218
 1.1000e+001 106746 -3.2313e-001  3.0502e-001  2.3676e-001 23005 106521,106599,106547
 1.1000e+001 106723  2.4327e-001  6.9997e-001  4.2422e-002 23005 106521,106651,106599
 1.1000e+001 106700  2.6100e-001  2.6892e-001 -3.4499e-002 23005 106547,106599,106573
 1.1000e+001 106677  3.4269e-001  6.1523e-001  3.4716e-001 23005 106599,106651,106625
 1.1000e+001 107331 -3.0095e-001  2.3065e-001 -2.4890e-001 22601 107060,107190,107138
 1.1000e+001 107308 -1.2704e+000  4.2226e-001 -5.5829e-001 22601 107034,107190,107060
 1.1000e+001 107285 -1.9249e+000 -4.8805e-001 -4.4295e-001 22601 107060,107138,107112
 1.1000e+001 107262 -1.7729e+000  5.1024e-001  8.8710e-002 22601 107008,107190,107034
 1.1000e+001 107239 -5.0551e-001 -2.3417e+000 -9.1249e-002 22601 107060,107112,107086
 1.1000e+001 107216 -8.0191e-001  1.3009e+000  2.3812e-001 22601 107138,107190,107164
 1.1000e+001 107807 -3.3691e-001  4.2321e-002 -5.0951e-002 22031 107974,107902,107617
 1.1000e+001 107784 -3.7158e-001  2.5099e-001 -1.5094e-001 22031 107830,107565,107513
 1.1000e+001 107761 -2.0650e-001 -8.0280e-004 -1.8134e-001 22031 108046,107830,107513
 1.1000e+001 107738 -2.5611e-001  1.9104e-001  1.2784e-002 22031 107974,107617,107591
 1.1000e+001 107715 -2.3329e-001 -8.6998e-002 -1.6104e-001 22031 108046,107513,107461
 1.1000e+001 107692 -8.7187e-001  3.5934e-001 -2.5396e-001 22031 107513,107565,107539
 1.1000e+001 107669 -1.9016e-002  2.2180e-001 -2.7042e-001 22031 107461,107513,107487
 1.1000e+001 107856 -4.6669e-001  1.2721e-001 -9.5456e-002 22031 107902,107565,107830
 1.1000e+001 107879 -2.7231e-001 -1.3967e-001 -5.9650e-003 22031 107643,107830,107435
 1.1000e+001 107928 -6.7095e-001  2.0060e-001 -2.7835e-001 22031 107643,107617,107902
 1.1000e+001 107951 -4.5274e-001  1.1115e-001  2.7134e-002 22031 107643,107902,107830
 1.1000e+001 108000 -4.0583e-001  2.5419e-001 -7.5759e-002 22031 107565,107902,107974
 1.1000e+001 108023 -3.9826e-001  2.1411e-001 -6.3525e-002 22031 107565,107974,107591
 1.1000e+001 108072 -1.7446e-001 -1.1116e-001 -6.1139e-002 22031 107435,107830,108046
 1.1000e+001 108095 -2.2993e-001 -2.4802e-001 -4.0608e-002 22031 107435,108046,107461
 1.1000e+001 108196  1.8452e-002 -4.4416e-002  4.4093e-002 21783 108118,108170,108144
 1.1000e+001 108655  1.5015e-001  8.6320e-001  5.0284e-001 21379 108407,108485,108459
 1.1000e+001 108632  1.6829e+000  2.1745e-001  6.2249e-001 21379 108407,108511,108485
 1.1000e+001 108609  1.7311e+000  4.6411e-001  8.8851e-001 21379 108381,108511,108407
 1.1000e+001 108586  5.3372e-001  1.0093e+000 -2.3312e-002 21379 108381,108537,108511
 1.1000e+001 108563  4.5185e-001  1.1871e-001  2.2929e-001 21379 108407,108459,108433
 1.1000e+001 109082  2.3082e-002 -4.6054e-001 -2.6876e-002 20974 109105,108863,108811
 1.1000e+001 109059 -1.6668e-001 -5.4611e-001  2.2690e-003 20974 109105,108811,108759
 1.1000e+001 109036 -1.2385e-002 -1.3863e+000  2.9570e-001 20974 109177,108889,108863
 1.1000e+001 109013 -1.4767e-001 -4.7790e-001  2.6913e-002 20974 108811,108863,108837
 1.1000e+001 108990  1.3796e-001 -1.8631e-002  2.2470e-002 20974 108759,108941,108915
 1.1000e+001 108967  1.2600e-002  3.5014e-002 -8.7366e-003 20974 108759,108811,108785
 1.1000e+001 109131 -2.5027e-001 -1.0289e+000  1.0218e-001 20974 109177,108863,109105
 1.1000e+001 109154 -4.7069e-002 -3.5297e-006 -8.2857e-003 20974 108915,109105,108759
 1.1000e+001 109203  4.1316e-002 -1.0989e+000 -8.0846e-002 20974 108915,108889,109177
 1.1000e+001 109226  5.5053e-002 -2.9603e-001 -2.4265e-001 20974 108915,109177,109105
 1.1000e+001 109496 -5.1353e-001  3.3791e-002 -4.7729e-002 20470 109271,109375,109297
 1.1000e+001 109473 -4.7454e-001  9.1382e-002 -7.5798e-002 20470 109271,109401,109375
 1.1000e+001 109450 -6.0970e-001 -7.5708e-002 -8.9282e-002 20470 109297,109375,109349
 1.1000e+001 109427 -8.3815e-001 -5.3555e-001  1.6265e-001 20470 109297,109349,109323
 1.1000e+001 109955  2.0105e-001  9.2882e-001  6.2148e-001 20123 110050,109733,109707
 1.1000e+001 109932 -3.9526e-001  4.6741e-001  4.0750e-001 20123 110050,109707,109681
 1.1000e+001 109909  1.4599e-001  1.5635e-001  3.6388e-001 20123 109978,109759,109733
 1.1000e+001 109886 -2.8769e-003  1.7653e-001  3.7693e-001 20123 110122,109978,109733
 1.1000e+001 109863  2.0023e-001  1.1885e-001  2.8066e-001 20123 109785,109837,109811
 1.1000e+001 110004  1.7559e-001  2.5460e-001  2.9729e-001 20123 109785,109759,109978
 1.1000e+001 110027  1.0966e-001  2.1370e-001  2.6958e-001 20123 109785,109978,109837
 1.1000e+001 110076 -1.0499e-001  3.3680e-001  3.1254e-001 20123 110122,109733,110050
 1.1000e+001 110099 -1.1532e-001  3.7891e-001  1.4492e-001 20123 109837,110050,109681
 1.1000e+001 110148  1.9523e-001  4.0783e-001  2.8426e-001 20123 109837,109978,110122
 1.1000e+001 110171  9.9225e-002  5.4226e-001  2.1621e-001 20123 109837,110122,110050
 1.1000e+001 110500  5.5081e-001  3.7032e-002 -8.9729e-002 19511 110301,110379,110353
 1.1000e+001 110477  1.1546e+000  5.4242e-001 -3.4202e-001 19511 110301,110405,110379
 1.1000e+001 110454  3.2663e-001  1.1447e-001 -1.3878e-001 19511 110275,110405,110301
 1.1000e+001 110431  5.0286e-001  6.2406e-002  1.1325e-001 19511 110301,110353,110327
 1.1000e+001 110957  3.1251e-001  1.2899e+000 -1.9353e-003 19107 110683,110735,110709
 1.1000e+001 110934  4.0800e-001  5.4036e-001 -3.0070e-001 19107 110683,110813,110735
 1.1000e+001 110911  8.2350e-001  1.0429e+000 -9.8321e-002 19107 110735,110813,110761
 1.1000e+001 110888  5.9915e-001  3.6485e-001  1.2744e-001 19107 110683,110839,110813
 1.1000e+001 110865  7.6495e-001  7.2649e-001 -3.7659e-001 19107 110761,110813,110787
 1.1000e+001 111335  4.7461e-001 -9.0944e-001  3.2916e-001 18653 111087,111165,111139
 1.1000e+001 111312  4.2748e-001 -1.1933e-001  1.1183e-001 18653 111087,111217,111165
 1.1000e+001 111289 -9.5197e-002 -4.3512e-001  7.4130e-001 18653 111061,111217,111087
 1.1000e+001 111266  1.0575e+000 -9.5531e-001  1.2436e+000 18653 111087,111139,111113
 1.1000e+001 111243  3.6011e-001 -9.8088e-002 -1.4010e-001 18653 111165,111217,111191
 1.1000e+001 111735 -7.3087e-001 -4.2179e-001  5.8044e-002 18213 111461,111513,111487
 1.1000e+001 111712 -6.7908e-001 -6.2799e-001  4.2804e-002 18213 111461,111617,111513
 1.1000e+001 111689 -6.0668e-001 -4.7585e-001 -2.9354e-002 18213 111513,111617,111591
 1.1000e+001 111666 -1.7939e-001 -2.6380e-001  1.2043e-001 18213 111513,111591,111539
 1.1000e+001 111643  6.9593e-002 -1.7675e-001  3.6497e-002 18213 111539,111591,111565
 1.1000e+001 111885 -4.3261e-001 -3.0026e+000 -4.2469e-002 17659 111784,111836,111810
 1.1000e+001 111862  1.0971e-001 -2.0044e+000  3.7677e-001 17659 111758,111836,111784
 1.1000e+001 112287 -3.2340e-001 -2.0836e+000 -7.3894e-001 17411 112065,112169,112143
 1.1000e+001 112264 -1.3268e+000 -1.0596e+000 -5.9487e-001 17411 112039,112169,112065
 1.1000e+001 112241 -1.2672e+000 -8.2623e-001 -6.8069e-001 17411 112013,112169,112039
 1.1000e+001 112218  3.1108e+000 -1.5143e+000 -9.0603e-001 17411 112091,112143,112117
 1.1000e+001 112195 -4.3790e-002 -2.0078e+000 -1.5732e-001 17411 112065,112143,112091
 1.1000e+001 112508 -5.0723e-001  3.1348e-001  5.7986e-002 17007 112384,112436,112410
 1.1000e+001 112485 -3.8086e-001  4.2928e-001  1.0802e-001 17007 112332,112436,112384
 1.1000e+001 112462 -4.9555e-001  2.0818e-001  6.6760e-002 17007 112332,112384,112358
 1.1000e+001 112658 -1.1291e+000 -4.9613e-001  3.6102e-001 16553 112557,112609,112583
 1.1000e+001 112635 -1.5605e+000 -1.0665e-001  4.7892e-001 16553 112531,112609,112557
 1.1000e+001 112761  6.6727e-002 -7.6521e-001  3.3034e-002 16355 112683,112735,112709
 1.1000e+001 112913 -8.0453e-001  4.1143e-001  4.7461e-002 15949 112786,112838,112812
 1.1000e+001 112890 -3.9675e-001  1.1131e+000 -1.4557e-001 15949 112786,112864,112838
 1.1000e+001 113065  4.4136e-003 -3.9439e-001 -7.3182e-003 15609 112938,112990,112964
 1.1000e+001 113042 -1.4686e-001 -8.2943e-001 -2.1757e-001 15609 112938,113016,112990
 1.1000e+001 113420  5.8017e-001  4.1478e-001  1.7913e-001 15284 113247,113325,113299
 1.1000e+001 113397  5.5308e-001  3.4623e-001  7.6889e-002 15284 113195,113325,113247
 1.1000e+001 113374  3.3969e-001  2.7607e-001  4.8010e-002 15284 113195,113247,113221
 1.1000e+001 113351  4.8140e-001  6.8043e-001  1.7702e-001 15284 113247,113299,113273
 1.1000e+001 113521 -7.7279e-002  9.9035e-002 -6.9684e-002 202 113443,113495,113469
 1.1500e+001 65564  6.4513e-002 -8.8706e-002 -1.4883e-002 65155 65414,65466,65440
 1.1500e+001 65541  7.0273e-002 -9.9177e-002 -2.2041e-002 65155 65414,65492,65466
 1.1500e+001 65518  8.4072e-002 -1.4175e-001  9.2377e-002 65155 65388,65492,65414
 1.1500e+001 65883  1.1648e-001 -7.7387e-001  1.0701e-002 64957 65635,65739,65713
 1.1500e+001 65860  1.1952e-001 -1.0016e+000 -2.6813e-002 64957 65635,65765,65739
 1.1500e+001 65837 -8.0115e-002 -1.0952e+000 -1.3515e-003 64957 65609,65765,65635
 1.1500e+001 65814  1.2625e-001 -8.3689e-001  2.0274e-001 64957 65635,65713,65687
 1.1500e+001 65791 -5.0976e-002 -8.7970e-001  1.9617e-001 64957 65635,65687,65661
 1.1500e+001 65984 -1.0770e-002 -1.1578e-001  6.2758e-002 64781 65906,65958,65932
 1.1500e+001 66232 -3.0825e-001 -3.7529e-001  3.4886e-001 64469 66007,66059,66033
 1.1500e+001 66209  3.3879e-002 -3.9365e-001  3.9429e-001 64469 66007,66085,66059
 1.1500e+001 66186 -2.4961e-001 -1.0259e+000  5.2780e-001 64469 66007,66137,66085
 1.1500e+001 66163 -1.0542e-001 -1.2150e+000  1.0851e+000 64469 66085,66137,66111
 1.1500e+001 66504  1.2463e-002 -9.9114e-001  1.5281e-002 64271 66279,66383,66305
 1.1500e+001 66481  1.0295e-001 -9.8161e-001 -2.4057e-002 64271 66279,66409,66383
 1.1500e+001 66458  1.8057e-001 -1.2264e+000  1.6055e-002 64271 66305,66357,66331
 1.1500e+001 66435 -7.4483e-002 -1.0946e+000  5.3264e-002 64271 66305,66383,66357
 1.1500e+001 66705  3.7734e-001 -2.4302e+000  2.0093e-001 64073 66728,66581,66555
 1.1500e+001 66682  3.5848e-001 -1.7474e+000  3.6986e-001 64073 66728,66555,66529
 1.1500e+001 66659  3.2590e-001 -1.5183e+000 -3.6118e-001 64073 66581,66633,66607
 1.1500e+001 66754 -4.2100e-002 -1.7895e+000 -4.7450e-002 64073 66633,66581,66728
 1.1500e+001 66777  1.1984e-001 -8.8761e-001  1.8956e-002 64073 66633,66728,66529
 1.1500e+001 66951 -9.6089e-002 -2.7901e-001 -7.4353e-002 63783 66824,66876,66850
 1.1500e+001 66928  3.3931e-001 -3.6053e-001  9.6697e-002 63783 66824,66902,66876
 1.1500e+001 67201 -6.4975e-001 -1.2581e+000 -8.4405e-002 63585 66976,67080,67054
 1.1500e+001 67178 -8.0408e-002 -1.0276e+000  3.8420e-002 63585 66976,67106,67080
 1.1500e+001 67155  4.8692e-003 -1.4985e+000 -4.4236e-001 63585 66976,67054,67028
 1.1500e+001 67132 -1.8287e-001 -1.8994e+000 -5.5263e-001 63585 66976,67028,67002
 1.1500e+001 67654  7.0657e-002 -7.3923e-001 -1.7839e-002 63295 67357,67487,67383
 1.1500e+001 67631  7.0992e-002 -9.1233e-001  9.5672e-002 63295 67331,67487,67357
 1.1500e+001 67608 -5.3785e-002 -1.0605e+000 -1.8585e-002 63295 67331,67513,67487
 1.1500e+001 67585 -4.9046e-004 -1.0695e+000 -1.9593e-003 63295 67435,67487,67461
 1.1500e+001 67562 -5.6780e-002 -1.0960e+000  5.4936e-003 63295 67383,67487,67435
 1.1500e+001 67539  2.8141e-002 -1.0294e+000  3.5218e-002 63295 67383,67435,67409
 1.1500e+001 67853 -4.4923e-002 -1.0357e+000  1.8634e-003 62891 67876,67703,67677
 1.1500e+001 67830 -2.2732e-002 -1.0155e+000 -1.1395e-002 62891 67876,67677,67781
 1.1500e+001 67807  1.6489e-002 -9.1159e-001 -9.7928e-002 62891 67948,67729,67703
 1.1500e+001 67902 -1.2275e-002 -1.0294e+000 -1.4657e-002 62891 67948,67703,67876
 1.1500e+001 67925 -1.4783e-001 -9.8167e-001  2.6047e-002 62891 67755,67876,67781
 1.1500e+001 67974 -5.7900e-002 -7.5107e-001 -9.5218e-002 62891 67755,67729,67948
 1.1500e+001 67997 -2.6059e-002 -8.1291e-001 -2.7583e-002 62891 67755,67948,67876
 1.1500e+001 68218  5.9645e-002 -5.6824e-002 -7.9250e-002 62693 68042,68120,68068
 1.1500e+001 68195  5.0295e-003 -4.3760e-002  2.1903e-003 62693 68042,68146,68120
 1.1500e+001 68172 -2.1405e-001  1.7894e-001 -4.6937e-002 62693 68068,68120,68094
 1.1500e+001 68468  2.7365e-001 -3.4163e-002  1.9747e-002 62289 68491,68295,68269
 1.1500e+001 68445  6.3571e-002 -6.3009e-002 -1.1486e-001 62289 68563,68491,68269
 1.1500e+001 68422  7.5656e-002  3.3317e-002 -4.5093e-002 62289 68563,68269,68243
 1.1500e+001 68399 -1.5870e-001 -1.5435e-001  2.8108e-002 62289 68295,68347,68321
 1.1500e+001 68517  1.3033e-001 -1.8871e-001 -5.6067e-002 62289 68347,68295,68491
 1.1500e+001 68540 -1.5859e-001 -6.5686e-002 -1.8543e-001 62289 68347,68491,68373
 1.1500e+001 68589  9.6917e-002  1.2495e-001 -9.8048e-002 62289 68373,68491,68563
 1.1500e+001 68612  6.2789e-002  1.5838e-001 -2.8913e-002 62289 68373,68563,68243
 1.1500e+001 68911 -7.6098e-002 -1.0023e+000 -5.3292e-003 62091 69222,68934,68741
 1.1500e+001 68888  7.9548e-002 -9.6314e-001 -4.8254e-002 62091 69006,68934,68689
 1.1500e+001 68865  9.0907e-002 -9.6302e-001 -2.6482e-002 62091 69006,68689,68663
 1.1500e+001 68842 -1.0857e-001 -9.8764e-001 -1.1570e-001 62091 69078,68793,68767
 1.1500e+001 68819 -1.9620e-001 -1.0714e+000  1.4496e-001 62091 69222,68741,68715
 1.1500e+001 68960 -1.6585e-001 -9.9821e-001  1.3689e-003 62091 68767,68741,68934
 1.1500e+001 68983 -5.1556e-002 -1.0269e+000 -3.3221e-002 62091 69078,68767,68934
 1.1500e+001 69032  8.3492e-002 -9.5659e-001 -2.8044e-002 62091 69150,69006,68637
 1.1500e+001 69055  7.7873e-002 -9.7250e-001 -3.0904e-002 62091 68637,69006,68663
 1.1500e+001 69104 -1.8418e-002 -7.7721e-001 -6.9623e-002 62091 68637,68793,69078
 1.1500e+001 69127  5.6260e-002 -9.1947e-001 -1.2483e-002 62091 69150,68637,69078
 1.1500e+001 69176  2.7774e-002 -9.8181e-001 -4.8041e-002 62091 68934,69006,69150
 1.1500e+001 69199 -2.1690e-002 -9.5525e-001 -2.6981e-002 62091 68934,69150,69078
 1.1500e+001 69248 -3.7142e-003 -8.5318e-001 -3.4834e-002 62091 68689,68934,69222
 1.1500e+001 69271 -2.8175e-002 -8.0563e-001  7.1531e-002 62091 68689,69222,68715
 1.1500e+001 69521 -2.6335e-001  1.1114e-001  1.0464e-002 61893 69544,69348,69296
 1.1500e+001 69498 -6.9989e-002  1.5227e-001  3.8875e-002 61893 69544,69296,69400
 1.1500e+001 69475  5.9375e-002  1.6312e-001  2.0364e-002 61893 69296,69426,69400
 1.1500e+001 69452 -2.1840e-001 -3.9470e-001 -9.0186e-002 61893 69296,69348,69322
 1.1500e+001 69570 -1.6220e-001  1.7587e-002  1.6274e-001 61893 69374,69348,69544
 1.1500e+001 69593  1.8021e-001  1.4095e-001  1.8051e-001 61893 69374,69544,69400
 1.1500e+001 70046  5.2939e-002 -7.8668e-001 -1.2141e-002 61467 69749,69905,69879
 1.1500e+001 70023  1.2314e-001 -6.1596e-001  1.7251e-001 61467 69723,69905,69749
 1.1500e+001 70000  3.0505e-002 -8.5305e-001 -3.1310e-002 61467 70069,69827,69775
 1.1500e+001 69977 -9.8314e-002 -1.1977e+000  8.5310e-002 61467 70069,69775,69749
 1.1500e+001 69954 -4.3630e-002 -6.3985e-001 -3.1273e-002 61467 70141,69853,69827
 1.1500e+001 69931  5.8941e-002 -1.1204e+000 -3.3587e-001 61467 69775,69827,69801
 1.1500e+001 70095 -2.5682e-003 -6.9657e-001 -6.8134e-002 61467 70141,69827,70069
 1.1500e+001 70118  4.1312e-002 -8.3828e-001 -1.0796e-003 61467 69879,70069,69749
 1.1500e+001 70167 -4.3197e-003 -7.2610e-001 -2.7700e-002 61467 69879,69853,70141
 1.1500e+001 70190 -2.2988e-002 -8.6043e-001 -6.5155e-002 61467 69879,70141,70069
 1.1500e+001 70291 -8.7301e-002 -1.4010e+000 -1.6269e-001 61013 70213,70265,70239
 1.1500e+001 70441  1.0185e-001 -4.6049e-002 -8.1389e-002 60651 70340,70392,70366
 1.1500e+001 70418  1.6094e-001 -9.3300e-002 -1.7571e-002 60651 70314,70392,70340
 1.1500e+001 70642  9.9781e-002 -7.6356e-001 -1.3314e-001 60311 70665,70492,70466
 1.1500e+001 70619 -9.1703e-002 -1.2178e+000 -1.3751e-001 60311 70665,70466,70570
 1.1500e+001 70596 -2.7392e+000 -6.3567e-001  4.1186e-001 60311 70492,70544,70518
 1.1500e+001 70691  9.8263e-003 -3.1804e-001  3.4513e-001 60311 70544,70492,70665
 1.1500e+001 70714 -2.8947e-001 -1.0168e+000  3.5464e-001 60311 70544,70665,70570
 1.1500e+001 70964  3.4815e-001 -1.2150e+000  6.0240e-002 59907 70987,70765,70739
 1.1500e+001 70941  3.4486e-001 -1.2358e+000 -4.8293e-002 59907 71059,70987,70739
 1.1500e+001 70918  2.2035e-001 -1.2983e+000  2.3120e-003 59907 71059,70739,70869
 1.1500e+001 70895  1.9212e-001 -1.0074e+000  9.2619e-003 59907 70817,70869,70843
 1.1500e+001 71013  1.0434e+000 -8.6739e-001  4.3521e-001 59907 70791,70765,70987
 1.1500e+001 71036  4.0882e-001 -1.4592e+000  1.4752e-001 59907 70791,70987,70817
 1.1500e+001 71085  1.8975e-001 -1.2112e+000 -6.0932e-002 59907 70817,70987,71059
 1.1500e+001 71108  1.5367e-001 -1.1887e+000 -4.7436e-002 59907 70817,71059,70869
 1.1500e+001 71441 -5.1117e-001 -7.8843e-001  5.6071e-001 59417 71464,71242,71216
 1.1500e+001 71418 -3.6308e-001 -5.2277e-001  7.3846e-001 59417 71464,71216,71320
 1.1500e+001 71395 -4.9946e-001 -3.9369e-001  7.8721e-001 59417 71216,71346,71320
 1.1500e+001 71372 -3.5760e-001 -8.4710e-001  3.8768e-001 59417 71268,71320,71294
 1.1500e+001 71490 -6.7574e-001 -8.2335e-001  2.8148e-001 59417 71268,71242,71464
 1.1500e+001 71513 -5.9599e-001 -4.4843e-001  4.5270e-001 59417 71268,71464,71320
 1.1500e+001 71712  7.2370e-001  3.7240e-001  2.5796e-001 58913 71562,71614,71588
 1.1500e+001 71689  3.7529e-001  3.4740e-001  3.3239e-001 58913 71536,71614,71562
 1.1500e+001 71666  1.8370e-001  1.3871e+000 -1.6485e-001 58913 71536,71640,71614
 1.1500e+001 72171 -9.5110e-001 -2.0728e+000  2.1909e-001 58409 72194,72027,72001
 1.1500e+001 72148 -8.3665e-001 -2.4370e+000 -1.9649e-002 58409 72194,72001,71949
 1.1500e+001 72125 -5.4232e-001 -1.4449e+000  3.6018e-002 58409 71923,72053,71949
 1.1500e+001 72102 -9.7890e-001 -2.3999e+000 -1.5125e-001 58409 71949,72001,71975
 1.1500e+001 72079 -3.3071e-001 -1.0446e+000  3.7867e-001 58409 71897,72053,71923
 1.1500e+001 72220 -7.2307e-001 -1.9145e+000  3.6862e-001 58409 72053,72027,72194
 1.1500e+001 72243 -6.2790e-001 -2.1741e+000  1.1791e-001 58409 72053,72194,71949
 1.1500e+001 72491  9.4203e-001  1.0170e+000  3.3867e-001 57855 72514,72318,72292
 1.1500e+001 72468  8.4378e-001  8.3560e-001  5.4629e-001 57855 72514,72292,72266
 1.1500e+001 72445  8.2283e-001  8.8316e-001  3.0479e-001 57855 72318,72396,72370
 1.1500e+001 72422  1.3870e+000  4.6604e-001  6.0639e-001 57855 72318,72370,72344
 1.1500e+001 72540  9.4633e-001  1.0867e+000  3.5837e-001 57855 72396,72318,72514
 1.1500e+001 72563  9.3738e-001  1.1908e+000  4.2692e-001 57855 72396,72514,72266
 1.1500e+001 72811 -4.7276e-001 -2.1566e+000  8.1972e-001 57401 72612,72690,72638
 1.1500e+001 72788 -1.7239e+000 -2.6821e+000  1.1933e+000 57401 72586,72690,72612
 1.1500e+001 72765  3.0997e+000 -3.5791e+000 -9.8308e-002 57401 72638,72690,72664
 1.1500e+001 72742  2.5656e-001 -1.2088e+000  5.2187e-001 57401 72586,72716,72690
 1.1500e+001 73144 -1.7891e-002 -9.5124e-001 -6.3275e-002 57004 72919,72997,72945
 1.1500e+001 73121 -1.2934e-001 -1.1537e+000  4.7338e-003 57004 72919,73049,72997
 1.1500e+001 73098 -1.9226e-001 -8.2992e-001 -1.7539e-001 57004 72945,72997,72971
 1.1500e+001 73075 -8.6801e-002 -1.0947e+000  4.0505e-002 57004 72997,73049,73023
 1.1500e+001 73650 -1.8200e-001 -3.4158e+000  2.8360e-001 56592 73673,73379,73353
 1.1500e+001 73627 -9.2778e-001 -2.7449e+000  1.4811e+000 56592 73673,73353,73327
 1.1500e+001 73604  5.8882e-001 -1.8693e+000  1.0623e+000 56592 73745,73509,73483
 1.1500e+001 73581  4.3663e-001 -1.9960e+000  4.8702e-001 56592 73379,73457,73405
 1.1500e+001 73558  1.3297e+000 -1.8170e+000  8.6980e-001 56592 73379,73483,73457
 1.1500e+001 73535  2.1454e+000 -1.1493e+000  8.2071e-001 56592 73405,73457,73431
 1.1500e+001 73699  3.0222e-001 -2.4819e+000  5.6535e-001 56592 73483,73379,73673
 1.1500e+001 73722  5.4697e-001 -2.5801e+000  1.3156e+000 56592 73745,73483,73673
 1.1500e+001 73771  3.5928e-001 -5.0235e-001  6.4264e-001 56592 73327,73509,73745
 1.1500e+001 73794  1.7066e-002 -1.3353e+000  1.0663e+000 56592 73327,73745,73673
 1.1500e+001 74123  9.8289e-002 -8.9691e-002 -3.8385e-001 56152 74146,74002,73924
 1.1500e+001 74100  4.0513e-001 -1.7107e-002 -3.3778e-001 56152 74146,73924,73898
 1.1500e+001 74077  9.1815e-001  2.6160e-001 -5.7367e-001 56152 73924,74002,73976
 1.1500e+001 74054  4.2505e-001 -8.4997e-001  5.3103e-001 56152 73924,73976,73950
 1.1500e+001 74172 -3.0058e-001  9.9669e-003 -1.5192e-001 56152 74028,74002,74146
 1.1500e+001 74195  2.0292e-001  9.4111e-002 -1.2898e-001 56152 74028,74146,73898
 1.1500e+001 74345  1.3501e+000 -3.2489e-001 -6.7350e-001 55634 74218,74270,74244
 1.1500e+001 74322 -1.3164e-001 -3.1675e-001 -2.9177e-001 55634 74218,74296,74270
 1.1500e+001 74823 -2.8101e-001 -2.6044e+000  5.3468e-001 55016 74918,74846,74581
 1.1500e+001 74800 -6.0570e-001 -2.6626e+000  2.8064e-001 55016 74846,74477,74633
 1.1500e+001 74777 -8.7146e-001 -3.1596e+000  7.6342e-001 55016 74918,74581,74555
 1.1500e+001 74754 -9.2408e-001 -2.3667e+000  3.8686e-001 55016 74990,74503,74477
 1.1500e+001 74731 -4.5842e-001 -3.0376e+000 -3.8325e-001 55016 74451,74633,74477
 1.1500e+001 74708 -1.3061e+000 -2.2526e+000 -6.3391e-001 55016 74451,74659,74633
 1.1500e+001 74685 -1.8795e+000 -1.7061e+000  1.5712e+000 55016 74503,74555,74529
 1.1500e+001 74872 -4.5937e-001 -3.1221e+000  3.9203e-001 55016 74607,74581,74846
 1.1500e+001 74895 -5.2985e-001 -2.8940e+000  3.1541e-001 55016 74607,74846,74633
 1.1500e+001 74944 -1.0870e+000 -2.9590e+000  4.1969e-001 55016 74477,74846,74918
 1.1500e+001 74967 -9.2132e-001 -2.4693e+000  4.4626e-001 55016 74990,74477,74918
 1.1500e+001 75016 -9.3099e-001 -2.3469e+000  7.2485e-001 55016 74555,74503,74990
 1.1500e+001 75039 -1.0301e+000 -2.6732e+000  7.7400e-001 55016 74555,74990,74918
 1.1500e+001 75287 -5.4814e-001 -5.6114e+000  9.5852e-001 54726 75310,75140,75114
 1.1500e+001 75264 -1.0827e+000 -4.6495e+000  6.4722e-001 54726 75310,75114,75088
 1.1500e+001 75241  9.6470e-001 -3.3697e+000  5.5519e-001 54726 75088,75192,75166
 1.1500e+001 75218 -6.2634e-001 -9.7964e-001  9.3039e-001 54726 75062,75192,75088
 1.1500e+001 75336  2.2325e-001 -5.0053e+000  4.6507e-001 54726 75166,75140,75310
 1.1500e+001 75359 -8.5380e-001 -4.1775e+000  3.7063e-001 54726 75166,75310,75088
 1.1500e+001 75946 -1.4668e-001 -4.8865e-001 -1.6480e-001 54322 75969,75701,75649
 1.1500e+001 75923  9.3205e-002 -3.8025e-001 -2.0261e-001 54322 75969,75649,75623
 1.1500e+001 75900 -5.1314e-002 -3.6648e-001 -3.5598e-002 54322 76041,75753,75701
 1.1500e+001 75877 -8.3573e-002 -7.4082e-001 -4.1270e-002 54322 75623,75805,75779
 1.1500e+001 75854 -9.3438e-002 -4.5646e-001  1.4833e-001 54322 75701,75753,75727
 1.1500e+001 75831 -3.4140e-002 -1.6683e-001 -6.7657e-002 54322 75649,75701,75675
 1.1500e+001 75995  2.9491e-002 -4.1026e-001 -1.0224e-001 54322 76041,75701,75969
 1.1500e+001 76018  4.7029e-002 -5.1646e-001 -1.0749e-001 54322 75779,75969,75623
 1.1500e+001 76067 -1.0302e-001 -4.8271e-001 -5.6740e-003 54322 75779,75753,76041
 1.1500e+001 76090 -4.4442e-002 -5.6635e-001 -7.1722e-002 54322 75779,76041,75969
 1.1500e+001 76468 -3.7173e-002 -5.1099e-001 -7.3477e-002 53868 76491,76272,76220
 1.1500e+001 76445  5.3097e-002 -5.2630e-001 -2.7754e-002 53868 76491,76220,76324
 1.1500e+001 76422 -3.1185e-002 -7.0853e-001 -9.9787e-002 53868 76220,76272,76246
 1.1500e+001 76399  9.4680e-002 -5.5033e-001 -4.0103e-002 53868 76194,76324,76220
 1.1500e+001 76376  5.0197e-001 -3.8656e-001  6.2521e-002 53868 76194,76350,76324
 1.1500e+001 76517  1.3061e-002 -4.7460e-001 -2.1473e-002 53868 76298,76272,76491
 1.1500e+001 76540  1.0352e-001 -5.0110e-001  2.0103e-002 53868 76298,76491,76324
 1.1500e+001 76690 -3.9075e-003 -6.7481e-001  6.5802e-002 53356 76589,76641,76615
 1.1500e+001 76667 -2.0115e-001 -8.4047e-001 -1.9673e-002 53356 76563,76641,76589
 1.1500e+001 76938  8.1672e-002  3.3175e-001 -1.2654e-002 53009 77105,76961,76765
 1.1500e+001 76915 -2.5813e-002 -1.3045e+000 -6.2653e-001 53009 76961,76713,76843
 1.1500e+001 76892 -2.5154e-001 -6.7107e-001  5.8702e-002 53009 77033,76817,76791
 1.1500e+001 76869  2.9900e-001  1.5479e+000 -3.1809e-001 53009 77105,76765,76739
 1.1500e+001 76987 -2.4075e-001 -5.6960e-001 -2.2928e-001 53009 76791,76765,76961
 1.1500e+001 77010 -2.0981e-001 -3.6934e-001 -2.4674e-001 53009 77033,76791,76961
 1.1500e+001 77059  2.4196e-001 -3.9979e-001 -2.0827e-001 53009 76843,76817,77033
 1.1500e+001 77082  1.8888e-001 -2.7291e-001 -4.9326e-001 53009 76843,77033,76961
 1.1500e+001 77131  8.1014e-001  4.5035e-002 -1.0141e+000 53009 76713,76961,77105
 1.1500e+001 77154  9.6341e-001  5.2091e-001 -1.3190e+000 53009 76713,77105,76739
 1.1500e+001 77355  5.4572e-001 -3.6945e+000  4.7797e-001 52390 77378,77257,77231
 1.1500e+001 77332  7.2422e-001 -4.7130e+000  6.6939e-001 52390 77378,77231,77179
 1.1500e+001 77309  1.3746e+000 -3.5667e+000  3.4862e-001 52390 77179,77231,77205
 1.1500e+001 77404  7.0523e-001 -4.4993e+000  9.7168e-001 52390 77283,77257,77378
 1.1500e+001 77427  7.0508e-001 -5.8416e+000  1.0899e+000 52390 77283,77378,77179
 1.1500e+001 77677 -9.1235e-001  1.3665e+000 -1.3659e+000 51986 77700,77504,77478
 1.1500e+001 77654 -5.5464e-002  1.3017e+000 -1.1909e+000 51986 77700,77478,77452
 1.1500e+001 77631  5.0503e-001  1.3074e+000 -1.2476e+000 51986 77772,77556,77530
 1.1500e+001 77608  3.1661e+000  2.3628e+000 -2.0149e+000 51986 77452,77582,77556
 1.1500e+001 77726 -1.9420e-001  1.7048e+000 -8.8852e-001 51986 77530,77504,77700
 1.1500e+001 77749  4.6094e-001  1.2685e+000 -1.0194e+000 51986 77772,77530,77700
 1.1500e+001 77798  2.3739e-001  1.1724e+000 -1.1569e+000 51986 77452,77556,77772
 1.1500e+001 77821  9.6059e-002  1.1581e+000 -9.6132e-001 51986 77452,77772,77700
 1.1500e+001 78282 -9.6597e-001 -3.3657e+000 -4.5621e-002 51738 78008,78138,78060
 1.1500e+001 78259 -1.4767e+000 -4.2220e+000  1.7323e+000 51738 78008,78164,78138
 1.1500e+001 78236 -5.9351e-001 -1.6883e+000  5.3301e-001 51738 78086,78138,78112
 1.1500e+001 78213 -4.7728e-001 -1.5198e+000  5.9724e-001 51738 78060,78138,78086
 1.1500e+001 78190  2.7220e-002 -4.7385e+000 -6.7215e-001 51738 78008,78060,78034
 1.1500e+001 78432  2.0136e-001 -4.3009e-001  2.1325e-002 51148 78305,78357,78331
 1.1500e+001 78409  1.2407e-001 -3.0616e-001  2.5075e-002 51148 78305,78383,78357
 1.1500e+001 78891 -1.4682e-001 -5.8839e-001 -6.2273e-002 50808 78914,78695,78669
 1.1500e+001 78868 -7.4041e-002 -4.0901e-001 -4.2551e-002 50808 78914,78669,78643
 1.1500e+001 78845 -6.4222e-002 -5.2863e-001 -3.0309e-001 50808 78643,78773,78747
 1.1500e+001 78822 -5.3871e-002 -5.7549e-001 -2.9677e-001 50808 78617,78773,78643
 1.1500e+001 78799 -2.9489e-001 -5.7911e-001 -1.1235e-001 50808 78695,78747,78721
 1.1500e+001 78940 -2.0612e-001 -4.6493e-001 -1.8283e-001 50808 78747,78695,78914
 1.1500e+001 78963 -1.4459e-001 -3.6681e-001 -1.5654e-001 50808 78747,78914,78643
 1.1500e+001 79260  5.8481e-002 -5.7966e-001 -4.3977e-002 50468 79283,79090,79012
 1.1500e+001 79237  2.2616e-001 -5.4003e-001  6.9804e-003 50468 79283,79012,78986
 1.1500e+001 79214 -1.2575e-001 -6.6098e-001 -7.1739e-002 50468 79012,79090,79038
 1.1500e+001 79191  1.0521e-001 -4.6595e-001  8.8982e-002 50468 78986,79142,79116
 1.1500e+001 79168 -3.5300e-002 -6.5840e-001 -1.0503e-001 50468 79038,79090,79064
 1.1500e+001 79309 -1.2776e-001 -5.2276e-001 -6.5951e-002 50468 79116,79090,79283
 1.1500e+001 79332  8.4293e-002 -4.3831e-001  1.4476e-003 50468 79116,79283,78986
 1.1500e+001 79889  7.8645e-001  1.1129e+000 -5.0207e-001 50064 79569,79725,79699
 1.1500e+001 79866  8.7073e-001  1.0751e+000 -4.2758e-001 50064 79543,79725,79569
 1.1500e+001 79843  8.4672e-001  7.1202e-001 -5.6503e-001 50064 79621,79699,79673
 1.1500e+001 79820  1.0860e+000  1.2477e+000 -8.6495e-001 50064 79595,79699,79621
 1.1500e+001 79797  1.5830e+000  1.3203e+000 -6.7174e-001 50064 79569,79699,79595
 1.1500e+001 79774  4.0426e-001  1.1584e+000 -2.0899e-001 50064 79517,79725,79543
 1.1500e+001 79751  4.8887e-001  7.1585e-001 -6.0422e-001 50064 79621,79673,79647
 1.1500e+001 80169  1.0716e+000  1.5381e+000 -6.8397e-001 49724 80019,80097,80071
 1.1500e+001 80146  9.5515e-001  1.8798e+000 -7.9129e-001 49724 79993,80097,80019
 1.1500e+001 80123  7.1596e-001  1.4478e+000 -8.3310e-001 49724 80019,80071,80045
 1.1500e+001 80626 -2.2984e-002  2.6844e-001  1.8353e-001 49277 80352,80482,80378
 1.1500e+001 80603 -2.6148e-001  2.0242e-001 -2.6434e-002 49277 80352,80508,80482
 1.1500e+001 80580 -1.7690e-001 -4.0326e-001  3.0547e-002 49277 80378,80482,80456
 1.1500e+001 80557 -2.1768e-001 -7.3832e-001  3.0600e-001 49277 80378,80430,80404
 1.1500e+001 80534 -1.3003e-001 -3.4130e-001  2.2195e-001 49277 80378,80456,80430
 1.1500e+001 81230  1.0879e-001 -8.8155e-001  4.1190e-001 48716 81253,80835,80809
 1.1500e+001 81207  2.3866e-001 -5.5890e-001  4.3838e-001 48716 81397,81253,80809
 1.1500e+001 81184 -1.1724e-001  2.0935e-001 -8.7280e-002 48716 81325,80913,80887
 1.1500e+001 81161 -3.1281e-001 -7.4789e-001  5.9062e-001 48716 81397,80809,81017
 1.1500e+001 81138 -4.3520e-001  3.7534e-001 -2.6492e-001 48716 81469,80965,80913
 1.1500e+001 81115 -4.0051e-001 -1.2606e+000  4.0284e-001 48716 80835,80887,80861
 1.1500e+001 81092  7.8995e-001 -8.4886e-001  1.4635e+000 48716 80809,81043,81017
 1.1500e+001 81069  9.6612e-003 -2.0685e-002 -6.1481e-001 48716 80913,80965,80939
 1.1500e+001 81279  2.4620e-001 -5.2324e-001  7.4924e-002 48716 80887,80835,81253
 1.1500e+001 81302 -2.9258e-001  1.3606e-001 -8.8115e-002 48716 81325,80887,81253
 1.1500e+001 81351 -1.0447e-001  2.7599e-001 -1.3773e-001 48716 81469,80913,81325
 1.1500e+001 81374 -2.8570e-001  4.4332e-001  1.5610e-003 48716 80991,81325,81253
 1.1500e+001 81423 -6.4711e-001 -4.6788e-002  5.7228e-001 48716 80991,81253,81397
 1.1500e+001 81446 -1.3048e+000 -3.6745e-001  7.8621e-001 48716 80991,81397,81017
 1.1500e+001 81495 -9.5990e-001  3.2172e-001 -2.4052e-001 48716 80991,80965,81469
 1.1500e+001 81518 -6.9487e-001  1.7313e-001 -1.1529e-001 48716 80991,81469,81325
 1.1500e+001 81717 -5.6764e-002 -5.8481e-001  6.3078e-002 48262 81740,81567,81541
 1.1500e+001 81694 -1.7954e-001 -5.8388e-001  1.0176e-002 48262 81740,81541,81645
 1.1500e+001 81671 -1.3386e-001 -6.3645e-001 -2.3781e-002 48262 81567,81619,81593
 1.1500e+001 81766 -1.3425e-001 -5.9510e-001 -8.2607e-003 48262 81619,81567,81740
 1.1500e+001 81789 -2.6831e-001 -6.2354e-001 -7.0133e-002 48262 81619,81740,81645
 1.1500e+001 81939  9.2741e-001  1.2101e+000 -5.7211e-001 47957 82034,81962,81864
 1.1500e+001 81916  6.2004e-001  8.0580e-001 -2.3738e-001 47957 82166,81962,81838
 1.1500e+001 81988 -4.3979e-001  1.0222e+000 -5.0387e-001 47957 82294,81962,81890
 1.1500e+001 82011  6.3649e-001  1.5941e+000  2.8185e-001 47957 81890,81962,81812
 1.1500e+001 82060  8.4533e-001  1.8316e+000 -3.7740e-002 47957 81838,81962,82034
 1.1500e+001 82192  7.3245e-001  9.0880e-001  3.3743e-001 47957 81812,81962,82166
 1.1500e+001 82320  6.2664e-002  1.0522e+000 -6.2999e-001 47957 81864,81962,82294
 1.1500e+001 82549  7.1093e-003 -6.5484e-001 -1.6970e-001 47617 82448,82500,82474
 1.1500e+001 82526  2.9561e-001 -8.2209e-001  1.7696e-003 47617 82422,82500,82448
 1.1500e+001 82902 -2.9189e-001 -1.0262e+000  1.9455e-001 47255 82729,82807,82755
 1.1500e+001 82879 -9.1993e-002 -2.0081e+000  4.3269e-001 47255 82703,82807,82729
 1.1500e+001 82856 -5.1237e-001 -9.0747e-001  5.0211e-001 47255 82755,82807,82781
 1.1500e+001 82833  1.3552e+000 -1.3880e+000  5.7836e-001 47255 82677,82807,82703
 1.1500e+001 83182  4.0900e-001 -9.3192e-001  2.5830e-001 46680 83032,83084,83058
 1.1500e+001 83159  5.3276e-001 -3.7842e-001  2.5393e-001 46680 83205,83084,83032
 1.1500e+001 83136  7.3225e-001 -8.3002e-002  6.6794e-002 46680 83006,83110,83084
 1.1500e+001 83231  4.1706e-001 -4.0994e-001  2.5219e-001 46680 83006,83084,83205
 1.1500e+001 83737 -6.8637e-001 -3.6594e-001  6.5772e-002 46290 83832,83760,83492
 1.1500e+001 83714 -5.1808e-001 -6.1672e-002 -6.7223e-002 46290 83760,83440,83414
 1.1500e+001 83691 -4.4441e-001 -5.1754e-001  2.1618e-002 46290 83832,83492,83466
 1.1500e+001 83668 -5.3165e-001 -1.0749e+000  2.8414e-001 46290 83492,83570,83544
 1.1500e+001 83645 -5.2294e-001 -2.4336e-001 -1.8608e-001 46290 83414,83596,83570
 1.1500e+001 83622 -7.1590e-001 -8.7102e-001  4.6981e-001 46290 83492,83544,83518
 1.1500e+001 83786 -7.1070e-001 -3.3916e-001  1.0196e-001 46290 83570,83492,83760
 1.1500e+001 83809 -6.5871e-001 -4.5014e-001 -7.0585e-002 46290 83570,83760,83414
 1.1500e+001 83858 -3.7771e-001 -1.8038e-001  1.5419e-001 46290 83440,83760,83832
 1.1500e+001 83881  4.1489e-002 -3.0786e-001  6.3401e-002 46290 83440,83832,83466
 1.1500e+001 84161 -1.6862e-001 -8.2722e-001  3.4767e-001 45829 84011,84063,84037
 1.1500e+001 84138  7.0146e-003 -5.0303e-001  1.0001e-001 45829 84011,84089,84063
 1.1500e+001 84115  1.4641e-002 -4.9675e-001  1.5920e-001 45829 83985,84089,84011
 1.1500e+001 84311  1.0595e-001 -3.4331e-001  8.1825e-002 45631 84184,84236,84210
 1.1500e+001 84288 -2.8009e-001 -1.3523e+000  6.1926e-002 45631 84184,84262,84236
 1.1500e+001 84657 -9.1484e-002 -5.2528e-001 -1.9980e-002 45155 84680,84490,84412
 1.1500e+001 84634 -1.5947e-001 -4.7942e-001 -3.8970e-003 45155 84680,84412,84360
 1.1500e+001 84611 -1.4757e-001 -5.6105e-001  1.5040e-002 45155 84412,84490,84438
 1.1500e+001 84588  2.4332e-002 -3.7059e-001 -3.7052e-002 45155 84334,84516,84360
 1.1500e+001 84565 -1.9614e-001 -5.5444e-001 -1.3004e-001 45155 84360,84412,84386
 1.1500e+001 84542 -1.2056e-001 -4.6073e-001  7.1992e-002 45155 84438,84490,84464
 1.1500e+001 84706 -6.3535e-002 -4.8739e-001 -3.3399e-002 45155 84516,84490,84680
 1.1500e+001 84729 -1.1485e-001 -4.2789e-001 -2.4641e-002 45155 84516,84680,84360
 1.1500e+001 85077  1.6146e-001 -2.7781e-001  5.8506e-002 44508 85100,84754,84910
 1.1500e+001 85054  1.7026e-001  7.9792e-002  1.1636e-001 44508 84754,84936,84910
 1.1500e+001 85031  1.1202e-002 -4.2923e-001  2.0200e-001 44508 85100,84910,84884
 1.1500e+001 85008 -1.7611e-001 -4.6411e-001  1.0146e-001 44508 84780,84884,84832
 1.1500e+001 84985  4.0645e-002 -7.8804e-002 -9.9023e-002 44508 84780,84832,84806
 1.1500e+001 84962  6.3314e-001  1.1266e-001 -1.5333e-001 44508 84832,84884,84858
 1.1500e+001 85126  3.8489e-002 -4.8418e-002 -5.6066e-002 44508 84780,84754,85100
 1.1500e+001 85149 -7.4831e-002 -2.0054e-001  7.4943e-002 44508 84780,85100,84884
 1.1500e+001 85482 -4.0864e-001 -6.9499e-001 -8.5097e-003 44104 85335,85387,85361
 1.1500e+001 85459 -3.6458e-001 -1.0465e+000  3.6397e-002 44104 85309,85387,85335
 1.1500e+001 85436 -1.7400e-001 -8.1636e-001  1.5409e-001 44104 85257,85387,85309
 1.1500e+001 85413 -3.1172e-001 -1.4185e+000  9.6419e-002 44104 85257,85309,85283
 1.1500e+001 85811 -1.0248e-001 -3.8234e-001 -4.9365e-002 43600 85586,85664,85612
 1.1500e+001 85788 -1.8638e-001 -4.6651e-001  5.9358e-003 43600 85586,85690,85664
 1.1500e+001 85765  3.3108e-002 -3.7438e-001 -3.0315e-002 43600 85586,85716,85690
 1.1500e+001 85742 -6.8826e-002 -3.7201e-001 -4.4462e-002 43600 85612,85664,85638
 1.1500e+001 86010 -5.1804e-003 -4.3665e-001 -7.9195e-002 43224 85886,85938,85912
 1.1500e+001 85987  9.5012e-002 -9.5406e-002 -1.1182e-001 43224 85834,85938,85886
 1.1500e+001 85964 -2.3592e-001 -5.4874e-001  3.2947e-002 43224 85834,85886,85860
 1.1500e+001 86420  1.9128e+000  8.6550e-001 -2.7338e-001 42820 86195,86299,86221
 1.1500e+001 86397  1.4109e+000  8.3145e-001 -9.9810e-001 42820 86195,86325,86299
 1.1500e+001 86374  1.2133e+000  1.1615e+000  5.2841e-002 42820 86221,86299,86273
 1.1500e+001 86351  1.0584e+000  5.9579e-001  1.4526e-001 42820 86221,86273,86247
 1.1500e+001 86749  3.7726e-001 -3.9682e-001 -1.6359e-001 42223 86550,86602,86576
 1.1500e+001 86726  1.1587e+000 -7.9571e-001  1.9731e-002 42223 86550,86628,86602
 1.1500e+001 86703  3.3722e-002 -1.1776e+000  3.6497e-001 42223 86524,86628,86550
 1.1500e+001 86680  7.2139e-001 -1.3855e-001  4.0750e-002 42223 86524,86654,86628
 1.1500e+001 87078  7.2000e-001 -3.0607e-001  2.9120e-001 41883 87173,87101,86905
 1.1500e+001 87055  5.2403e-001  2.5766e-001  5.3162e-002 41883 87101,86879,86853
 1.1500e+001 87032  1.3374e-001 -6.5008e-002  7.0846e-002 41883 86853,86983,86931
 1.1500e+001 87009  4.7076e-002 -4.5437e-001  1.9887e-001 41883 86931,86983,86957
 1.1500e+001 87127  8.7271e-001 -1.3589e-001  8.5477e-003 41883 86931,86905,87101
 1.1500e+001 87150  2.7311e-001 -3.2412e-001  9.2297e-003 41883 86931,87101,86853
 1.1500e+001 87199  1.9471e-001 -2.8435e-001  2.5905e-001 41883 86879,87101,87173
 1.1500e+001 87558 -7.1992e-003  2.4520e-001  3.5921e-003 41471 87382,87460,87408
 1.1500e+001 87535 -4.2725e-001 -1.4823e-001 -1.8180e-001 41471 87382,87486,87460
 1.1500e+001 87512 -2.0885e-001  4.9636e-002 -8.6712e-002 41471 87408,87460,87434
 1.1500e+001 87806  1.4132e-001 -2.8884e-001  3.9920e-002 41017 87829,87607,87581
 1.1500e+001 87783  1.0191e-001 -4.1953e-001  8.6067e-002 41017 87829,87581,87685
 1.1500e+001 87760  3.1116e-001 -1.6284e-001 -5.1969e-003 41017 87581,87711,87685
 1.1500e+001 87737  3.1266e-001 -8.1125e-001  4.1486e-002 41017 87633,87685,87659
 1.1500e+001 87855  1.2637e-001 -3.3670e-001  1.3776e-001 41017 87633,87607,87829
 1.1500e+001 87878  7.4896e-002 -4.7585e-001  1.8663e-001 41017 87633,87829,87685
 1.1500e+001 88258 -2.2280e-002 -7.0602e-002 -2.7158e-003 40613 88281,88036,88010
 1.1500e+001 88235 -1.4355e-002 -8.7365e-002 -5.5771e-003 40613 88281,88010,88088
 1.1500e+001 88212 -1.6996e-002 -8.4049e-002 -8.5116e-003 40613 87984,88088,88010
 1.1500e+001 88189  6.4864e-003 -2.9851e-002 -4.9943e-003 40613 87984,88114,88088
 1.1500e+001 88166 -3.4066e-003 -3.6523e-002 -2.2573e-003 40613 87984,88140,88114
 1.1500e+001 88307 -2.0184e-002 -4.9333e-002  1.3505e-002 40613 88062,88036,88281
 1.1500e+001 88330 -1.9183e-002 -8.1334e-002  1.4744e-002 40613 88062,88281,88088
 1.1500e+001 88649 -3.2588e-002 -8.6256e-002 -2.4277e-003 40095 88375,88505,88401
 1.1500e+001 88626 -3.4786e-002 -4.4194e-002 -2.3765e-002 40095 88375,88531,88505
 1.1500e+001 88603  4.6309e-002 -7.8003e-002 -3.8866e-003 40095 88401,88505,88479
 1.1500e+001 88580 -1.5196e-001 -3.5924e-001 -7.1066e-002 40095 88427,88479,88453
 1.1500e+001 88557  2.1410e-002 -1.4540e-001  1.0485e-002 40095 88401,88479,88427
 1.1500e+001 89078  9.7535e-001 -2.9242e-001 -1.3981e-001 39897 89101,88833,88807
 1.1500e+001 89055  5.2937e-001 -7.9996e-001 -3.9276e-001 39897 89101,88807,88911
 1.1500e+001 89032  6.1062e-001 -2.1823e-001 -4.2399e-001 39897 88781,88911,88807
 1.1500e+001 89009 -3.3359e-001 -9.7954e-001 -9.8259e-001 39897 88781,88937,88911
 1.1500e+001 88986  2.0939e+000  2.8359e-001 -4.1308e-001 39897 88833,88885,88859
 1.1500e+001 88963  4.7753e-001 -4.1038e-001 -5.7135e-001 39897 88755,88937,88781
 1.1500e+001 89127  1.4396e+000 -9.0941e-001 -6.8178e-001 39897 88885,88833,89101
 1.1500e+001 89150  6.1038e-001 -1.6962e+000 -1.0348e+000 39897 88885,89101,88911
 1.1500e+001 89300 -8.1721e-001 -1.1203e+000  1.6697e-001 39607 89453,89323,89199
 1.1500e+001 89277 -1.2974e+000 -9.8289e-001  5.4613e-002 39607 89525,89453,89199
 1.1500e+001 89349 -7.2566e-001 -1.1102e+000 -9.3753e-002 39607 89225,89199,89323
 1.1500e+001 89479 -8.5400e-001 -7.7210e-001  1.5970e-001 39607 89251,89323,89453
 1.1500e+001 89502 -5.3426e-001 -3.9817e-001  4.5813e-001 39607 89251,89453,89173
 1.1500e+001 89551 -2.6518e-001 -6.4422e-001  8.5873e-002 39607 89173,89453,89525
 1.1500e+001 90264 -6.7227e-001 -1.8542e+000 -1.6661e-001 39039 89996,90074,90048
 1.1500e+001 90241 -3.8369e-001 -8.7953e-001 -1.3085e-001 39039 89918,90074,89996
 1.1500e+001 90218 -5.5162e-001 -9.9893e-001 -4.6419e-002 39039 89918,89996,89944
 1.1500e+001 90195 -3.8782e-001 -8.5621e-001 -9.0648e-002 39039 89892,90074,89918
 1.1500e+001 90172  1.2471e-001 -1.8496e+000 -2.4455e-001 39039 89996,90048,90022
 1.1500e+001 90149 -1.0731e+000  1.5825e-001 -7.7409e-002 39039 89892,90100,90074
 1.1500e+001 90126 -8.4899e-001 -1.1329e+000  7.9007e-002 39039 89944,89996,89970
 1.1500e+001 90770 -1.3644e-001 -4.5921e-001  7.0618e-003 38635 90473,90603,90577
 1.1500e+001 90747 -3.1576e-002 -4.0035e-001 -2.7602e-002 38635 90447,90603,90473
 1.1500e+001 90724 -5.2488e-002 -4.8312e-001 -5.3005e-002 38635 90499,90577,90551
 1.1500e+001 90701 -1.8361e-001 -5.8616e-001  3.3084e-002 38635 90473,90577,90499
 1.1500e+001 90678 -9.9950e-002 -6.6739e-001 -1.9307e-002 38635 90499,90551,90525
 1.1500e+001 90655 -2.2370e-001 -4.5207e-001  4.5096e-002 38635 90447,90629,90603
 1.1500e+001 90871 -3.5925e-002 -4.0996e-001 -9.6326e-002 38231 90793,90845,90819
 1.1500e+001 91458  4.0318e-002 -2.1672e-001  4.9874e-003 37534 91161,91317,91291
 1.1500e+001 91435 -1.5762e-001 -1.2199e-001  8.9672e-002 37534 91135,91317,91161
 1.1500e+001 91412 -2.7673e-001 -1.1561e+000 -2.5938e-001 37534 91187,91291,91239
 1.1500e+001 91389 -5.6399e-002 -1.1624e+000  1.5311e-001 37534 91161,91291,91187
 1.1500e+001 91366 -1.9954e-002 -8.3960e-001 -1.3577e-001 37534 91239,91291,91265
 1.1500e+001 91343  5.0702e-001 -1.2500e+000 -5.9554e-001 37534 91187,91239,91213
 1.1500e+001 91915 -2.9948e-001 -8.6218e-001  1.4627e-001 37080 91938,91745,91667
 1.1500e+001 91892 -8.9814e-003 -8.0659e-001  6.5177e-002 37080 91938,91667,91797
 1.1500e+001 91869  1.9529e-001 -2.9396e-001  1.2005e-001 37080 91641,91797,91667
 1.1500e+001 91846 -2.8583e-001 -9.4477e-001  4.3382e-002 37080 91667,91719,91693
 1.1500e+001 91823 -1.9852e-001 -7.2134e-001  8.6515e-002 37080 91667,91745,91719
 1.1500e+001 91964 -4.3621e-001 -9.6280e-001  3.9938e-001 37080 91771,91745,91938
 1.1500e+001 91987 -1.5325e-001 -8.1771e-001  2.8470e-001 37080 91771,91938,91797
 1.1500e+001 92235 -1.9519e-001 -4.3237e-001 -2.4396e-002 36397 92036,92088,92062
 1.1500e+001 92212 -1.3078e-001 -4.1511e-001 -4.9705e-002 36397 92036,92114,92088
 1.1500e+001 92189 -2.7413e-002 -3.3550e-001  8.8249e-003 36397 92036,92140,92114
 1.1500e+001 92166 -1.2826e-002 -4.5179e-001 -1.9297e-002 36397 92010,92140,92036
 1.1500e+001 92694  1.2658e-001  3.4570e-003 -2.3967e-002 36057 92446,92498,92472
 1.1500e+001 92671  1.7627e-001 -6.5965e-003  7.4787e-002 36057 92446,92550,92498
 1.1500e+001 92648 -4.7803e-002 -4.1711e-001  1.8497e-001 36057 92446,92576,92550
 1.1500e+001 92625  1.4251e-001 -2.4692e-002 -2.9825e-001 36057 92420,92576,92446
 1.1500e+001 92602  1.8901e-002  7.4581e-003  1.5339e-001 36057 92498,92550,92524
 1.1500e+001 93023 -1.9678e-001 -3.7509e-001 -4.2012e-002 35717 92876,92928,92902
 1.1500e+001 93000 -1.6037e-001 -4.1898e-001 -5.9163e-002 35717 92824,92928,92876
 1.1500e+001 92977 -3.6269e-002 -4.1360e-001 -2.2971e-002 35717 92798,92928,92824
 1.1500e+001 92954 -1.9323e-001 -5.5686e-001 -1.4431e-001 35717 92824,92876,92850
 1.1500e+001 93499  3.3630e-001 -5.1547e-001  2.0556e-001 35405 93522,93309,93257
 1.1500e+001 93476  3.6489e-001 -4.1200e-001  1.9203e-001 35405 93666,93522,93257
 1.1500e+001 93453  3.5081e-001 -1.3364e+000  2.2878e-001 35405 93594,93127,93335
 1.1500e+001 93430  2.4976e-001 -4.1581e-001  1.5709e-001 35405 93666,93257,93231
 1.1500e+001 93407 -2.6016e-002 -1.6598e+000 -2.9812e-002 35405 93127,93179,93153
 1.1500e+001 93384 -4.5949e-001 -3.0725e-001  4.4900e-001 35405 93179,93231,93205
 1.1500e+001 93361  4.0561e-001  2.0374e-001 -2.6591e-002 35405 93257,93309,93283
 1.1500e+001 93548  5.6449e-001 -3.3627e-001  4.2723e-001 35405 93335,93309,93522
 1.1500e+001 93571  3.6447e-001 -7.5383e-001  3.1446e-001 35405 93594,93335,93522
 1.1500e+001 93620  4.1916e-001 -7.1651e-001  1.4280e-001 35405 93179,93127,93594
 1.1500e+001 93643  2.1361e-001 -4.6439e-001  1.4927e-001 35405 93738,93594,93522
 1.1500e+001 93692  2.4536e-001 -4.5522e-001  1.4498e-001 35405 93738,93522,93666
 1.1500e+001 93715  1.9809e-001 -4.4049e-001  1.1537e-001 35405 93179,93666,93231
 1.1500e+001 93764  2.1172e-001 -4.6205e-001  1.6909e-001 35405 93179,93594,93738
 1.1500e+001 93787  2.1881e-001 -4.6429e-001  1.6297e-001 35405 93179,93738,93666
 1.1500e+001 94372  8.2240e-001 -1.1208e-001  8.4644e-002 34951 94395,94127,94075
 1.1500e+001 94349  1.0837e+000 -1.6850e-001  1.9220e-001 34951 94395,94075,94231
 1.1500e+001 94326  1.1523e+000 -4.5127e-001 -2.7360e-001 34951 94049,94231,94075
 1.1500e+001 94303  6.0354e-001  2.0247e-001  3.0866e-001 34951 94075,94127,94101
 1.1500e+001 94280  1.5930e+000  7.1947e-001  6.7053e-001 34951 94127,94205,94153
 1.1500e+001 94257  1.2162e+000 -2.4192e-001  6.4608e-001 34951 94153,94205,94179
 1.1500e+001 94421  1.0275e+000 -1.4418e-001  2.3240e-001 34951 94205,94127,94395
 1.1500e+001 94444  1.4933e+000 -6.8351e-002  3.3318e-001 34951 94205,94395,94231
 1.1500e+001 94692  3.5662e-002 -6.4103e-002 -2.1780e-002 34397 94715,94519,94467
 1.1500e+001 94669  3.4031e-002 -7.4100e-002 -2.2265e-002 34397 94715,94467,94597
 1.1500e+001 94646  2.0175e-002  3.6948e-002 -2.4398e-002 34397 94545,94597,94571
 1.1500e+001 94623 -2.9314e-002 -2.2615e-001 -6.1359e-004 34397 94467,94519,94493
 1.1500e+001 94741  3.8741e-002 -2.5174e-002 -1.7636e-002 34397 94545,94519,94715
 1.1500e+001 94764  2.3914e-002 -5.9831e-002 -1.7017e-002 34397 94545,94715,94597
 1.1500e+001 94985 -1.2104e-002 -3.5672e-001 -7.9296e-003 33985 94835,94913,94887
 1.1500e+001 94962  7.1035e-005 -3.3266e-001  6.5587e-003 33985 94809,94913,94835
 1.1500e+001 94939 -1.1576e-001 -4.0341e-001  1.5661e-002 33985 94835,94887,94861
 1.1500e+001 95186 -6.1162e-002 -6.2086e-001 -1.8267e-001 33645 95281,95209,95036
 1.1500e+001 95163  3.5617e-001 -6.4267e-001  4.1297e-002 33645 95209,95010,95088
 1.1500e+001 95140  3.6559e-001 -3.4569e-001 -1.1696e-003 33645 95010,95114,95088
 1.1500e+001 95235 -2.5251e-001 -7.6104e-001 -2.9054e-001 33645 95062,95036,95209
 1.1500e+001 95258 -1.9316e-001 -8.5856e-001  2.7127e-001 33645 95413,95209,95088
 1.1500e+001 95307  2.7946e-001 -4.7909e-002 -3.8684e-001 33645 95010,95209,95281
 1.1500e+001 95439  1.4272e-001 -4.7988e-001  1.2382e-001 33645 95062,95209,95413
 1.1500e+001 95766 -1.9925e-001 -1.1821e-001 -3.1296e-001 33141 95789,95593,95567
 1.1500e+001 95743  1.1021e-002 -2.6761e-001 -9.9369e-002 33141 95861,95789,95567
 1.1500e+001 95720 -3.4649e-003 -2.3329e-001 -3.5338e-002 33141 95861,95567,95671
 1.1500e+001 95697  1.9018e-003 -2.6783e-001 -4.6039e-002 33141 95541,95671,95567
 1.1500e+001 95815 -2.7596e-002  2.9475e-001 -2.7068e-001 33141 95619,95593,95789
 1.1500e+001 95838  4.2672e-002 -7.4342e-002 -9.2995e-002 33141 95619,95789,95645
 1.1500e+001 95887  6.1109e-002 -1.5404e-001 -1.0738e-001 33141 95645,95789,95861
 1.1500e+001 95910  4.3207e-002 -1.2130e-001 -3.4736e-002 33141 95645,95861,95671
 1.1500e+001 96060 -1.9591e-001 -3.6258e-001 -1.3605e-001 32487 95959,96011,95985
 1.1500e+001 96037 -1.5987e-002 -3.7114e-001 -1.9527e-002 32487 95933,96011,95959
 1.1500e+001 96570 -1.7121e-001 -4.3501e-001  2.4017e-001 32033 96665,96593,96377
 1.1500e+001 96547 -1.4981e-001 -4.0652e-001 -1.2288e-001 32033 96737,96593,96325
 1.1500e+001 96524 -2.3573e-001 -5.6798e-001  1.4848e-001 32033 96665,96377,96351
 1.1500e+001 96501 -2.4779e-001 -5.7751e-001 -8.2342e-002 32033 96737,96325,96299
 1.1500e+001 96478 -2.9668e-001 -2.0077e-001 -8.2121e-002 32033 96247,96429,96299
 1.1500e+001 96455 -6.9031e-001 -1.2533e+000 -4.7799e-002 32033 96247,96299,96273
 1.1500e+001 96619  1.5876e-001 -1.9320e-001  3.0107e-001 32033 96809,96593,96403
 1.1500e+001 96642  3.6699e-001  3.6551e-001 -3.3463e-001 32033 96403,96593,96429
 1.1500e+001 96691  8.1970e-002 -7.5764e-001  6.7548e-002 32033 96325,96593,96665
 1.1500e+001 96714 -1.3556e-001 -1.0059e+000 -6.1410e-002 32033 96325,96665,96351
 1.1500e+001 96763 -2.6727e-001 -3.5271e-001 -4.1352e-002 32033 96429,96593,96737
 1.1500e+001 96786 -3.0428e-001 -4.2209e-001 -2.5408e-002 32033 96429,96737,96299
 1.1500e+001 96835 -5.9058e-003 -3.6053e-001  2.2475e-001 32033 96377,96593,96809
 1.1500e+001 97064 -1.7465e-002 -8.6896e-002 -2.4692e-002 31671 97087,96989,96963
 1.1500e+001 97041 -4.9064e-002 -1.1513e-001  1.7450e-002 31671 97087,96963,96937
 1.1500e+001 97113  3.6911e-002 -4.8937e-002 -5.1060e-002 31671 97159,97087,97015
 1.1500e+001 97136  1.1612e-004  1.7145e-002 -5.9951e-003 31671 97015,97087,96937
 1.1500e+001 97185 -2.6928e-002 -1.0868e-001 -2.6130e-002 31671 96989,97087,97159
 1.1500e+001 97563 -8.6421e-003 -1.4348e-001 -3.0293e-002 31117 97586,97367,97341
 1.1500e+001 97540 -2.2261e-002 -1.0634e-001  2.9916e-003 31117 97658,97586,97341
 1.1500e+001 97517 -3.7207e-002 -1.0887e-001 -3.2353e-003 31117 97658,97341,97315
 1.1500e+001 97494  6.0097e-002 -4.0925e-002  5.6422e-002 31117 97289,97445,97315
 1.1500e+001 97471  5.5713e-003 -9.7416e-003 -2.7446e-003 31117 97367,97419,97393
 1.1500e+001 97612 -3.5476e-002 -4.0009e-002 -3.6147e-002 31117 97419,97367,97586
 1.1500e+001 97635  2.7069e-002 -7.6210e-002  4.0496e-002 31117 97419,97586,97445
 1.1500e+001 97684  8.3102e-003 -1.1572e-001  6.1285e-003 31117 97445,97586,97658
 1.1500e+001 97707 -9.3587e-003 -1.2093e-001 -8.1370e-004 31117 97445,97658,97315
 1.1500e+001 98215  8.4072e-002 -9.3492e-002 -1.5143e-001 30563 98238,97996,97944
 1.1500e+001 98192 -1.0254e-001 -7.7861e-002 -1.6163e-001 30563 98310,98238,97944
 1.1500e+001 98169 -2.8218e-001 -2.6409e-001 -2.8525e-001 30563 98310,97944,97918
 1.1500e+001 98146  2.2584e-001 -9.6583e-002 -5.5459e-002 30563 97892,98074,97918
 1.1500e+001 98123  2.0311e-001 -1.4685e-001  6.8843e-002 30563 97996,98048,98022
 1.1500e+001 98100 -1.7477e-001 -1.6820e-001 -1.8905e-001 30563 97944,97996,97970
 1.1500e+001 98264  2.3917e-002 -3.1271e-002 -1.1252e-001 30563 98048,97996,98238
 1.1500e+001 98287  1.8680e-001  2.5673e-001  1.0324e-001 30563 98048,98238,98074
 1.1500e+001 98336  8.4772e-002 -1.1225e-001 -1.0152e-002 30563 98074,98238,98310
 1.1500e+001 98359 -4.1512e-002 -1.4011e-001 -9.8360e-002 30563 98074,98310,97918
 1.1500e+001 98607 -3.0102e-001 -6.3751e-002  1.5025e-002 30073 98630,98460,98408
 1.1500e+001 98584 -4.8761e-001 -1.4690e-001 -3.2847e-002 30073 98630,98408,98382
 1.1500e+001 98561 -1.1376e-001 -1.3180e-001 -4.5603e-002 30073 98382,98512,98486
 1.1500e+001 98538 -1.6522e-001 -1.0953e-001  1.1183e-001 30073 98408,98460,98434
 1.1500e+001 98656 -1.9514e-001 -1.8503e-001 -2.4617e-002 30073 98486,98460,98630
 1.1500e+001 98679 -3.1668e-001 -2.1839e-001 -6.0791e-002 30073 98486,98630,98382
 1.1500e+001 99157  9.1298e-001 -2.6282e-001  2.3638e-001 29669 99180,98837,98811
 1.1500e+001 99134  8.2050e-001 -2.0178e-001  3.6982e-001 29669 99324,99180,98811
 1.1500e+001 99111  6.4731e-001  4.5353e-002  8.7482e-003 29669 99252,98863,98837
 1.1500e+001 99088  8.0482e-001 -3.4990e-001  4.1266e-001 29669 99324,98811,98993
 1.1500e+001 99065  6.8282e-001  3.8900e-001  1.6205e-001 29669 98863,98941,98915
 1.1500e+001 99042 -2.1133e-001  1.7116e-001  1.6069e-001 29669 98863,98915,98889
 1.1500e+001 99019  3.1667e-001 -5.1996e-001  6.1562e-001 29669 98785,98993,98811
 1.1500e+001 99206  6.9558e-001 -3.5011e-001  1.3687e-001 29669 99252,98837,99180
 1.1500e+001 99229  4.6025e-001 -1.7686e-001  4.1143e-001 29669 98941,99180,98967
 1.1500e+001 99278  5.9203e-001  3.1725e-001  7.3989e-002 29669 98941,98863,99252
 1.1500e+001 99301  8.1422e-001  1.5209e-001  2.3923e-001 29669 98941,99252,99180
 1.1500e+001 99350  7.8640e-001 -1.8789e-002  3.5947e-001 29669 98967,99180,99324
 1.1500e+001 99373  8.0281e-001 -1.4063e-001  3.8067e-001 29669 98967,99324,98993
 1.1500e+001 99958  5.2197e-001  6.5056e-001  2.2034e-001 29051 99981,99765,99739
 1.1500e+001 99935  1.2026e-001 -3.1291e-003  4.8962e-002 29051 99981,99739,99661
 1.1500e+001 99912  2.9540e-001 -1.1780e+000 -4.7399e-002 29051 99765,99817,99791
 1.1500e+001 99889 -1.5789e-002 -5.4743e-001  1.6656e-001 29051 99635,99817,99661
 1.1500e+001 99866 -4.5965e-001 -4.4359e-002  4.7098e-001 29051 99661,99739,99687
 1.1500e+001 99843 -7.2096e-001  9.2191e-002  2.8144e-001 29051 99687,99739,99713
 1.1500e+001 100007  7.3876e-001  2.2830e-002  2.8672e-001 29051 99817,99765,99981
 1.1500e+001 100030  5.7450e-001 -2.8740e-001  2.1202e-001 29051 99817,99981,99661
 1.1500e+001 100278  4.5057e-001 -1.7992e-001  1.4182e-001 28525 100445,100301,100131
 1.1500e+001 100255  2.1144e-001  9.6212e-002  8.0558e-002 28525 100373,100301,100079
 1.1500e+001 100232  1.8900e-001 -2.4690e-001  1.2905e-001 28525 100373,100079,100053
 1.1500e+001 100209  2.6642e-001 -3.8848e-002 -2.6141e-003 28525 100445,100131,100105
 1.1500e+001 100327  6.6028e-001 -1.9058e-001  2.5693e-001 28525 100517,100301,100157
 1.1500e+001 100350  4.8824e-001  4.5527e-001  2.6181e-001 28525 100157,100301,100183
 1.1500e+001 100399  1.9009e-001 -2.6058e-001  2.5579e-001 28525 100183,100301,100373
 1.1500e+001 100422  2.4613e-001 -5.0442e-001  3.0058e-001 28525 100183,100373,100053
 1.1500e+001 100471  2.0556e-001 -2.4148e-001 -1.4104e-001 28525 100079,100301,100445
 1.1500e+001 100494 -3.0594e-001 -3.3999e-001 -3.0101e-001 28525 100079,100445,100105
 1.1500e+001 100543  7.6921e-001  3.0873e-002  9.2855e-003 28525 100131,100301,100517
 1.1500e+001 101209 -6.5251e-001 -1.0319e-001 -4.5188e-002 28185 100938,101016,100990
 1.1500e+001 101186 -8.0908e-001 -5.2451e-002  8.7662e-003 28185 100912,101016,100938
 1.1500e+001 101163 -2.0809e-001  1.2034e-001  1.0583e-001 28185 100912,101068,101016
 1.1500e+001 101140 -8.3616e-001  7.6228e-002  2.6872e-002 28185 100886,101068,100912
 1.1500e+001 101117 -1.8390e-001  3.5868e-001  1.3801e-001 28185 101016,101068,101042
 1.1500e+001 101094 -1.8735e+000 -4.4380e-001 -8.2100e-002 28185 100938,100990,100964
 1.1500e+001 101408  1.8775e-001 -1.5615e-001 -1.2518e-001 27781 101503,101431,101310
 1.1500e+001 101385 -1.0271e-001  3.6214e-002 -3.7095e-001 27781 101431,101258,101232
 1.1500e+001 101362  2.3079e-001 -1.7920e-001 -1.4817e-001 27781 101503,101310,101284
 1.1500e+001 101457  7.5354e-001  9.2759e-002 -1.8580e-001 27781 101336,101310,101431
 1.1500e+001 101480  1.9746e-001  1.7112e-001 -3.9885e-001 27781 101575,101431,101232
 1.1500e+001 101529  3.5272e-001 -1.3754e-001 -3.1242e-001 27781 101258,101431,101503
 1.1500e+001 101552  2.5268e-001 -1.8341e-001 -1.6251e-001 27781 101705,101503,101284
 1.1500e+001 101601  3.9668e-001  4.9818e-001 -4.8638e-001 27781 101336,101431,101575
 1.1500e+001 101731 -6.6202e-002 -3.0625e-001 -3.2962e-001 27781 101258,101503,101705
 1.1500e+001 102237 -2.9284e-001 -1.7011e-001  4.8759e-002 27419 102476,102260,101992
 1.1500e+001 102214 -1.5396e-001 -2.9690e-001  1.4632e-003 27419 102260,101940,101914
 1.1500e+001 102191 -3.7478e-001 -3.7791e-001  4.1155e-002 27419 102404,102332,102096
 1.1500e+001 102168 -3.2063e-001 -3.7139e-001 -1.4729e-002 27419 102404,102096,102044
 1.1500e+001 102145 -2.6360e-001 -1.9378e-001  6.6740e-002 27419 102476,101992,101966
 1.1500e+001 102122 -2.3141e-001 -3.7986e-001 -2.5153e-002 27419 102044,102096,102070
 1.1500e+001 102286 -3.8342e-001 -2.9855e-001  8.8291e-002 27419 102018,101992,102260
 1.1500e+001 102309 -3.1868e-001 -2.6080e-001  9.9759e-003 27419 102332,102018,102260
 1.1500e+001 102358 -3.5962e-001 -5.5438e-001  1.4870e-001 27419 101914,102096,102332
 1.1500e+001 102381 -2.5627e-001 -4.1198e-001  4.7699e-002 27419 101914,102332,102260
 1.1500e+001 102430 -2.5869e-001 -3.4808e-001  8.6709e-003 27419 102018,102332,102404
 1.1500e+001 102453 -2.2360e-001 -3.3848e-001 -5.2996e-002 27419 102018,102404,102044
 1.1500e+001 102502 -2.0225e-001 -2.6091e-001  6.9762e-002 27419 101940,102260,102476
 1.1500e+001 102525  1.9661e-001 -6.5732e-002  8.2913e-003 27419 101940,102476,101966
 1.1500e+001 103031 -9.5062e-001 -7.4131e-002  8.2760e-001 26715 102708,102786,102760
 1.1500e+001 103008  2.7624e-002 -5.0305e-001  2.4899e-001 26715 102708,102890,102786
 1.1500e+001 102985  8.2821e-001 -1.1154e+000  2.9893e-001 26715 102838,102890,102864
 1.1500e+001 102962  3.1244e-001  1.6575e-001  2.9667e-001 26715 102786,102890,102838
 1.1500e+001 102939  1.4761e+000  7.2076e-001  7.6220e-001 26715 102786,102838,102812
 1.1500e+001 102916 -1.2480e+000 -4.1078e-002  2.2580e-001 26715 102708,102760,102734
 1.1500e+001 103279 -1.8539e-002 -1.9926e-002  4.5841e-002 26303 103302,103158,103080
 1.1500e+001 103256 -7.6501e-002  2.4800e-002  4.7143e-002 26303 103302,103080,103054
 1.1500e+001 103233 -1.5066e-001 -8.4345e-002  2.1152e-002 26303 103080,103158,103106
 1.1500e+001 103210  1.6259e-001 -1.6668e-003  2.5532e-002 26303 103106,103158,103132
 1.1500e+001 103328  8.1099e-002  2.3209e-002  2.6508e-002 26303 103184,103158,103302
 1.1500e+001 103351 -3.0091e-002  2.7278e-002  3.7038e-002 26303 103184,103302,103054
 1.1500e+001 103501 -2.3109e-001 -3.8991e-001  8.3594e-003 25849 103374,103426,103400
 1.1500e+001 103478 -2.6939e-001 -3.0370e-001  2.7121e-002 25849 103374,103452,103426
 1.1500e+001 104090  9.9798e-002 -1.3668e-002  1.3287e-001 25445 103793,103871,103819
 1.1500e+001 104067  2.7892e-001  2.5915e-002  5.6308e-002 25445 103793,103949,103871
 1.1500e+001 104044  3.2920e-001  2.5877e-002  1.3671e-001 25445 103871,103949,103923
 1.1500e+001 104021  9.9942e-003  4.0347e-002 -2.8704e-002 25445 103819,103871,103845
 1.1500e+001 103998  3.4329e-001  1.1234e-001  1.7093e-001 25445 103767,103949,103793
 1.1500e+001 103975  3.6518e-001  6.1830e-002  1.5138e-001 25445 103871,103923,103897
 1.1500e+001 104419 -1.2892e-001 -1.0596e-001 -6.8314e-002 25083 104220,104298,104272
 1.1500e+001 104396 -2.6320e-001 -2.8885e-001 -4.3057e-003 25083 104220,104324,104298
 1.1500e+001 104373 -8.8580e-002 -8.2552e-002 -3.9755e-002 25083 104220,104272,104246
 1.1500e+001 104350 -2.5042e-001 -3.1219e-001 -9.9586e-003 25083 104194,104324,104220
 1.1500e+001 105102  9.4467e-002 -1.8480e-001  4.1743e-002 24793 104785,104863,104837
 1.1500e+001 105079  1.1446e-001 -2.7589e-001 -1.2793e-001 24793 104759,104863,104785
 1.1500e+001 105056  1.0107e-001 -2.4673e-002 -1.2310e-001 24793 104759,104915,104863
 1.1500e+001 105033  1.1636e-001 -1.4342e-001 -1.6130e-001 24793 104733,104915,104759
 1.1500e+001 105010  4.0422e-001  1.1564e-001 -1.7996e-001 24793 104863,104915,104889
 1.1500e+001 104987 -2.9369e-002  3.1427e-002 -2.7691e-001 24793 104681,104915,104733
 1.1500e+001 104964  1.3140e-002 -2.8421e-001  2.9072e-003 24793 104785,104837,104811
 1.1500e+001 104941  4.8316e-004  2.6542e-001 -2.4223e-001 24793 104681,104733,104707
 1.1500e+001 105252  1.1012e+000  5.9405e-001  6.5487e-003 24389 105477,105275,105177
 1.1500e+001 105229  3.8651e-001  1.7619e-001  2.7291e-001 24389 105347,105275,105151
 1.1500e+001 105301  1.0902e+000  3.2955e-001  2.7182e-003 24389 105203,105177,105275
 1.1500e+001 105324  1.3445e+000  9.0528e-001  2.8479e-001 24389 105203,105275,105125
 1.1500e+001 105373  1.1023e+000  5.2200e-001  5.9000e-002 24389 105125,105275,105347
 1.1500e+001 105503  8.4071e-001 -3.1794e-003 -4.2309e-002 24389 105151,105275,105477
 1.1500e+001 106088 -2.7804e-001  2.6741e-001  3.2596e-001 23735 105791,105921,105895
 1.1500e+001 106065 -8.6062e-001  1.0493e-001  4.4544e-001 23735 105765,105921,105791
 1.1500e+001 106042 -1.2403e-001  4.9130e-001  2.7074e-001 23735 105765,105947,105921
 1.1500e+001 106019 -1.0826e+000 -8.1210e-003  4.2241e-001 23735 105817,105895,105869
 1.1500e+001 105996 -6.8325e-001  1.2041e-001  4.0245e-001 23735 105791,105895,105817
 1.1500e+001 105973 -5.7189e-001 -2.5915e-001  4.4716e-001 23735 105817,105869,105843
 1.1500e+001 106417  4.7309e-001  9.5651e-001 -1.5107e-001 23295 106218,106296,106270
 1.1500e+001 106394  3.4661e-001  3.9433e-001 -1.3563e-001 23295 106218,106322,106296
 1.1500e+001 106371  1.7698e-001  2.8213e-001 -1.9894e-001 23295 106218,106270,106244
 1.1500e+001 106348  5.2534e-001  4.7078e-001 -6.9126e-002 23295 106192,106322,106218
 1.1500e+001 106746 -2.5462e-001  2.5922e-001  2.4952e-001 23005 106521,106599,106547
 1.1500e+001 106723  2.7478e-001  6.9784e-001  5.4807e-002 23005 106521,106651,106599
 1.1500e+001 106700  3.9291e-001  1.8252e-001 -9.2317e-002 23005 106547,106599,106573
 1.1500e+001 106677  3.6383e-001  6.0839e-001  3.4042e-001 23005 106599,106651,106625
 1.1500e+001 107331 -2.3723e-001  2.9186e-001 -2.9874e-001 22601 107060,107190,107138
 1.1500e+001 107308 -1.1956e+000  6.7453e-001 -5.9403e-001 22601 107034,107190,107060
 1.1500e+001 107285 -2.1202e+000 -5.3060e-001 -4.3518e-001 22601 107060,107138,107112
 1.1500e+001 107262 -1.6681e+000  9.6408e-001  4.4840e-001 22601 107008,107190,107034
 1.1500e+001 107239 -1.0713e-001 -2.9205e+000  1.0075e-002 22601 107060,107112,107086
 1.1500e+001 107216 -9.6727e-001  1.9035e+000  4.0802e-001 22601 107138,107190,107164
 1.1500e+001 107807 -1.8909e-001  8.0401e-002 -3.1463e-002 22031 107974,107902,107617
 1.1500e+001 107784 -2.0109e-001  2.3434e-001 -1.0325e-001 22031 107830,107565,107513
 1.1500e+001 107761 -5.9334e-002  3.6118e-002 -1.2519e-001 22031 108046,107830,107513
 1.1500e+001 107738 -1.2988e-001  1.9249e-001  1.0654e-002 22031 107974,107617,107591
 1.1500e+001 107715 -7.9007e-002 -1.1371e-002 -1.2558e-001 22031 108046,107513,107461
 1.1500e+001 107692 -5.1769e-001  3.1210e-001 -1.7360e-001 22031 107513,107565,107539
 1.1500e+001 107669  8.3631e-002  2.1400e-001 -2.1144e-001 22031 107461,107513,107487
 1.1500e+001 107856 -2.7274e-001  1.4382e-001 -6.0459e-002 22031 107902,107565,107830
 1.1500e+001 107879 -1.2201e-001 -9.2008e-002 -3.3957e-003 22031 107643,107830,107435
 1.1500e+001 107928 -4.5096e-001  1.5692e-001 -2.0386e-001 22031 107643,107617,107902
 1.1500e+001 107951 -2.7169e-001  1.2856e-001  2.7121e-002 22031 107643,107902,107830
 1.1500e+001 108000 -2.2977e-001  2.4040e-001 -5.2623e-002 22031 107565,107902,107974
 1.1500e+001 108023 -2.2694e-001  2.1235e-001 -4.5803e-002 22031 107565,107974,107591
 1.1500e+001 108072 -2.2094e-002 -2.1798e-002 -5.5362e-002 22031 107435,107830,108046
 1.1500e+001 108095 -5.4546e-002 -9.7385e-002 -5.6819e-002 22031 107435,108046,107461
 1.1500e+001 108196  4.2469e-002 -6.5953e-002  2.4671e-002 21783 108118,108170,108144
 1.1500e+001 108655  1.5645e-001  9.0205e-001  5.2962e-001 21379 108407,108485,108459
 1.1500e+001 108632  1.7885e+000  3.1015e-001  6.2390e-001 21379 108407,108511,108485
 1.1500e+001 108609  1.7881e+000  6.7692e-001  1.0492e+000 21379 108381,108511,108407
 1.1500e+001 108586  5.7672e-001  1.2969e+000  5.9930e-002 21379 108381,108537,108511
 1.1500e+001 108563  4.7229e-001  1.2187e-001  2.4323e-001 21379 108407,108459,108433
 1.1500e+001 109082  1.0383e-001 -5.6461e-001 -3.9329e-002 20974 109105,108863,108811
 1.1500e+001 109059 -1.8268e-001 -6.9086e-001 -1.3315e-002 20974 109105,108811,108759
 1.1500e+001 109036 -3.8716e-003 -1.6524e+000  2.6881e-001 20974 109177,108889,108863
 1.1500e+001 109013 -1.3850e-001 -5.6395e-001  3.4443e-002 20974 108811,108863,108837
 1.1500e+001 108990  1.5076e-001 -3.7301e-002  8.6857e-004 20974 108759,108941,108915
 1.1500e+001 108967  4.3968e-002 -7.2303e-003 -1.0968e-002 20974 108759,108811,108785
 1.1500e+001 109131 -2.2126e-001 -1.2593e+000  8.3637e-002 20974 109177,108863,109105
 1.1500e+001 109154 -2.1464e-002 -9.8328e-003 -3.3782e-002 20974 108915,109105,108759
 1.1500e+001 109203 -5.5123e-002 -1.3426e+000 -1.9561e-001 20974 108915,108889,109177
 1.1500e+001 109226  3.8600e-002 -3.9607e-001 -3.2598e-001 20974 108915,109177,109105
 1.1500e+001 109496 -3.4691e-001  5.3995e-002 -4.0086e-002 20470 109271,109375,109297
 1.1500e+001 109473 -3.1383e-001  9.1713e-002 -5.7971e-002 20470 109271,109401,109375
 1.1500e+001 109450 -4.2209e-001 -1.7549e-002 -6.9374e-002 20470 109297,109375,109349
 1.1500e+001 109427 -6.0343e-001 -3.7413e-001  1.2552e-001 20470 109297,109349,109323
 1.1500e+001 109955  2.2036e-001  6.6804e-001  4.3121e-001 20123 110050,109733,109707
 1.1500e+001 109932 -1.7403e-001  3.8345e-001  3.0258e-001 20123 110050,109707,109681
 1.1500e+001 109909  1.6140e-001  1.1390e-001  2.6338e-001 20123 109978,109759,109733
 1.1500e+001 109886  8.8294e-002  1.5728e-001  2.8553e-001 20123 110122,109978,109733
 1.1500e+001 109863  1.8797e-001  7.9325e-002  2.3258e-001 20123 109785,109837,109811
 1.1500e+001 110004  1.9868e-001  2.1421e-001  2.3394e-001 20123 109785,109759,109978
 1.1500e+001 110027  1.5090e-001  1.8328e-001  2.1136e-001 20123 109785,109978,109837
 1.1500e+001 110076  2.2715e-002  2.8115e-001  2.4283e-001 20123 110122,109733,110050
 1.1500e+001 110099  1.7238e-002  3.8142e-001  1.3823e-001 20123 109837,110050,109681
 1.1500e+001 110148  2.1797e-001  3.4002e-001  2.1449e-001 20123 109837,109978,110122
 1.1500e+001 110171  1.5191e-001  4.3857e-001  1.6709e-001 20123 109837,110122,110050
 1.1500e+001 110500  4.5854e-001 -3.5460e-003 -1.9918e-002 19511 110301,110379,110353
 1.1500e+001 110477  1.0237e+000  4.6071e-001 -2.5574e-001 19511 110301,110405,110379
 1.1500e+001 110454  3.8374e-001  1.0942e-001 -5.1627e-002 19511 110275,110405,110301
 1.1500e+001 110431  4.1306e-001 -4.6104e-002  7.5575e-002 19511 110301,110353,110327
 1.1500e+001 110957  4.7961e-001  1.3842e+000  1.7009e-001 19107 110683,110735,110709
 1.1500e+001 110934  6.3974e-001  8.3817e-001 -1.2943e-001 19107 110683,110813,110735
 1.1500e+001 110911  1.0748e+000  1.2479e+000  1.0050e-001 19107 110735,110813,110761
 1.1500e+001 110888  1.2322e+000  7.1563e-001  4.7884e-001 19107 110683,110839,110813
 1.1500e+001 110865  1.0650e+000  1.0196e+000 -2.2086e-001 19107 110761,110813,110787
 1.1500e+001 111335  8.1447e-001 -9.9379e-001  4.4982e-001 18653 111087,111165,111139
 1.1500e+001 111312  7.1398e-001 -3.3713e-002  1.9103e-001 18653 111087,111217,111165
 1.1500e+001 111289  1.1235e-001 -3.9797e-001  9.2080e-001 18653 111061,111217,111087
 1.1500e+001 111266  1.4900e+000 -1.1267e+000  1.5565e+000 18653 111087,111139,111113
 1.1500e+001 111243  6.0307e-001 -5.9283e-002 -1.3993e-001 18653 111165,111217,111191
 1.1500e+001 111735 -4.9545e-001 -3.3655e-001  9.3328e-002 18213 111461,111513,111487
 1.1500e+001 111712 -3.7562e-001 -4.1734e-001  4.7509e-002 18213 111461,111617,111513
 1.1500e+001 111689 -3.1488e-001 -2.8206e-001  1.8977e-002 18213 111513,111617,111591
 1.1500e+001 111666 -1.7734e-002 -1.7226e-001  1.1894e-001 18213 111513,111591,111539
 1.1500e+001 111643  1.5242e-001 -3.2567e-002  5.2923e-002 18213 111539,111591,111565
 1.1500e+001 111885 -5.0869e-001 -3.5612e+000 -1.0073e-001 17659 111784,111836,111810
 1.1500e+001 111862 -1.0628e-001 -2.4488e+000  3.6238e-001 17659 111758,111836,111784
 1.1500e+001 112287 -4.1563e-001 -2.5574e+000 -8.6923e-001 17411 112065,112169,112143
 1.1500e+001 112264 -1.5167e+000 -1.2521e+000 -7.3455e-001 17411 112039,112169,112065
 1.1500e+001 112241 -1.3951e+000 -9.5837e-001 -7.3214e-001 17411 112013,112169,112039
 1.1500e+001 112218  3.2988e+000 -1.9218e+000 -9.7956e-001 17411 112091,112143,112117
 1.1500e+001 112195 -5.5845e-002 -2.3818e+000 -1.9586e-001 17411 112065,112143,112091
 1.1500e+001 112508 -3.3319e-001  2.8750e-001  4.6337e-002 17007 112384,112436,112410
 1.1500e+001 112485 -2.2714e-001  3.8785e-001  8.9649e-002 17007 112332,112436,112384
 1.1500e+001 112462 -3.2305e-001  2.0227e-001  5.5319e-002 17007 112332,112384,112358
 1.1500e+001 112658 -7.5001e-001 -4.8335e-001  3.5710e-001 16553 112557,112609,112583
 1.1500e+001 112635 -1.2637e+000 -4.4113e-002  4.8855e-001 16553 112531,112609,112557
 1.1500e+001 112761  1.2771e-001 -8.9337e-001  4.0897e-002 16355 112683,112735,112709
 1.1500e+001 112913 -5.6615e-001  3.6565e-001  3.8039e-002 15949 112786,112838,112812
 1.1500e+001 112890 -2.4311e-001  9.2639e-001 -1.1247e-001 15949 112786,112864,112838
 1.1500e+001 113065  4.8577e-002 -4.4342e-001 -8.4133e-003 15609 112938,112990,112964
 1.1500e+001 113042 -1.4205e-001 -9.8254e-001 -2.6884e-001 15609 112938,113016,112990
 1.1500e+001 113420  5.0625e-001  3.5118e-001  1.3317e-001 15284 113247,113325,113299
 1.1500e+001 113397  4.8718e-001  3.0234e-001  4.9677e-002 15284 113195,113325,113247
 1.1500e+001 113374  3.1863e-001  2.3808e-001  4.3467e-002 15284 113195,113247,113221
 1.1500e+001 113351  4.0779e-001  5.2958e-001  1.2203e-001 15284 113247,113299,113273
 1.1500e+001 113521  4.2219e-002 -2.9666e-002 -2.2824e-003 202 113443,113495,113469
 1.2000e+001 65564  7.7460e-002 -5.9033e-002 -6.9293e-003 65155 65414,65466,65440
 1.2000e+001 65541  1.0989e-001 -1.2996e-001 -5.0640e-002 65155 65414,65492,65466
 1.2000e+001 65518  4.8546e-002 -1.9531e-001  4.3609e-002 65155 65388,65492,65414
 1.2000e+001 65883  1.3854e-001 -7.7330e-001 -7.1544e-004 64957 65635,65739,65713
 1.2000e+001 65860  1.1929e-001 -1.1124e+000 -4.0511e-002 64957 65635,65765,65739
 1.2000e+001 65837 -8.8292e-002 -1.2154e+000 -3.3709e-003 64957 65609,65765,65635
 1.2000e+001 65814  1.3073e-001 -9.0094e-001  2.4316e-001 64957 65635,65713,65687
 1.2000e+001 65791 -8.1869e-003 -1.0421e+000  1.7389e-001 64957 65635,65687,65661
 1.2000e+001 65984 -5.3525e-002  1.8578e-002  4.7650e-002 64781 65906,65958,65932
 1.2000e+001 66232 -3.5617e-001 -4.3724e-001  3.9709e-001 64469 66007,66059,66033
 1.2000e+001 66209  3.9919e-002 -5.6684e-001  4.2198e-001 64469 66007,66085,66059
 1.2000e+001 66186 -2.5495e-001 -1.2142e+000  6.0578e-001 64469 66007,66137,66085
 1.2000e+001 66163 -2.0468e-001 -1.6323e+000  1.1646e+000 64469 66085,66137,66111
 1.2000e+001 66504  1.3215e-002 -1.0739e+000  2.4172e-002 64271 66279,66383,66305
 1.2000e+001 66481  1.0994e-001 -1.0689e+000 -2.5800e-002 64271 66279,66409,66383
 1.2000e+001 66458  2.0638e-001 -1.3590e+000  2.8243e-002 64271 66305,66357,66331
 1.2000e+001 66435 -8.3409e-002 -1.2205e+000  6.6310e-002 64271 66305,66383,66357
 1.2000e+001 66705  3.9824e-001 -2.9401e+000  2.3227e-001 64073 66728,66581,66555
 1.2000e+001 66682  3.9932e-001 -2.0669e+000  4.5212e-001 64073 66728,66555,66529
 1.2000e+001 66659  1.5374e-001 -1.7631e+000 -2.9578e-001 64073 66581,66633,66607
 1.2000e+001 66754 -1.5312e-001 -2.1166e+000 -8.6667e-002 64073 66633,66581,66728
 1.2000e+001 66777  6.8863e-002 -9.7002e-001  4.9377e-003 64073 66633,66728,66529
 1.2000e+001 66951 -1.1899e-001 -4.1417e-001 -5.0702e-002 63783 66824,66876,66850
 1.2000e+001 66928  4.3429e-001 -3.3379e-001  1.7184e-001 63783 66824,66902,66876
 1.2000e+001 67201 -6.1257e-001 -1.3870e+000 -1.1625e-001 63585 66976,67080,67054
 1.2000e+001 67178 -9.9753e-002 -1.1873e+000  6.9525e-002 63585 66976,67106,67080
 1.2000e+001 67155  1.7785e-001 -1.7005e+000 -5.4994e-001 63585 66976,67054,67028
 1.2000e+001 67132 -5.0620e-002 -2.2335e+000 -5.5806e-001 63585 66976,67028,67002
 1.2000e+001 67654  8.0009e-002 -8.3851e-001 -1.4226e-002 63295 67357,67487,67383
 1.2000e+001 67631  8.7608e-002 -1.0287e+000  1.2247e-001 63295 67331,67487,67357
 1.2000e+001 67608 -6.3005e-002 -1.2098e+000 -1.7884e-002 63295 67331,67513,67487
 1.2000e+001 67585  1.2696e-003 -1.2292e+000  3.1689e-003 63295 67435,67487,67461
 1.2000e+001 67562 -6.0105e-002 -1.2538e+000  6.6055e-003 63295 67383,67487,67435
 1.2000e+001 67539  3.1645e-002 -1.1668e+000  4.2281e-002 63295 67383,67435,67409
 1.2000e+001 67853 -6.2789e-002 -1.1267e+000  1.4591e-002 62891 67876,67703,67677
 1.2000e+001 67830 -4.9592e-002 -1.1506e+000 -1.6289e-003 62891 67876,67677,67781
 1.2000e+001 67807  1.1323e-002 -9.9598e-001 -5.9968e-002 62891 67948,67729,67703
 1.2000e+001 67902 -3.1537e-002 -1.1119e+000  1.9066e-002 62891 67948,67703,67876
 1.2000e+001 67925 -1.7953e-001 -1.0891e+000  5.3959e-002 62891 67755,67876,67781
 1.2000e+001 67974 -8.0310e-002 -8.4104e-001 -6.2584e-002 62891 67755,67729,67948
 1.2000e+001 67997 -5.9202e-002 -9.0058e-001 -3.3973e-004 62891 67755,67948,67876
 1.2000e+001 68218  8.2684e-002 -3.3709e-002 -1.0315e-001 62693 68042,68120,68068
 1.2000e+001 68195  3.2888e-003 -2.0154e-002  2.3947e-003 62693 68042,68146,68120
 1.2000e+001 68172 -3.0245e-001  2.5191e-001 -5.0687e-002 62693 68068,68120,68094
 1.2000e+001 68468  3.4076e-001 -4.3646e-002  1.8254e-002 62289 68491,68295,68269
 1.2000e+001 68445  7.8496e-002 -7.8856e-002 -1.5176e-001 62289 68563,68491,68269
 1.2000e+001 68422  9.3345e-002  5.1115e-002 -5.7366e-002 62289 68563,68269,68243
 1.2000e+001 68399 -1.6426e-001 -1.5247e-001  7.0383e-002 62289 68295,68347,68321
 1.2000e+001 68517  1.6615e-001 -2.5116e-001 -7.0495e-002 62289 68347,68295,68491
 1.2000e+001 68540 -1.8545e-001 -8.0804e-002 -2.4201e-001 62289 68347,68491,68373
 1.2000e+001 68589  1.2498e-001  1.7466e-001 -1.3032e-001 62289 68373,68491,68563
 1.2000e+001 68612  7.7837e-002  2.1971e-001 -3.6564e-002 62289 68373,68563,68243
 1.2000e+001 68911 -7.7081e-002 -1.1313e+000  6.8619e-003 62091 69222,68934,68741
 1.2000e+001 68888  1.0391e-001 -1.0866e+000 -3.1627e-002 62091 69006,68934,68689
 1.2000e+001 68865  1.3770e-001 -1.0605e+000  1.3188e-002 62091 69006,68689,68663
 1.2000e+001 68842 -1.3084e-001 -1.1238e+000 -1.2577e-001 62091 69078,68793,68767
 1.2000e+001 68819 -1.9581e-001 -1.2009e+000  1.6672e-001 62091 69222,68741,68715
 1.2000e+001 68960 -1.8629e-001 -1.1283e+000  1.5676e-002 62091 68767,68741,68934
 1.2000e+001 68983 -6.0390e-002 -1.1691e+000 -2.8329e-002 62091 69078,68767,68934
 1.2000e+001 69032  9.5523e-002 -1.0852e+000 -1.6527e-002 62091 69150,69006,68637
 1.2000e+001 69055  8.5061e-002 -1.1026e+000 -7.3913e-003 62091 68637,69006,68663
 1.2000e+001 69104 -2.8398e-002 -8.8468e-001 -6.3736e-002 62091 68637,68793,69078
 1.2000e+001 69127  6.5752e-002 -1.0450e+000  4.6928e-004 62091 69150,68637,69078
 1.2000e+001 69176  3.2549e-002 -1.1062e+000 -3.8430e-002 62091 68934,69006,69150
 1.2000e+001 69199 -2.4809e-002 -1.0817e+000 -1.3973e-002 62091 68934,69150,69078
 1.2000e+001 69248 -6.4793e-004 -9.7024e-001 -2.0042e-002 62091 68689,68934,69222
 1.2000e+001 69271 -2.6645e-002 -9.1984e-001  9.2754e-002 62091 68689,69222,68715
 1.2000e+001 69521 -3.4907e-001  1.5175e-001  2.7273e-002 61893 69544,69348,69296
 1.2000e+001 69498 -9.1859e-002  2.0855e-001  6.2831e-002 61893 69544,69296,69400
 1.2000e+001 69475  7.1781e-002  2.2966e-001  4.5060e-002 61893 69296,69426,69400
 1.2000e+001 69452 -3.6514e-001 -5.1796e-001 -5.6705e-002 61893 69296,69348,69322
 1.2000e+001 69570 -2.1463e-001  2.3711e-002  2.3117e-001 61893 69374,69348,69544
 1.2000e+001 69593  2.4187e-001  1.8988e-001  2.5207e-001 61893 69374,69544,69400
 1.2000e+001 70046  6.4501e-002 -8.9090e-001 -1.0873e-002 61467 69749,69905,69879
 1.2000e+001 70023  1.4041e-001 -6.9780e-001  1.9963e-001 61467 69723,69905,69749
 1.2000e+001 70000  5.0357e-002 -9.5797e-001 -2.8339e-002 61467 70069,69827,69775
 1.2000e+001 69977 -1.0846e-001 -1.3580e+000  1.0807e-001 61467 70069,69775,69749
 1.2000e+001 69954 -4.0572e-002 -7.0830e-001 -3.1694e-002 61467 70141,69853,69827
 1.2000e+001 69931  8.6147e-002 -1.2553e+000 -3.7628e-001 61467 69775,69827,69801
 1.2000e+001 70095  6.5562e-003 -7.7433e-001 -7.4541e-002 61467 70141,69827,70069
 1.2000e+001 70118  5.1971e-002 -9.4202e-001  3.2781e-004 61467 69879,70069,69749
 1.2000e+001 70167  6.0437e-003 -8.0889e-001 -2.7718e-002 61467 69879,69853,70141
 1.2000e+001 70190 -1.6492e-002 -9.6530e-001 -7.1443e-002 61467 69879,70141,70069
 1.2000e+001 70291 -9.9644e-002 -1.5901e+000 -1.8429e-001 61013 70213,70265,70239
 1.2000e+001 70441  1.2059e-001 -6.7861e-002 -1.2298e-001 60651 70340,70392,70366
 1.2000e+001 70418  1.9381e-001 -2.3584e-001 -1.5081e-002 60651 70314,70392,70340
 1.2000e+001 70642  7.6673e-002 -7.3999e-001 -1.5937e-001 60311 70665,70492,70466
 1.2000e+001 70619 -1.4464e-001 -1.2988e+000 -2.2880e-001 60311 70665,70466,70570
 1.2000e+001 70596 -3.3152e+000 -3.0160e-001  3.7405e-001 60311 70492,70544,70518
 1.2000e+001 70691  3.7167e-002 -1.7790e-001  4.1923e-001 60311 70544,70492,70665
 1.2000e+001 70714 -3.1793e-001 -1.0313e+000  3.6332e-001 60311 70544,70665,70570
 1.2000e+001 70964  3.0481e-001 -1.3213e+000  1.5048e-001 59907 70987,70765,70739
 1.2000e+001 70941  3.0031e-001 -1.3529e+000 -2.5372e-002 59907 71059,70987,70739
 1.2000e+001 70918  1.7205e-001 -1.5026e+000  2.9795e-002 59907 71059,70739,70869
 1.2000e+001 70895  1.6245e-001 -1.1432e+000  2.8268e-002 59907 70817,70869,70843
 1.2000e+001 71013  1.2246e+000 -8.6961e-001  5.8620e-001 59907 70791,70765,70987
 1.2000e+001 71036  4.0472e-001 -1.5408e+000  2.1122e-001 59907 70791,70987,70817
 1.2000e+001 71085  1.4311e-001 -1.2680e+000 -2.1440e-002 59907 70817,70987,71059
 1.2000e+001 71108  1.3022e-001 -1.2899e+000 -1.5673e-002 59907 70817,71059,70869
 1.2000e+001 71441 -5.6526e-001 -9.2901e-001  7.0452e-001 59417 71464,71242,71216
 1.2000e+001 71418 -3.5194e-001 -5.3553e-001  9.3749e-001 59417 71464,71216,71320
 1.2000e+001 71395 -4.9351e-001 -3.6236e-001  9.8674e-001 59417 71216,71346,71320
 1.2000e+001 71372 -4.0021e-001 -1.0055e+000  3.9306e-001 59417 71268,71320,71294
 1.2000e+001 71490 -7.8984e-001 -9.7203e-001  2.8661e-001 59417 71268,71242,71464
 1.2000e+001 71513 -6.5221e-001 -4.0377e-001  5.0737e-001 59417 71268,71464,71320
 1.2000e+001 71712  1.3713e+000  1.1257e+000  4.3692e-001 58913 71562,71614,71588
 1.2000e+001 71689  7.7019e-001  8.3718e-001  3.4597e-001 58913 71536,71614,71562
 1.2000e+001 71666  4.7509e-001  1.8898e+000 -1.6006e-001 58913 71536,71640,71614
 1.2000e+001 72171 -1.0622e+000 -2.3248e+000  2.6497e-001 58409 72194,72027,72001
 1.2000e+001 72148 -9.8475e-001 -2.8171e+000  2.0318e-002 58409 72194,72001,71949
 1.2000e+001 72125 -7.5853e-001 -1.5680e+000  4.0236e-002 58409 71923,72053,71949
 1.2000e+001 72102 -1.4713e+000 -2.9313e+000 -8.2520e-002 58409 71949,72001,71975
 1.2000e+001 72079 -5.3074e-001 -1.1137e+000  4.3331e-001 58409 71897,72053,71923
 1.2000e+001 72220 -8.5885e-001 -2.1486e+000  4.7922e-001 58409 72053,72027,72194
 1.2000e+001 72243 -7.7236e-001 -2.4684e+000  2.1062e-001 58409 72053,72194,71949
 1.2000e+001 72491  7.4279e-001  1.1574e+000  2.0356e-001 57855 72514,72318,72292
 1.2000e+001 72468  1.2157e+000  1.1339e+000  4.9813e-001 57855 72514,72292,72266
 1.2000e+001 72445  6.9317e-001  1.2099e+000  3.6725e-001 57855 72318,72396,72370
 1.2000e+001 72422  4.7366e-001  1.1113e+000  2.6174e-001 57855 72318,72370,72344
 1.2000e+001 72540  6.9094e-001  1.3571e+000  3.2571e-001 57855 72396,72318,72514
 1.2000e+001 72563  7.3597e-001  1.5210e+000  4.2544e-001 57855 72396,72514,72266
 1.2000e+001 72811 -3.2823e-001 -2.3200e+000  1.1164e+000 57401 72612,72690,72638
 1.2000e+001 72788 -2.1728e+000 -3.0985e+000  1.5372e+000 57401 72586,72690,72612
 1.2000e+001 72765  3.6375e+000 -3.8934e+000  9.9877e-002 57401 72638,72690,72664
 1.2000e+001 72742  2.6551e-001 -1.3062e+000  7.1578e-001 57401 72586,72716,72690
 1.2000e+001 73144 -6.9490e-002 -1.0888e+000 -1.3425e-002 57004 72919,72997,72945
 1.2000e+001 73121 -1.6323e-001 -1.3158e+000  5.8191e-002 57004 72919,73049,72997
 1.2000e+001 73098 -2.2392e-001 -9.7521e-001 -1.1698e-001 57004 72945,72997,72971
 1.2000e+001 73075 -1.3900e-001 -1.3139e+000  1.0277e-001 57004 72997,73049,73023
 1.2000e+001 73650 -4.7996e-001 -4.2147e+000  3.3229e-002 56592 73673,73379,73353
 1.2000e+001 73627 -8.7577e-001 -3.1734e+000  1.5360e+000 56592 73673,73353,73327
 1.2000e+001 73604  6.8825e-001 -2.1306e+000  1.1871e+000 56592 73745,73509,73483
 1.2000e+001 73581  3.1071e-001 -2.5766e+000  5.7688e-001 56592 73379,73457,73405
 1.2000e+001 73558  1.4282e+000 -2.2962e+000  9.3836e-001 56592 73379,73483,73457
 1.2000e+001 73535  2.2184e+000 -1.4692e+000  1.0381e+000 56592 73405,73457,73431
 1.2000e+001 73699  2.4104e-001 -2.9588e+000  6.2099e-001 56592 73483,73379,73673
 1.2000e+001 73722  6.4493e-001 -3.0259e+000  1.5058e+000 56592 73745,73483,73673
 1.2000e+001 73771  4.1300e-001 -4.2177e-001  6.7087e-001 56592 73327,73509,73745
 1.2000e+001 73794  1.4641e-003 -1.4643e+000  1.2024e+000 56592 73327,73745,73673
 1.2000e+001 74123  4.0804e-001  1.6319e-001 -4.8203e-001 56152 74146,74002,73924
 1.2000e+001 74100  6.1898e-001  1.0406e-001 -3.1942e-001 56152 74146,73924,73898
 1.2000e+001 74077  1.2524e+000  6.3927e-001 -7.1297e-001 56152 73924,74002,73976
 1.2000e+001 74054  5.5914e-001 -9.3495e-001  5.1536e-001 56152 73924,73976,73950
 1.2000e+001 74172  2.5040e-001  4.8082e-001 -3.6687e-001 56152 74028,74002,74146
 1.2000e+001 74195  5.4137e-001  3.0065e-001 -1.9744e-001 56152 74028,74146,73898
 1.2000e+001 74345  1.8867e+000 -4.5485e-001 -9.9204e-001 55634 74218,74270,74244
 1.2000e+001 74322 -2.1289e-001 -3.5909e-001 -4.6331e-001 55634 74218,74296,74270
 1.2000e+001 74823 -1.6968e-001 -2.8802e+000  4.0862e-001 55016 74918,74846,74581
 1.2000e+001 74800 -4.1612e-001 -2.9708e+000  1.6912e-001 55016 74846,74477,74633
 1.2000e+001 74777 -8.1196e-001 -3.2517e+000  5.9558e-001 55016 74918,74581,74555
 1.2000e+001 74754 -8.5165e-001 -2.6382e+000  1.7195e-001 55016 74990,74503,74477
 1.2000e+001 74731 -3.8703e-001 -3.3874e+000 -4.8854e-001 55016 74451,74633,74477
 1.2000e+001 74708 -1.4308e+000 -2.4625e+000 -7.8167e-001 55016 74451,74659,74633
 1.2000e+001 74685 -1.7910e+000 -1.4002e+000  1.1637e+000 55016 74503,74555,74529
 1.2000e+001 74872 -4.3549e-001 -3.5136e+000  4.0556e-001 55016 74607,74581,74846
 1.2000e+001 74895 -1.8733e-001 -3.1794e+000  2.7155e-001 55016 74607,74846,74633
 1.2000e+001 74944 -9.3829e-001 -3.2206e+000  2.9747e-001 55016 74477,74846,74918
 1.2000e+001 74967 -7.7800e-001 -2.7354e+000  3.2913e-001 55016 74990,74477,74918
 1.2000e+001 75016 -1.1082e+000 -2.7342e+000  3.7815e-001 55016 74555,74503,74990
 1.2000e+001 75039 -1.1027e+000 -2.9717e+000  5.4391e-001 55016 74555,74990,74918
 1.2000e+001 75287 -9.3921e-001 -6.4337e+000  1.0141e+000 54726 75310,75140,75114
 1.2000e+001 75264 -1.4664e+000 -5.4258e+000  7.0438e-001 54726 75310,75114,75088
 1.2000e+001 75241  6.6696e-002 -4.3865e+000  2.2075e-001 54726 75088,75192,75166
 1.2000e+001 75218 -8.4480e-001 -1.0440e+000  9.3906e-001 54726 75062,75192,75088
 1.2000e+001 75336 -1.9830e-001 -5.8130e+000  4.7750e-001 54726 75166,75140,75310
 1.2000e+001 75359 -1.2563e+000 -4.9151e+000  3.9971e-001 54726 75166,75310,75088
 1.2000e+001 75946 -1.3414e-001 -5.2155e-001 -1.7916e-001 54322 75969,75701,75649
 1.2000e+001 75923  1.5085e-001 -3.7809e-001 -2.3324e-001 54322 75969,75649,75623
 1.2000e+001 75900 -2.1228e-002 -3.8632e-001 -2.9129e-002 54322 76041,75753,75701
 1.2000e+001 75877 -7.6490e-002 -8.3138e-001 -3.5721e-002 54322 75623,75805,75779
 1.2000e+001 75854 -6.5198e-002 -4.8560e-001  1.7645e-001 54322 75701,75753,75727
 1.2000e+001 75831 -1.5338e-002 -1.8200e-001 -7.6899e-002 54322 75649,75701,75675
 1.2000e+001 75995  7.3591e-002 -4.3639e-001 -1.0610e-001 54322 76041,75701,75969
 1.2000e+001 76018  8.9772e-002 -5.5493e-001 -1.1868e-001 54322 75779,75969,75623
 1.2000e+001 76067 -8.4853e-002 -5.1919e-001  6.2634e-003 54322 75779,75753,76041
 1.2000e+001 76090 -1.4309e-002 -6.1445e-001 -6.9558e-002 54322 75779,76041,75969
 1.2000e+001 76468 -2.5624e-002 -5.5334e-001 -7.3336e-002 53868 76491,76272,76220
 1.2000e+001 76445  7.0860e-002 -5.7029e-001 -2.3878e-002 53868 76491,76220,76324
 1.2000e+001 76422 -3.1645e-002 -7.7855e-001 -9.5517e-002 53868 76220,76272,76246
 1.2000e+001 76399  1.1679e-001 -6.0965e-001 -4.3559e-002 53868 76194,76324,76220
 1.2000e+001 76376  5.7505e-001 -4.2582e-001  7.6212e-002 53868 76194,76350,76324
 1.2000e+001 76517  2.8212e-002 -5.1347e-001 -1.8081e-002 53868 76298,76272,76491
 1.2000e+001 76540  1.2476e-001 -5.4258e-001  2.6950e-002 53868 76298,76491,76324
 1.2000e+001 76690  3.7665e-003 -7.3556e-001  7.4218e-002 53356 76589,76641,76615
 1.2000e+001 76667 -2.1163e-001 -9.2776e-001 -1.9189e-002 53356 76563,76641,76589
 1.2000e+001 76938  1.4743e-001  2.7624e-001  8.3995e-002 53009 77105,76961,76765
 1.2000e+001 76915 -8.7145e-002 -1.5868e+000 -5.9199e-001 53009 76961,76713,76843
 1.2000e+001 76892 -2.5438e-001 -7.8038e-001  7.4550e-002 53009 77033,76817,76791
 1.2000e+001 76869  4.8048e-001  1.6156e+000 -1.3024e-001 53009 77105,76765,76739
 1.2000e+001 76987 -2.8330e-001 -7.5744e-001 -1.7979e-001 53009 76791,76765,76961
 1.2000e+001 77010 -2.1734e-001 -5.0183e-001 -2.1273e-001 53009 77033,76791,76961
 1.2000e+001 77059  2.0926e-001 -5.2659e-001 -1.7167e-001 53009 76843,76817,77033
 1.2000e+001 77082  1.5850e-001 -4.0934e-001 -4.3965e-001 53009 76843,77033,76961
 1.2000e+001 77131  7.9184e-001 -9.4446e-002 -1.0057e+000 53009 76713,76961,77105
 1.2000e+001 77154  9.6914e-001  4.0956e-001 -1.2363e+000 53009 76713,77105,76739
 1.2000e+001 77355  5.8104e-001 -4.2291e+000  5.3779e-001 52390 77378,77257,77231
 1.2000e+001 77332  6.4381e-001 -5.3783e+000  6.7517e-001 52390 77378,77231,77179
 1.2000e+001 77309  1.3630e+000 -4.0630e+000  3.4946e-001 52390 77179,77231,77205
 1.2000e+001 77404  9.6959e-001 -5.1694e+000  1.1358e+000 52390 77283,77257,77378
 1.2000e+001 77427  7.9077e-001 -6.7356e+000  1.1726e+000 52390 77283,77378,77179
 1.2000e+001 77677 -1.1566e+000  1.2059e+000 -1.4747e+000 51986 77700,77504,77478
 1.2000e+001 77654 -2.4945e-001  1.1575e+000 -1.3030e+000 51986 77700,77478,77452
 1.2000e+001 77631  3.8708e-001  1.1358e+000 -1.3916e+000 51986 77772,77556,77530
 1.2000e+001 77608  3.4682e+000  2.1066e+000 -2.2501e+000 51986 77452,77582,77556
 1.2000e+001 77726 -3.9077e-001  1.5313e+000 -9.5835e-001 51986 77530,77504,77700
 1.2000e+001 77749  3.4373e-001  1.1126e+000 -1.1138e+000 51986 77772,77530,77700
 1.2000e+001 77798  6.5904e-002  9.7778e-001 -1.2993e+000 51986 77452,77556,77772
 1.2000e+001 77821 -1.0396e-001  9.6635e-001 -1.0611e+000 51986 77452,77772,77700
 1.2000e+001 78282 -7.1248e-001 -3.7816e+000 -4.3694e-002 51738 78008,78138,78060
 1.2000e+001 78259 -1.6201e+000 -4.9713e+000  2.2001e+000 51738 78008,78164,78138
 1.2000e+001 78236 -5.9830e-001 -2.1080e+000  5.1011e-001 51738 78086,78138,78112
 1.2000e+001 78213 -4.2840e-001 -1.8641e+000  6.0489e-001 51738 78060,78138,78086
 1.2000e+001 78190  5.2732e-001 -4.5266e+000 -7.5948e-001 51738 78008,78060,78034
 1.2000e+001 78432  2.3630e-001 -4.5665e-001  2.4330e-002 51148 78305,78357,78331
 1.2000e+001 78409  1.4966e-001 -3.2776e-001  2.9901e-002 51148 78305,78383,78357
 1.2000e+001 78891 -1.2713e-001 -6.2551e-001 -9.1484e-002 50808 78914,78695,78669
 1.2000e+001 78868 -5.9913e-002 -4.5423e-001 -5.9926e-002 50808 78914,78669,78643
 1.2000e+001 78845 -7.4945e-002 -5.7994e-001 -3.2048e-001 50808 78643,78773,78747
 1.2000e+001 78822 -8.8071e-002 -6.4264e-001 -3.2491e-001 50808 78617,78773,78643
 1.2000e+001 78799 -3.0773e-001 -6.3999e-001 -1.3464e-001 50808 78695,78747,78721
 1.2000e+001 78940 -2.1085e-001 -5.1225e-001 -2.0959e-001 50808 78747,78695,78914
 1.2000e+001 78963 -1.3651e-001 -4.1387e-001 -1.7477e-001 50808 78747,78914,78643
 1.2000e+001 79260  8.7105e-002 -6.1987e-001 -3.5159e-002 50468 79283,79090,79012
 1.2000e+001 79237  2.7074e-001 -5.7949e-001  2.0251e-002 50468 79283,79012,78986
 1.2000e+001 79214 -1.0988e-001 -7.0698e-001 -6.6583e-002 50468 79012,79090,79038
 1.2000e+001 79191  1.2981e-001 -5.1008e-001  1.2334e-001 50468 78986,79142,79116
 1.2000e+001 79168 -9.1479e-003 -7.0113e-001 -1.0029e-001 50468 79038,79090,79064
 1.2000e+001 79309 -1.1559e-001 -5.5955e-001 -5.8396e-002 50468 79116,79090,79283
 1.2000e+001 79332  1.1614e-001 -4.7075e-001  1.4764e-002 50468 79116,79283,78986
 1.2000e+001 79889  8.4194e-001  1.0676e+000 -4.4721e-001 50064 79569,79725,79699
 1.2000e+001 79866  9.1964e-001  9.8831e-001 -3.6880e-001 50064 79543,79725,79569
 1.2000e+001 79843  8.3105e-001  6.7740e-001 -5.3632e-001 50064 79621,79699,79673
 1.2000e+001 79820  1.0781e+000  1.2286e+000 -8.7027e-001 50064 79595,79699,79621
 1.2000e+001 79797  1.6804e+000  1.2786e+000 -6.3765e-001 50064 79569,79699,79595
 1.2000e+001 79774  5.5928e-001  1.1607e+000 -9.8622e-002 50064 79517,79725,79543
 1.2000e+001 79751  4.7908e-001  6.8651e-001 -5.7329e-001 50064 79621,79673,79647
 1.2000e+001 80169  1.0627e+000  1.4881e+000 -6.7197e-001 49724 80019,80097,80071
 1.2000e+001 80146  9.3105e-001  1.7892e+000 -7.8398e-001 49724 79993,80097,80019
 1.2000e+001 80123  6.8418e-001  1.3805e+000 -8.0084e-001 49724 80019,80071,80045
 1.2000e+001 80626  1.0020e-001  2.8775e-001  2.3271e-001 49277 80352,80482,80378
 1.2000e+001 80603 -2.3344e-001  1.9094e-001 -3.4607e-002 49277 80352,80508,80482
 1.2000e+001 80580 -1.3631e-001 -4.5682e-001  4.8370e-002 49277 80378,80482,80456
 1.2000e+001 80557 -1.3651e-001 -7.8902e-001  3.5533e-001 49277 80378,80430,80404
 1.2000e+001 80534 -2.7274e-002 -3.6373e-001  2.6156e-001 49277 80378,80456,80430
 1.2000e+001 81230  5.6599e-002 -7.9495e-001  3.5502e-001 48716 81253,80835,80809
 1.2000e+001 81207  1.7218e-001 -5.2437e-001  3.5002e-001 48716 81397,81253,80809
 1.2000e+001 81184 -1.1410e-001  1.6540e-001 -1.0161e-001 48716 81325,80913,80887
 1.2000e+001 81161 -2.6112e-001 -7.2534e-001  4.7954e-001 48716 81397,80809,81017
 1.2000e+001 81138 -3.8459e-001  3.0644e-001 -2.5498e-001 48716 81469,80965,80913
 1.2000e+001 81115 -3.5650e-001 -1.1653e+000  3.4357e-001 48716 80835,80887,80861
 1.2000e+001 81092  1.0759e+000 -6.5148e-001  1.2166e+000 48716 80809,81043,81017
 1.2000e+001 81069  9.2159e-002 -7.8150e-002 -6.0227e-001 48716 80913,80965,80939
 1.2000e+001 81279  2.1889e-001 -4.6601e-001  5.9267e-002 48716 80887,80835,81253
 1.2000e+001 81302 -2.7773e-001  1.0024e-001 -9.3189e-002 48716 81325,80887,81253
 1.2000e+001 81351 -1.0285e-001  2.2444e-001 -1.4655e-001 48716 81469,80913,81325
 1.2000e+001 81374 -2.5992e-001  3.8407e-001 -2.1357e-002 48716 80991,81325,81253
 1.2000e+001 81423 -5.5601e-001 -3.9913e-002  4.8299e-001 48716 80991,81253,81397
 1.2000e+001 81446 -1.0853e+000 -3.6069e-001  6.6455e-001 48716 80991,81397,81017
 1.2000e+001 81495 -8.3320e-001  2.6291e-001 -2.3512e-001 48716 80991,80965,81469
 1.2000e+001 81518 -6.0750e-001  1.3878e-001 -1.2852e-001 48716 80991,81469,81325
 1.2000e+001 81717 -4.3845e-002 -6.3263e-001  7.4576e-002 48262 81740,81567,81541
 1.2000e+001 81694 -1.8364e-001 -6.3581e-001  1.9318e-002 48262 81740,81541,81645
 1.2000e+001 81671 -1.2912e-001 -6.7927e-001 -2.2151e-002 48262 81567,81619,81593
 1.2000e+001 81766 -1.3162e-001 -6.4011e-001 -7.5532e-003 48262 81619,81567,81740
 1.2000e+001 81789 -2.8300e-001 -6.7422e-001 -7.2777e-002 48262 81619,81740,81645
 1.2000e+001 81939  8.3030e-001  1.0069e+000 -6.1555e-001 47957 82034,81962,81864
 1.2000e+001 81916  5.7256e-001  7.2378e-001 -2.5020e-001 47957 82166,81962,81838
 1.2000e+001 81988 -5.4111e-001  9.1818e-001 -5.6535e-001 47957 82294,81962,81890
 1.2000e+001 82011  5.3628e-001  1.4747e+000  2.2542e-001 47957 81890,81962,81812
 1.2000e+001 82060  7.8000e-001  1.7497e+000 -5.5323e-002 47957 81838,81962,82034
 1.2000e+001 82192  6.0388e-001  7.8871e-001  2.8914e-001 47957 81812,81962,82166
 1.2000e+001 82320 -1.1708e-001  8.9050e-001 -7.2212e-001 47957 81864,81962,82294
 1.2000e+001 82549  3.0079e-002 -7.0383e-001 -1.7683e-001 47617 82448,82500,82474
 1.2000e+001 82526  3.3284e-001 -9.0469e-001  5.0809e-003 47617 82422,82500,82448
 1.2000e+001 82902 -6.7648e-001 -1.0465e+000  1.5425e-001 47255 82729,82807,82755
 1.2000e+001 82879 -2.9152e-001 -1.9026e+000  4.9101e-001 47255 82703,82807,82729
 1.2000e+001 82856 -9.9180e-001 -1.1397e+000  4.8390e-001 47255 82755,82807,82781
 1.2000e+001 82833  1.6513e+000 -1.0701e+000  6.8657e-001 47255 82677,82807,82703
 1.2000e+001 83182  3.1075e-001 -9.8910e-001  1.9290e-001 46680 83032,83084,83058
 1.2000e+001 83159  4.3239e-001 -4.0792e-001  1.8263e-001 46680 83205,83084,83032
 1.2000e+001 83136  7.0311e-001 -1.8816e-001 -3.2488e-002 46680 83006,83110,83084
 1.2000e+001 83231  2.3033e-001 -5.3002e-001  1.3139e-001 46680 83006,83084,83205
 1.2000e+001 83737 -7.4503e-001 -3.5986e-001  3.8854e-002 46290 83832,83760,83492
 1.2000e+001 83714 -5.8817e-001 -4.7165e-002 -1.0596e-001 46290 83760,83440,83414
 1.2000e+001 83691 -4.7134e-001 -5.3230e-001 -1.0961e-002 46290 83832,83492,83466
 1.2000e+001 83668 -6.2224e-001 -1.1000e+000  2.2035e-001 46290 83492,83570,83544
 1.2000e+001 83645 -5.3705e-001 -2.4023e-001 -2.6683e-001 46290 83414,83596,83570
 1.2000e+001 83622 -7.6794e-001 -8.7357e-001  4.1529e-001 46290 83492,83544,83518
 1.2000e+001 83786 -7.5995e-001 -3.4475e-001  6.0568e-002 46290 83570,83492,83760
 1.2000e+001 83809 -7.2373e-001 -4.8035e-001 -1.3679e-001 46290 83570,83760,83414
 1.2000e+001 83858 -3.9437e-001 -1.6152e-001  1.3550e-001 46290 83440,83760,83832
 1.2000e+001 83881  9.1658e-002 -2.8970e-001  2.7436e-002 46290 83440,83832,83466
 1.2000e+001 84161 -2.0677e-001 -8.9769e-001  3.7832e-001 45829 84011,84063,84037
 1.2000e+001 84138  2.0696e-002 -5.4327e-001  1.1797e-001 45829 84011,84089,84063
 1.2000e+001 84115 -1.1143e-002 -5.5461e-001  1.6299e-001 45829 83985,84089,84011
 1.2000e+001 84311 -4.1736e-002 -3.4801e-001  1.0265e-001 45631 84184,84236,84210
 1.2000e+001 84288 -4.1837e-001 -1.4086e+000  3.1932e-002 45631 84184,84262,84236
 1.2000e+001 84657 -7.5627e-002 -5.6380e-001 -1.6105e-002 45155 84680,84490,84412
 1.2000e+001 84634 -1.4913e-001 -5.1712e-001  1.3720e-004 45155 84680,84412,84360
 1.2000e+001 84611 -1.2771e-001 -5.9548e-001  1.2102e-002 45155 84412,84490,84438
 1.2000e+001 84588  3.8999e-002 -4.0730e-001 -3.4111e-002 45155 84334,84516,84360
 1.2000e+001 84565 -1.9144e-001 -6.0571e-001 -1.2106e-001 45155 84360,84412,84386
 1.2000e+001 84542 -9.8889e-002 -4.7715e-001  7.9603e-002 45155 84438,84490,84464
 1.2000e+001 84706 -4.4291e-002 -5.2580e-001 -3.0145e-002 45155 84516,84490,84680
 1.2000e+001 84729 -9.9628e-002 -4.6432e-001 -2.1412e-002 45155 84516,84680,84360
 1.2000e+001 85077  1.8176e-001 -2.6266e-001  6.7242e-002 44508 85100,84754,84910
 1.2000e+001 85054  1.8811e-001  8.4065e-002  1.2489e-001 44508 84754,84936,84910
 1.2000e+001 85031  4.2888e-002 -4.0819e-001  2.0847e-001 44508 85100,84910,84884
 1.2000e+001 85008 -1.7074e-001 -5.0414e-001  1.2916e-001 44508 84780,84884,84832
 1.2000e+001 84985  8.2549e-002 -4.8897e-002 -9.7373e-002 44508 84780,84832,84806
 1.2000e+001 84962  7.1771e-001  1.4643e-001 -1.6025e-001 44508 84832,84884,84858
 1.2000e+001 85126  6.8020e-002 -3.9338e-002 -4.0351e-002 44508 84780,84754,85100
 1.2000e+001 85149 -3.6449e-002 -1.8663e-001  8.8705e-002 44508 84780,85100,84884
 1.2000e+001 85482 -4.5930e-001 -7.7414e-001 -1.8387e-003 44104 85335,85387,85361
 1.2000e+001 85459 -4.0528e-001 -1.1380e+000  4.2605e-002 44104 85309,85387,85335
 1.2000e+001 85436 -1.9883e-001 -9.3288e-001  1.8601e-001 44104 85257,85387,85309
 1.2000e+001 85413 -3.1362e-001 -1.5265e+000  1.0883e-001 44104 85257,85309,85283
 1.2000e+001 85811 -9.5031e-002 -4.0502e-001 -3.7224e-002 43600 85586,85664,85612
 1.2000e+001 85788 -1.8760e-001 -5.1783e-001  1.7272e-002 43600 85586,85690,85664
 1.2000e+001 85765  5.7073e-002 -4.2332e-001 -1.9034e-002 43600 85586,85716,85690
 1.2000e+001 85742 -3.2588e-002 -3.9018e-001 -2.0884e-002 43600 85612,85664,85638
 1.2000e+001 86010 -1.5094e-002 -4.8402e-001 -7.7659e-002 43224 85886,85938,85912
 1.2000e+001 85987  9.6151e-002 -9.8489e-002 -1.1699e-001 43224 85834,85938,85886
 1.2000e+001 85964 -2.7437e-001 -5.2372e-001  4.1999e-002 43224 85834,85886,85860
 1.2000e+001 86420  1.8491e+000  8.6192e-001 -3.5114e-001 42820 86195,86299,86221
 1.2000e+001 86397  1.3269e+000  7.2416e-001 -1.0469e+000 42820 86195,86325,86299
 1.2000e+001 86374  1.1263e+000  1.0879e+000 -1.5324e-002 42820 86221,86299,86273
 1.2000e+001 86351  1.0187e+000  5.4319e-001  1.3537e-001 42820 86221,86273,86247
 1.2000e+001 86749  3.1736e-001 -4.4289e-001 -1.9642e-001 42223 86550,86602,86576
 1.2000e+001 86726  1.0345e+000 -8.2841e-001 -1.9498e-002 42223 86550,86628,86602
 1.2000e+001 86703 -2.5696e-002 -1.1875e+000  3.0874e-001 42223 86524,86628,86550
 1.2000e+001 86680  6.4307e-001 -1.8992e-001 -1.0061e-002 42223 86524,86654,86628
 1.2000e+001 87078  6.0971e-001 -3.6199e-001  2.6894e-001 41883 87173,87101,86905
 1.2000e+001 87055  4.2003e-001  2.0856e-001  2.0422e-002 41883 87101,86879,86853
 1.2000e+001 87032  4.7507e-002 -1.2586e-001  3.6265e-002 41883 86853,86983,86931
 1.2000e+001 87009 -5.0430e-002 -5.5914e-001  1.7595e-001 41883 86931,86983,86957
 1.2000e+001 87127  7.4296e-001 -2.2577e-001  4.3273e-003 41883 86931,86905,87101
 1.2000e+001 87150  1.6455e-001 -3.8458e-001 -1.5553e-002 41883 86931,87101,86853
 1.2000e+001 87199  9.4923e-002 -3.5427e-001  2.3284e-001 41883 86879,87101,87173
 1.2000e+001 87558 -1.0490e-001  2.9990e-001 -1.9301e-002 41471 87382,87460,87408
 1.2000e+001 87535 -4.0715e-001  6.7351e-003 -1.5842e-001 41471 87382,87486,87460
 1.2000e+001 87512 -1.6455e-001  1.3924e-001 -4.3446e-002 41471 87408,87460,87434
 1.2000e+001 87806  1.3181e-001 -3.5713e-001  7.5933e-002 41017 87829,87607,87581
 1.2000e+001 87783  8.8337e-002 -4.7644e-001  9.5304e-002 41017 87829,87581,87685
 1.2000e+001 87760  2.8417e-001 -2.1348e-001  6.4707e-003 41017 87581,87711,87685
 1.2000e+001 87737  3.0811e-001 -8.7011e-001  3.7114e-002 41017 87633,87685,87659
 1.2000e+001 87855  1.3531e-001 -3.9464e-001  1.6725e-001 41017 87633,87607,87829
 1.2000e+001 87878  8.5461e-002 -5.1971e-001  1.8879e-001 41017 87633,87829,87685
 1.2000e+001 88258 -2.9994e-002 -4.4019e-002 -3.6725e-003 40613 88281,88036,88010
 1.2000e+001 88235 -8.8043e-003 -3.5696e-002 -1.2476e-002 40613 88281,88010,88088
 1.2000e+001 88212  9.8976e-003 -3.6940e-002 -8.0667e-003 40613 87984,88088,88010
 1.2000e+001 88189  2.9775e-002  1.1656e-002 -1.4761e-002 40613 87984,88114,88088
 1.2000e+001 88166  4.3730e-002  1.0288e-003 -1.2521e-002 40613 87984,88140,88114
 1.2000e+001 88307 -1.1274e-002 -5.1330e-002 -1.3395e-002 40613 88062,88036,88281
 1.2000e+001 88330  2.0963e-002 -2.9010e-002 -2.6425e-002 40613 88062,88281,88088
 1.2000e+001 88649 -1.5862e-002 -2.4396e-002  8.1072e-003 40095 88375,88505,88401
 1.2000e+001 88626 -1.1318e-002 -3.5889e-004 -3.8611e-003 40095 88375,88531,88505
 1.2000e+001 88603  1.7973e-002 -3.7734e-002 -1.7477e-003 40095 88401,88505,88479
 1.2000e+001 88580  1.7174e-001 -1.3687e-001 -6.3454e-003 40095 88427,88479,88453
 1.2000e+001 88557  2.0035e-002 -9.8630e-002  3.6447e-003 40095 88401,88479,88427
 1.2000e+001 89078  9.3909e-001 -2.7639e-001 -1.5750e-001 39897 89101,88833,88807
 1.2000e+001 89055  5.0068e-001 -7.8497e-001 -4.1183e-001 39897 89101,88807,88911
 1.2000e+001 89032  6.3486e-001 -2.1263e-001 -4.0680e-001 39897 88781,88911,88807
 1.2000e+001 89009 -3.3665e-001 -1.0113e+000 -1.0027e+000 39897 88781,88937,88911
 1.2000e+001 88986  2.0242e+000  2.3918e-001 -4.3308e-001 39897 88833,88885,88859
 1.2000e+001 88963  5.7824e-001 -4.6742e-001 -5.2992e-001 39897 88755,88937,88781
 1.2000e+001 89127  1.3978e+000 -8.9315e-001 -6.9472e-001 39897 88885,88833,89101
 1.2000e+001 89150  5.7831e-001 -1.6804e+000 -1.0483e+000 39897 88885,89101,88911
 1.2000e+001 89300 -7.8950e-001 -1.1212e+000  1.2234e-001 39607 89453,89323,89199
 1.2000e+001 89277 -1.2378e+000 -1.0017e+000  1.6277e-002 39607 89525,89453,89199
 1.2000e+001 89349 -7.6361e-001 -1.1360e+000 -1.0993e-001 39607 89225,89199,89323
 1.2000e+001 89479 -8.7535e-001 -7.9840e-001  1.3417e-001 39607 89251,89323,89453
 1.2000e+001 89502 -5.1474e-001 -4.2171e-001  4.1912e-001 39607 89251,89453,89173
 1.2000e+001 89551 -2.4683e-001 -6.7564e-001  4.5263e-002 39607 89173,89453,89525
 1.2000e+001 90264 -7.2280e-001 -1.8895e+000 -1.5581e-001 39039 89996,90074,90048
 1.2000e+001 90241 -4.4074e-001 -9.1351e-001 -1.2486e-001 39039 89918,90074,89996
 1.2000e+001 90218 -5.8810e-001 -1.0452e+000 -5.3125e-002 39039 89918,89996,89944
 1.2000e+001 90195 -4.4165e-001 -8.9859e-001 -1.0022e-001 39039 89892,90074,89918
 1.2000e+001 90172  4.7452e-002 -1.8942e+000 -2.3648e-001 39039 89996,90048,90022
 1.2000e+001 90149 -1.0985e+000  1.1909e-001 -9.4521e-002 39039 89892,90100,90074
 1.2000e+001 90126 -8.8848e-001 -1.1805e+000  7.3439e-002 39039 89944,89996,89970
 1.2000e+001 90770 -1.1577e-001 -4.8574e-001  1.8060e-002 38635 90473,90603,90577
 1.2000e+001 90747 -2.0248e-003 -4.1640e-001 -3.1331e-002 38635 90447,90603,90473
 1.2000e+001 90724 -1.4004e-002 -4.9377e-001 -5.8024e-002 38635 90499,90577,90551
 1.2000e+001 90701 -1.7231e-001 -6.1924e-001  4.7712e-002 38635 90473,90577,90499
 1.2000e+001 90678 -8.6602e-002 -7.0530e-001 -1.3854e-002 38635 90499,90551,90525
 1.2000e+001 90655 -2.1145e-001 -4.8030e-001  4.8327e-002 38635 90447,90629,90603
 1.2000e+001 90871 -1.9148e-002 -4.3750e-001 -9.3745e-002 38231 90793,90845,90819
 1.2000e+001 91458 -4.0583e-002 -2.8563e-001 -1.3333e-002 37534 91161,91317,91291
 1.2000e+001 91435 -2.3313e-001 -2.0842e-001  5.9659e-002 37534 91135,91317,91161
 1.2000e+001 91412 -3.5885e-001 -1.2221e+000 -2.4810e-001 37534 91187,91291,91239
 1.2000e+001 91389 -1.3372e-001 -1.2185e+000  1.3217e-001 37534 91161,91291,91187
 1.2000e+001 91366 -1.0263e-001 -9.1611e-001 -1.2783e-001 37534 91239,91291,91265
 1.2000e+001 91343  4.1376e-001 -1.3074e+000 -5.7952e-001 37534 91187,91239,91213
 1.2000e+001 91915 -3.1457e-001 -9.4024e-001  1.4120e-001 37080 91938,91745,91667
 1.2000e+001 91892  2.8281e-003 -8.9254e-001  3.3564e-002 37080 91938,91667,91797
 1.2000e+001 91869  2.3184e-001 -3.9648e-001  1.0895e-001 37080 91641,91797,91667
 1.2000e+001 91846 -2.8100e-001 -1.0234e+000  1.8360e-002 37080 91667,91719,91693
 1.2000e+001 91823 -1.8664e-001 -7.7877e-001  7.2471e-002 37080 91667,91745,91719
 1.2000e+001 91964 -4.7802e-001 -1.0816e+000  4.2044e-001 37080 91771,91745,91938
 1.2000e+001 91987 -1.5971e-001 -9.1479e-001  2.7495e-001 37080 91771,91938,91797
 1.2000e+001 92235 -1.6716e-001 -4.5272e-001 -2.4697e-002 36397 92036,92088,92062
 1.2000e+001 92212 -1.0644e-001 -4.4443e-001 -4.8234e-002 36397 92036,92114,92088
 1.2000e+001 92189 -4.9227e-003 -3.6427e-001  1.2136e-002 36397 92036,92140,92114
 1.2000e+001 92166  2.2106e-002 -5.0496e-001 -2.0552e-002 36397 92010,92140,92036
 1.2000e+001 92694  1.5107e-001  5.3241e-003 -2.8500e-002 36057 92446,92498,92472
 1.2000e+001 92671  1.9396e-001 -2.2994e-002  7.1172e-002 36057 92446,92550,92498
 1.2000e+001 92648 -5.4784e-002 -4.3427e-001  1.8904e-001 36057 92446,92576,92550
 1.2000e+001 92625  1.5516e-001 -1.4144e-002 -3.2467e-001 36057 92420,92576,92446
 1.2000e+001 92602  2.9963e-002  1.3836e-002  1.7811e-001 36057 92498,92550,92524
 1.2000e+001 93023 -1.6474e-001 -4.0638e-001 -3.5889e-002 35717 92876,92928,92902
 1.2000e+001 93000 -1.3473e-001 -4.5093e-001 -5.3442e-002 35717 92824,92928,92876
 1.2000e+001 92977 -6.6061e-003 -4.3995e-001 -2.1520e-002 35717 92798,92928,92824
 1.2000e+001 92954 -1.8597e-001 -6.0841e-001 -1.0409e-001 35717 92824,92876,92850
 1.2000e+001 93499  2.5755e-001 -5.5266e-001  1.9846e-001 35405 93522,93309,93257
 1.2000e+001 93476  2.9613e-001 -4.5372e-001  1.8086e-001 35405 93666,93522,93257
 1.2000e+001 93453  2.9485e-001 -1.2945e+000  1.9858e-001 35405 93594,93127,93335
 1.2000e+001 93430  1.9226e-001 -4.7134e-001  1.6361e-001 35405 93666,93257,93231
 1.2000e+001 93407 -5.2620e-002 -1.6004e+000 -4.0090e-002 35405 93127,93179,93153
 1.2000e+001 93384 -5.0242e-001 -3.9002e-001  4.5275e-001 35405 93179,93231,93205
 1.2000e+001 93361  3.2187e-001  1.4374e-001 -2.9730e-002 35405 93257,93309,93283
 1.2000e+001 93548  4.8745e-001 -3.8430e-001  3.8991e-001 35405 93335,93309,93522
 1.2000e+001 93571  3.0624e-001 -7.5761e-001  2.7722e-001 35405 93594,93335,93522
 1.2000e+001 93620  3.6166e-001 -7.2087e-001  1.1793e-001 35405 93179,93127,93594
 1.2000e+001 93643  1.6281e-001 -4.9792e-001  1.2846e-001 35405 93738,93594,93522
 1.2000e+001 93692  1.8314e-001 -4.8437e-001  1.3683e-001 35405 93738,93522,93666
 1.2000e+001 93715  1.5243e-001 -4.6352e-001  1.2310e-001 35405 93179,93666,93231
 1.2000e+001 93764  1.6898e-001 -4.7819e-001  1.4385e-001 35405 93179,93594,93738
 1.2000e+001 93787  1.6979e-001 -4.7398e-001  1.4879e-001 35405 93179,93738,93666
 1.2000e+001 94372  8.0448e-001 -1.0671e-001  8.9146e-002 34951 94395,94127,94075
 1.2000e+001 94349  1.0499e+000 -1.4834e-001  1.8090e-001 34951 94395,94075,94231
 1.2000e+001 94326  1.1922e+000 -4.1435e-001 -3.0243e-001 34951 94049,94231,94075
 1.2000e+001 94303  6.6760e-001  2.9885e-001  2.6994e-001 34951 94075,94127,94101
 1.2000e+001 94280  1.5676e+000  7.3957e-001  6.8863e-001 34951 94127,94205,94153
 1.2000e+001 94257  1.1535e+000 -3.2375e-001  6.6510e-001 34951 94153,94205,94179
 1.2000e+001 94421  9.9953e-001 -1.5594e-001  2.3276e-001 34951 94205,94127,94395
 1.2000e+001 94444  1.4438e+000 -7.1167e-002  3.1481e-001 34951 94205,94395,94231
 1.2000e+001 94692 -1.1853e-002 -1.4916e-001 -5.1111e-003 34397 94715,94519,94467
 1.2000e+001 94669 -1.7671e-002 -1.5428e-001 -2.0049e-003 34397 94715,94467,94597
 1.2000e+001 94646 -8.2473e-003 -4.4427e-002  7.2898e-003 34397 94545,94597,94571
 1.2000e+001 94623 -3.3540e-002 -2.0653e-001  9.5782e-003 34397 94467,94519,94493
 1.2000e+001 94741 -2.0577e-002 -1.2413e-001 -6.0019e-003 34397 94545,94519,94715
 1.2000e+001 94764 -3.0056e-002 -1.4401e-001  1.5956e-003 34397 94545,94715,94597
 1.2000e+001 94985  4.4289e-002 -2.1985e-001  8.8407e-003 33985 94835,94913,94887
 1.2000e+001 94962 -3.4018e-002 -4.4230e-001  7.2573e-002 33985 94809,94913,94835
 1.2000e+001 94939 -5.9417e-002 -2.5141e-001  2.7305e-002 33985 94835,94887,94861
 1.2000e+001 95186 -8.5384e-002 -6.9558e-001 -1.9439e-001 33645 95281,95209,95036
 1.2000e+001 95163  3.7006e-001 -6.9331e-001  2.6999e-002 33645 95209,95010,95088
 1.2000e+001 95140  3.5473e-001 -3.9845e-001 -8.5211e-003 33645 95010,95114,95088
 1.2000e+001 95235 -2.6647e-001 -8.4936e-001 -3.3155e-001 33645 95062,95036,95209
 1.2000e+001 95258 -2.2018e-001 -9.2625e-001  2.6229e-001 33645 95413,95209,95088
 1.2000e+001 95307  2.9356e-001 -6.2202e-002 -4.2037e-001 33645 95010,95209,95281
 1.2000e+001 95439  1.6348e-001 -5.0093e-001  9.5841e-002 33645 95062,95209,95413
 1.2000e+001 95766 -1.7863e-001 -2.0540e-001 -2.8433e-001 33141 95789,95593,95567
 1.2000e+001 95743  1.7219e-002 -3.3606e-001 -9.3707e-002 33141 95861,95789,95567
 1.2000e+001 95720  6.1372e-003 -3.0672e-001 -3.9794e-002 33141 95861,95567,95671
 1.2000e+001 95697  8.7083e-003 -3.3358e-001 -4.8255e-002 33141 95541,95671,95567
 1.2000e+001 95815 -2.1485e-002  1.6676e-001 -2.4421e-001 33141 95619,95593,95789
 1.2000e+001 95838  3.8935e-002 -1.6720e-001 -8.3523e-002 33141 95619,95789,95645
 1.2000e+001 95887  5.7710e-002 -2.4076e-001 -9.6484e-002 33141 95645,95789,95861
 1.2000e+001 95910  4.7547e-002 -2.1112e-001 -3.5089e-002 33141 95645,95861,95671
 1.2000e+001 96060 -1.5454e-001 -4.1729e-001 -1.1967e-001 32487 95959,96011,95985
 1.2000e+001 96037  1.1799e-002 -4.3031e-001 -1.1253e-002 32487 95933,96011,95959
 1.2000e+001 96570 -2.4000e-001 -5.2213e-001  2.4958e-001 32033 96665,96593,96377
 1.2000e+001 96547 -2.0918e-001 -5.0730e-001 -1.0915e-001 32033 96737,96593,96325
 1.2000e+001 96524 -3.0356e-001 -6.5792e-001  1.5542e-001 32033 96665,96377,96351
 1.2000e+001 96501 -3.1604e-001 -7.0340e-001 -6.7916e-002 32033 96737,96325,96299
 1.2000e+001 96478 -3.6836e-001 -2.6950e-001 -6.9353e-002 32033 96247,96429,96299
 1.2000e+001 96455 -7.5034e-001 -1.3025e+000 -4.0277e-002 32033 96247,96299,96273
 1.2000e+001 96619  7.6969e-002 -2.7910e-001  3.1137e-001 32033 96809,96593,96403
 1.2000e+001 96642  2.9276e-001  2.9633e-001 -3.1612e-001 32033 96403,96593,96429
 1.2000e+001 96691  1.4837e-002 -8.5104e-001  7.5460e-002 32033 96325,96593,96665
 1.2000e+001 96714 -2.0379e-001 -1.1041e+000 -5.6383e-002 32033 96325,96665,96351
 1.2000e+001 96763 -3.3528e-001 -4.4308e-001 -1.5818e-002 32033 96429,96593,96737
 1.2000e+001 96786 -3.7570e-001 -5.2531e-001 -2.4726e-003 32033 96429,96737,96299
 1.2000e+001 96835 -8.3014e-002 -4.5038e-001  2.3287e-001 32033 96377,96593,96809
 1.2000e+001 97064 -6.8726e-002 -8.2968e-002 -3.6876e-002 31671 97087,96989,96963
 1.2000e+001 97041  5.0808e-003 -8.4307e-002  5.2612e-002 31671 97087,96963,96937
 1.2000e+001 97113  3.0883e-002 -1.0266e-001  2.0180e-002 31671 97159,97087,97015
 1.2000e+001 97136  5.1878e-003 -7.5603e-002  3.9898e-002 31671 97015,97087,96937
 1.2000e+001 97185  1.2703e-002  7.0962e-002 -2.2590e-003 31671 96989,97087,97159
 1.2000e+001 97563  6.4608e-003 -1.4007e-001 -1.6956e-002 31117 97586,97367,97341
 1.2000e+001 97540 -4.5264e-003 -1.2011e-001  1.7736e-003 31117 97658,97586,97341
 1.2000e+001 97517 -2.2515e-002 -1.0165e-001 -5.3641e-003 31117 97658,97341,97315
 1.2000e+001 97494  5.4897e-002 -4.3606e-002  9.8975e-003 31117 97289,97445,97315
 1.2000e+001 97471 -2.8026e-003 -2.3553e-002 -1.3118e-002 31117 97367,97419,97393
 1.2000e+001 97612 -2.6567e-002 -8.8258e-002 -1.4481e-002 31117 97419,97367,97586
 1.2000e+001 97635  2.6867e-002 -9.3672e-002  1.8149e-002 31117 97419,97586,97445
 1.2000e+001 97684  2.2251e-002 -1.0139e-001 -6.4273e-003 31117 97445,97586,97658
 1.2000e+001 97707  2.3825e-003 -8.3771e-002 -1.3269e-002 31117 97445,97658,97315
 1.2000e+001 98215  7.2400e-002 -1.4477e-001 -1.5755e-001 30563 98238,97996,97944
 1.2000e+001 98192 -1.2606e-001 -1.3841e-001 -1.7179e-001 30563 98310,98238,97944
 1.2000e+001 98169 -3.1795e-001 -3.1638e-001 -3.1158e-001 30563 98310,97944,97918
 1.2000e+001 98146  2.2288e-001 -1.5050e-001 -8.4119e-002 30563 97892,98074,97918
 1.2000e+001 98123  1.9319e-001 -2.6259e-001  9.7387e-002 30563 97996,98048,98022
 1.2000e+001 98100 -2.2528e-001 -2.4767e-001 -1.7530e-001 30563 97944,97996,97970
 1.2000e+001 98264 -6.8012e-004 -8.6553e-002 -1.1175e-001 30563 98048,97996,98238
 1.2000e+001 98287  1.8604e-001  2.0928e-001  1.0432e-001 30563 98048,98238,98074
 1.2000e+001 98336  8.9767e-002 -1.6020e-001 -2.2797e-002 30563 98074,98238,98310
 1.2000e+001 98359 -5.3110e-002 -1.8204e-001 -1.2447e-001 30563 98074,98310,97918
 1.2000e+001 98607 -2.5440e-001 -1.4290e-001  1.4650e-002 30073 98630,98460,98408
 1.2000e+001 98584 -4.2122e-001 -2.3236e-001 -3.2146e-002 30073 98630,98408,98382
 1.2000e+001 98561 -8.9549e-002 -2.3464e-001 -2.5677e-002 30073 98382,98512,98486
 1.2000e+001 98538 -1.2473e-001 -1.8659e-001  1.0706e-001 30073 98408,98460,98434
 1.2000e+001 98656 -1.5746e-001 -2.6455e-001 -2.1381e-002 30073 98486,98460,98630
 1.2000e+001 98679 -2.6535e-001 -3.0925e-001 -5.5671e-002 30073 98486,98630,98382
 1.2000e+001 99157  9.4549e-001 -2.6551e-001  2.2891e-001 29669 99180,98837,98811
 1.2000e+001 99134  8.2809e-001 -2.1681e-001  3.8625e-001 29669 99324,99180,98811
 1.2000e+001 99111  6.8462e-001 -1.3296e-003  5.1082e-002 29669 99252,98863,98837
 1.2000e+001 99088  7.9817e-001 -3.4789e-001  4.2622e-001 29669 99324,98811,98993
 1.2000e+001 99065  6.9879e-001  2.9346e-001  1.5096e-001 29669 98863,98941,98915
 1.2000e+001 99042 -3.7496e-001  1.0260e-001  9.9387e-002 29669 98863,98915,98889
 1.2000e+001 99019  2.7567e-001 -5.3535e-001  6.1399e-001 29669 98785,98993,98811
 1.2000e+001 99206  7.1954e-001 -3.5868e-001  1.6756e-001 29669 99252,98837,99180
 1.2000e+001 99229  4.2448e-001 -2.3846e-001  4.5026e-001 29669 98941,99180,98967
 1.2000e+001 99278  6.2404e-001  2.4631e-001  1.0910e-001 29669 98941,98863,99252
 1.2000e+001 99301  8.1567e-001  9.6191e-002  2.5731e-001 29669 98941,99252,99180
 1.2000e+001 99350  7.7955e-001 -5.3896e-002  3.6958e-001 29669 98967,99180,99324
 1.2000e+001 99373  7.8459e-001 -1.5695e-001  3.8927e-001 29669 98967,99324,98993
 1.2000e+001 99958  4.6758e-001  6.0431e-001  2.3108e-001 29051 99981,99765,99739
 1.2000e+001 99935  8.0375e-002 -1.0607e-002  6.5125e-002 29051 99981,99739,99661
 1.2000e+001 99912  1.9423e-001 -1.2507e+000  3.5996e-002 29051 99765,99817,99791
 1.2000e+001 99889  6.3937e-002 -5.3330e-001  8.7346e-002 29051 99635,99817,99661
 1.2000e+001 99866 -3.5973e-001 -4.9300e-002  3.8393e-001 29051 99661,99739,99687
 1.2000e+001 99843 -5.8346e-001  4.4242e-002  2.4203e-001 29051 99687,99739,99713
 1.2000e+001 100007  6.7901e-001  1.1254e-002  2.9237e-001 29051 99817,99765,99981
 1.2000e+001 100030  5.1669e-001 -2.7837e-001  2.1912e-001 29051 99817,99981,99661
 1.2000e+001 100278  3.0738e-001 -3.1316e-001  1.5338e-001 28525 100445,100301,100131
 1.2000e+001 100255  1.2080e-001  2.7305e-002  7.9936e-002 28525 100373,100301,100079
 1.2000e+001 100232  1.0233e-001 -2.9071e-001  1.2659e-001 28525 100373,100079,100053
 1.2000e+001 100209  1.2319e-001 -1.9010e-001  2.2588e-002 28525 100445,100131,100105
 1.2000e+001 100327  4.6783e-001 -2.6855e-001  2.7756e-001 28525 100517,100301,100157
 1.2000e+001 100350  3.7420e-001  4.0895e-001  3.1026e-001 28525 100157,100301,100183
 1.2000e+001 100399  9.7022e-002 -3.0284e-001  2.4192e-001 28525 100183,100301,100373
 1.2000e+001 100422  1.5158e-001 -5.2898e-001  2.8483e-001 28525 100183,100373,100053
 1.2000e+001 100471  6.2722e-002 -3.3271e-001 -1.4877e-001 28525 100079,100301,100445
 1.2000e+001 100494 -4.6465e-001 -4.5030e-001 -2.8830e-001 28525 100079,100445,100105
 1.2000e+001 100543  6.2579e-001 -2.0297e-002  1.8493e-002 28525 100131,100301,100517
 1.2000e+001 101209 -6.8169e-001 -1.9300e-001 -4.8476e-002 28185 100938,101016,100990
 1.2000e+001 101186 -8.1936e-001 -9.4128e-002  3.3871e-002 28185 100912,101016,100938
 1.2000e+001 101163 -2.5754e-001  6.5371e-002  1.2782e-001 28185 100912,101068,101016
 1.2000e+001 101140 -7.9917e-001  9.2080e-002  7.9377e-002 28185 100886,101068,100912
 1.2000e+001 101117 -2.3213e-001  3.4009e-001  1.6683e-001 28185 101016,101068,101042
 1.2000e+001 101094 -1.8183e+000 -4.9073e-001 -1.0027e-001 28185 100938,100990,100964
 1.2000e+001 101408  1.4790e-001 -2.3915e-001 -1.2211e-001 27781 101503,101431,101310
 1.2000e+001 101385 -1.3617e-001 -7.0501e-002 -3.7299e-001 27781 101431,101258,101232
 1.2000e+001 101362  1.7884e-001 -2.5744e-001 -1.3982e-001 27781 101503,101310,101284
 1.2000e+001 101457  7.2272e-001  4.9920e-003 -1.7503e-001 27781 101336,101310,101431
 1.2000e+001 101480  1.4398e-001  4.7337e-002 -3.7731e-001 27781 101575,101431,101232
 1.2000e+001 101529  3.1345e-001 -2.2466e-001 -3.1178e-001 27781 101258,101431,101503
 1.2000e+001 101552  2.1455e-001 -2.3868e-001 -1.5993e-001 27781 101705,101503,101284
 1.2000e+001 101601  3.6985e-001  4.2374e-001 -4.7496e-001 27781 101336,101431,101575
 1.2000e+001 101731 -1.1556e-001 -3.9709e-001 -3.3038e-001 27781 101258,101503,101705
 1.2000e+001 102237 -2.4851e-001 -2.0815e-001  3.8095e-002 27419 102476,102260,101992
 1.2000e+001 102214 -1.2022e-001 -3.3879e-001 -1.6707e-003 27419 102260,101940,101914
 1.2000e+001 102191 -3.3029e-001 -4.2352e-001  2.7522e-002 27419 102404,102332,102096
 1.2000e+001 102168 -2.8630e-001 -4.2122e-001 -1.8984e-002 27419 102404,102096,102044
 1.2000e+001 102145 -2.2615e-001 -2.2711e-001  5.2375e-002 27419 102476,101992,101966
 1.2000e+001 102122 -2.1422e-001 -4.5698e-001 -1.9852e-002 27419 102044,102096,102070
 1.2000e+001 102286 -3.1820e-001 -3.2482e-001  6.7851e-002 27419 102018,101992,102260
 1.2000e+001 102309 -2.7699e-001 -2.9869e-001  1.7905e-003 27419 102332,102018,102260
 1.2000e+001 102358 -3.1262e-001 -5.8679e-001  1.3186e-001 27419 101914,102096,102332
 1.2000e+001 102381 -2.1394e-001 -4.5589e-001  4.0095e-002 27419 101914,102332,102260
 1.2000e+001 102430 -2.3434e-001 -3.9594e-001  6.3082e-003 27419 102018,102332,102404
 1.2000e+001 102453 -2.0732e-001 -3.9331e-001 -4.4966e-002 27419 102018,102404,102044
 1.2000e+001 102502 -1.6381e-001 -3.0921e-001  5.6287e-002 27419 101940,102260,102476
 1.2000e+001 102525  2.1964e-001 -1.1186e-001 -1.5939e-002 27419 101940,102476,101966
 1.2000e+001 103031 -8.7040e-001 -5.3743e-001  7.6934e-001 26715 102708,102786,102760
 1.2000e+001 103008  4.1098e-002 -5.3296e-001  2.6325e-001 26715 102708,102890,102786
 1.2000e+001 102985  6.0146e-001 -1.1642e+000  3.1556e-001 26715 102838,102890,102864
 1.2000e+001 102962  2.1586e-001 -1.5413e-001  3.0767e-001 26715 102786,102890,102838
 1.2000e+001 102939  1.1744e+000  2.9416e-001  6.1998e-001 26715 102786,102838,102812
 1.2000e+001 102916 -9.7323e-001 -2.9731e-002  1.7422e-001 26715 102708,102760,102734
 1.2000e+001 103279 -2.4892e-002 -2.6248e-002  5.4398e-002 26303 103302,103158,103080
 1.2000e+001 103256 -8.7900e-002  1.8339e-005  5.0471e-002 26303 103302,103080,103054
 1.2000e+001 103233 -1.4887e-001 -9.1253e-002  1.9910e-002 26303 103080,103158,103106
 1.2000e+001 103210  1.5300e-001 -9.2575e-003  2.5769e-002 26303 103106,103158,103132
 1.2000e+001 103328  7.9573e-002  1.7494e-002  3.4753e-002 26303 103184,103158,103302
 1.2000e+001 103351 -3.4989e-002  7.7576e-003  3.8005e-002 26303 103184,103302,103054
 1.2000e+001 103501 -1.1901e-001 -4.2837e-001 -1.2777e-002 25849 103374,103426,103400
 1.2000e+001 103478 -2.1546e-001 -3.7523e-001  3.2064e-002 25849 103374,103452,103426
 1.2000e+001 104090  8.5119e-002 -5.7441e-002  1.2964e-001 25445 103793,103871,103819
 1.2000e+001 104067  2.6159e-001 -5.3824e-003  5.4116e-002 25445 103793,103949,103871
 1.2000e+001 104044  3.1420e-001 -2.0381e-002  1.4760e-001 25445 103871,103949,103923
 1.2000e+001 104021 -1.3417e-002 -1.5466e-004 -4.4079e-002 25445 103819,103871,103845
 1.2000e+001 103998  3.4289e-001  8.2320e-002  1.5831e-001 25445 103767,103949,103793
 1.2000e+001 103975  3.3734e-001  3.6442e-002  1.6712e-001 25445 103871,103923,103897
 1.2000e+001 104419 -1.2410e-001 -1.5679e-001 -6.2373e-002 25083 104220,104298,104272
 1.2000e+001 104396 -2.2157e-001 -3.1479e-001 -1.0569e-002 25083 104220,104324,104298
 1.2000e+001 104373 -1.0174e-001 -1.1323e-001 -5.4444e-002 25083 104220,104272,104246
 1.2000e+001 104350 -1.8968e-001 -3.4437e-001 -1.6060e-002 25083 104194,104324,104220
 1.2000e+001 105102  6.2058e-002 -2.2401e-001  5.5172e-002 24793 104785,104863,104837
 1.2000e+001 105079  8.2684e-002 -3.1797e-001 -1.1986e-001 24793 104759,104863,104785
 1.2000e+001 105056  7.7269e-002 -6.2781e-002 -1.1181e-001 24793 104759,104915,104863
 1.2000e+001 105033  1.0494e-001 -1.8674e-001 -1.6092e-001 24793 104733,104915,104759
 1.2000e+001 105010  4.0517e-001  9.2248e-002 -1.8924e-001 24793 104863,104915,104889
 1.2000e+001 104987 -5.6767e-002  2.1619e-003 -2.8854e-001 24793 104681,104915,104733
 1.2000e+001 104964 -2.6487e-002 -3.2017e-001  1.1217e-002 24793 104785,104837,104811
 1.2000e+001 104941 -4.8468e-002  2.3099e-001 -2.3673e-001 24793 104681,104733,104707
 1.2000e+001 105252  1.0620e+000  5.0240e-001  3.9115e-002 24389 105477,105275,105177
 1.2000e+001 105229  3.4130e-001  1.1378e-001  3.0131e-001 24389 105347,105275,105151
 1.2000e+001 105301  1.0593e+000  2.6711e-001  3.2262e-002 24389 105203,105177,105275
 1.2000e+001 105324  1.3279e+000  9.0408e-001  3.4502e-001 24389 105203,105275,105125
 1.2000e+001 105373  1.0607e+000  4.9565e-001  7.9630e-002 24389 105125,105275,105347
 1.2000e+001 105503  7.5832e-001 -1.2068e-001 -5.5222e-002 24389 105151,105275,105477
 1.2000e+001 106088 -3.0643e-001  2.1920e-001  2.9097e-001 23735 105791,105921,105895
 1.2000e+001 106065 -8.5447e-001  8.7784e-002  4.4077e-001 23735 105765,105921,105791
 1.2000e+001 106042 -1.7978e-001  4.7705e-001  2.6666e-001 23735 105765,105947,105921
 1.2000e+001 106019 -1.0634e+000 -6.8339e-002  3.7756e-001 23735 105817,105895,105869
 1.2000e+001 105996 -6.8858e-001  6.1471e-002  3.6997e-001 23735 105791,105895,105817
 1.2000e+001 105973 -6.2117e-001 -3.3630e-001  4.1449e-001 23735 105817,105869,105843
 1.2000e+001 106417  4.1211e-001  7.9033e-001 -1.1398e-001 23295 106218,106296,106270
 1.2000e+001 106394  3.4355e-001  3.2982e-001 -1.2217e-001 23295 106218,106322,106296
 1.2000e+001 106371  1.5513e-001  2.1735e-001 -1.8048e-001 23295 106218,106270,106244
 1.2000e+001 106348  4.9794e-001  3.9583e-001 -5.1001e-002 23295 106192,106322,106218
 1.2000e+001 106746 -4.0611e-001  1.8245e-001  2.8850e-001 23005 106521,106599,106547
 1.2000e+001 106723  1.7890e-001  7.1437e-001  6.4443e-002 23005 106521,106651,106599
 1.2000e+001 106700  3.0809e-001  8.3004e-002 -1.0515e-001 23005 106547,106599,106573
 1.2000e+001 106677  2.5491e-001  5.9594e-001  3.4739e-001 23005 106599,106651,106625
 1.2000e+001 107331 -1.9933e-001  3.3701e-001 -3.4601e-001 22601 107060,107190,107138
 1.2000e+001 107308 -1.1673e+000  9.2766e-001 -6.3424e-001 22601 107034,107190,107060
 1.2000e+001 107285 -2.4127e+000 -6.2147e-001 -4.4493e-001 22601 107060,107138,107112
 1.2000e+001 107262 -1.5758e+000  1.4540e+000  8.3259e-001 22601 107008,107190,107034
 1.2000e+001 107239  2.9092e-001 -3.4624e+000  6.5487e-002 22601 107060,107112,107086
 1.2000e+001 107216 -1.1724e+000  2.5981e+000  5.9743e-001 22601 107138,107190,107164
 1.2000e+001 107807 -1.6641e-001  3.1296e-002 -2.4079e-002 22031 107974,107902,107617
 1.2000e+001 107784 -1.6529e-001  1.8213e-001 -8.7676e-002 22031 107830,107565,107513
 1.2000e+001 107761 -4.8015e-002 -1.3026e-002 -1.1304e-001 22031 108046,107830,107513
 1.2000e+001 107738 -1.1579e-001  1.2951e-001  8.4207e-003 22031 107974,107617,107591
 1.2000e+001 107715 -6.7616e-002 -4.8477e-002 -1.2491e-001 22031 108046,107513,107461
 1.2000e+001 107692 -3.9928e-001  2.3405e-001 -1.3656e-001 22031 107513,107565,107539
 1.2000e+001 107669  8.2399e-002  1.9760e-001 -1.9210e-001 22031 107461,107513,107487
 1.2000e+001 107856 -2.3281e-001  8.4117e-002 -5.1923e-002 22031 107902,107565,107830
 1.2000e+001 107879 -9.2527e-002 -1.3112e-001 -1.0936e-002 22031 107643,107830,107435
 1.2000e+001 107928 -3.7254e-001  5.8493e-002 -1.5570e-001 22031 107643,107617,107902
 1.2000e+001 107951 -2.2268e-001  7.5655e-002  1.9268e-002 22031 107643,107902,107830
 1.2000e+001 108000 -1.9367e-001  1.7169e-001 -4.4446e-002 22031 107565,107902,107974
 1.2000e+001 108023 -1.9333e-001  1.4874e-001 -4.0253e-002 22031 107565,107974,107591
 1.2000e+001 108072 -6.2333e-004 -5.3362e-002 -5.7335e-002 22031 107435,107830,108046
 1.2000e+001 108095 -2.6742e-002 -1.0997e-001 -7.1192e-002 22031 107435,108046,107461
 1.2000e+001 108196  6.3102e-002 -1.0414e-001  7.7392e-003 21783 108118,108170,108144
 1.2000e+001 108655  1.5012e-001  8.6981e-001  5.1124e-001 21379 108407,108485,108459
 1.2000e+001 108632  1.7576e+000  3.8014e-001  5.7182e-001 21379 108407,108511,108485
 1.2000e+001 108609  1.7032e+000  8.2742e-001  1.1127e+000 21379 108381,108511,108407
 1.2000e+001 108586  6.6188e-001  1.5636e+000  6.4409e-002 21379 108381,108537,108511
 1.2000e+001 108563  4.5942e-001  1.2081e-001  2.3263e-001 21379 108407,108459,108433
 1.2000e+001 109082  1.8635e-001 -6.6431e-001 -5.3118e-002 20974 109105,108863,108811
 1.2000e+001 109059 -1.9350e-001 -8.3100e-001 -2.2987e-002 20974 109105,108811,108759
 1.2000e+001 109036  7.8976e-003 -1.8248e+000  2.0625e-001 20974 109177,108889,108863
 1.2000e+001 109013 -1.3034e-001 -6.4500e-001  4.1421e-002 20974 108811,108863,108837
 1.2000e+001 108990  1.4550e-001 -9.0181e-002 -1.8850e-002 20974 108759,108941,108915
 1.2000e+001 108967  7.0707e-002 -7.1623e-002 -8.2847e-003 20974 108759,108811,108785
 1.2000e+001 109131 -1.6425e-001 -1.4321e+000  4.9419e-002 20974 109177,108863,109105
 1.2000e+001 109154  8.5572e-003 -5.0620e-002 -5.6942e-002 20974 108915,109105,108759
 1.2000e+001 109203 -1.5689e-001 -1.5209e+000 -3.1057e-001 20974 108915,108889,109177
 1.2000e+001 109226  1.7805e-002 -5.0872e-001 -3.9200e-001 20974 108915,109177,109105
 1.2000e+001 109496 -3.1510e-001 -2.5953e-003 -3.9242e-002 20470 109271,109375,109297
 1.2000e+001 109473 -2.7811e-001  2.3830e-002 -5.0859e-002 20470 109271,109401,109375
 1.2000e+001 109450 -3.7270e-001 -4.4939e-002 -5.8845e-002 20470 109297,109375,109349
 1.2000e+001 109427 -5.2771e-001 -3.4055e-001  1.0220e-001 20470 109297,109349,109323
 1.2000e+001 109955  1.5708e-001  4.8035e-001  3.5687e-001 20123 110050,109733,109707
 1.2000e+001 109932 -1.7590e-001  2.9048e-001  2.7986e-001 20123 110050,109707,109681
 1.2000e+001 109909  1.1645e-001  4.3372e-002  2.1020e-001 20123 109978,109759,109733
 1.2000e+001 109886  6.9363e-002  1.1258e-001  2.4386e-001 20123 110122,109978,109733
 1.2000e+001 109863  1.4987e-001  4.2062e-002  2.2477e-001 20123 109785,109837,109811
 1.2000e+001 110004  1.6210e-001  1.5563e-001  1.9879e-001 20123 109785,109759,109978
 1.2000e+001 110027  1.3288e-001  1.4497e-001  2.0089e-001 20123 109785,109978,109837
 1.2000e+001 110076  1.5247e-002  2.0789e-001  2.0907e-001 20123 110122,109733,110050
 1.2000e+001 110099 -3.9218e-003  3.2619e-001  1.4175e-001 20123 109837,110050,109681
 1.2000e+001 110148  1.7548e-001  2.5205e-001  1.8906e-001 20123 109837,109978,110122
 1.2000e+001 110171  1.2241e-001  3.2934e-001  1.5117e-001 20123 109837,110122,110050
 1.2000e+001 110500  3.4081e-001 -6.3174e-002  7.8607e-003 19511 110301,110379,110353
 1.2000e+001 110477  9.0589e-001  3.7495e-001 -2.2695e-001 19511 110301,110405,110379
 1.2000e+001 110454  3.3994e-001  5.2478e-002 -1.9339e-002 19511 110275,110405,110301
 1.2000e+001 110431  3.0704e-001 -1.3165e-001  2.5064e-002 19511 110301,110353,110327
 1.2000e+001 110957  2.9488e-001  1.3445e+000  3.1278e-001 19107 110683,110735,110709
 1.2000e+001 110934  5.4609e-001  9.4532e-001 -2.7470e-002 19107 110683,110813,110735
 1.2000e+001 110911  1.0390e+000  1.2315e+000  2.6057e-001 19107 110735,110813,110761
 1.2000e+001 110888  1.3280e+000  8.9902e-001  5.7847e-001 19107 110683,110839,110813
 1.2000e+001 110865  1.0924e+000  1.1159e+000 -1.1947e-001 19107 110761,110813,110787
 1.2000e+001 111335  8.5934e-001 -1.1216e+000  5.3077e-001 18653 111087,111165,111139
 1.2000e+001 111312  7.4376e-001 -6.5595e-002  2.4675e-001 18653 111087,111217,111165
 1.2000e+001 111289  8.0236e-002 -4.7195e-001  1.0831e+000 18653 111061,111217,111087
 1.2000e+001 111266  1.5781e+000 -1.3007e+000  1.7304e+000 18653 111087,111139,111113
 1.2000e+001 111243  6.4298e-001 -3.6794e-002 -1.2615e-001 18653 111165,111217,111191
 1.2000e+001 111735 -4.5419e-001 -3.4632e-001  1.1215e-001 18213 111461,111513,111487
 1.2000e+001 111712 -2.9821e-001 -3.9170e-001  5.0909e-002 18213 111461,111617,111513
 1.2000e+001 111689 -2.3007e-001 -2.3239e-001  5.0661e-002 18213 111513,111617,111591
 1.2000e+001 111666  3.4674e-003 -1.7127e-001  1.2642e-001 18213 111513,111591,111539
 1.2000e+001 111643  1.6418e-001 -1.4919e-002  6.1430e-002 18213 111539,111591,111565
 1.2000e+001 111885 -7.8756e-001 -3.9814e+000 -1.3080e-001 17659 111784,111836,111810
 1.2000e+001 111862 -5.3307e-001 -2.8435e+000  3.3981e-001 17659 111758,111836,111784
 1.2000e+001 112287 -5.2447e-001 -2.9972e+000 -1.0045e+000 17411 112065,112169,112143
 1.2000e+001 112264 -1.7759e+000 -1.4282e+000 -8.6247e-001 17411 112039,112169,112065
 1.2000e+001 112241 -1.5965e+000 -1.0564e+000 -7.9902e-001 17411 112013,112169,112039
 1.2000e+001 112218  3.2547e+000 -2.3263e+000 -9.9450e-001 17411 112091,112143,112117
 1.2000e+001 112195 -8.5676e-002 -2.7425e+000 -2.2221e-001 17411 112065,112143,112091
 1.2000e+001 112508 -2.9769e-001  2.1613e-001  3.8845e-002 17007 112384,112436,112410
 1.2000e+001 112485 -2.0600e-001  3.0149e-001  7.5707e-002 17007 112332,112436,112384
 1.2000e+001 112462 -2.8739e-001  1.4497e-001  4.6322e-002 17007 112332,112384,112358
 1.2000e+001 112658 -7.0200e-001 -5.1705e-001  3.7854e-001 16553 112557,112609,112583
 1.2000e+001 112635 -1.2866e+000 -1.9971e-002  5.2711e-001 16553 112531,112609,112557
 1.2000e+001 112761  1.8896e-001 -1.0397e+000  4.9376e-002 16355 112683,112735,112709
 1.2000e+001 112913 -4.9277e-001  2.8179e-001  3.1891e-002 15949 112786,112838,112812
 1.2000e+001 112890 -2.2215e-001  7.5180e-001 -9.4054e-002 15949 112786,112864,112838
 1.2000e+001 113065  9.5197e-002 -4.9866e-001 -9.7947e-003 15609 112938,112990,112964
 1.2000e+001 113042 -1.3591e-001 -1.1477e+000 -3.2324e-001 15609 112938,113016,112990
 1.2000e+001 113420  4.4112e-001  2.7212e-001  1.1562e-001 15284 113247,113325,113299
 1.2000e+001 113397  4.2620e-001  2.3306e-001  3.3938e-002 15284 113195,113325,113247
 1.2000e+001 113374  2.4845e-001  1.6382e-001  3.0180e-002 15284 113195,113247,113221
 1.2000e+001 113351  3.2900e-001  4.0614e-001  9.5690e-002 15284 113247,113299,113273
 1.2000e+001 113521  1.5220e-001 -1.6815e-001  9.2834e-002 202 113443,113495,113469
 1.2500e+001 65564  7.8312e-002 -9.2173e-002 -2.2568e-002 65155 65414,65466,65440
 1.2500e+001 65541  4.9286e-002 -1.0560e-001 -1.7249e-003 65155 65414,65492,65466
 1.2500e+001 65518 -2.0723e-003 -1.3262e-001  8.5760e-003 65155 65388,65492,65414
 1.2500e+001 65883  1.3650e-001 -7.1542e-001 -5.6250e-003 64957 65635,65739,65713
 1.2500e+001 65860  1.2043e-001 -1.0537e+000 -4.7448e-002 64957 65635,65765,65739
 1.2500e+001 65837 -8.3955e-002 -1.1594e+000 -2.8293e-003 64957 65609,65765,65635
 1.2500e+001 65814  1.2579e-001 -8.4966e-001  2.3778e-001 64957 65635,65713,65687
 1.2500e+001 65791  2.2088e-004 -1.0094e+000  1.5604e-001 64957 65635,65687,65661
 1.2500e+001 65984 -2.3127e-002  8.4812e-002  1.2143e-002 64781 65906,65958,65932
 1.2500e+001 66232 -3.2211e-001 -3.9535e-001  3.5862e-001 64469 66007,66059,66033
 1.2500e+001 66209  6.9621e-002 -4.2273e-001  4.0900e-001 64469 66007,66085,66059
 1.2500e+001 66186 -2.2456e-001 -1.0843e+000  5.2390e-001 64469 66007,66137,66085
 1.2500e+001 66163 -1.1568e-001 -1.4028e+000  1.1265e+000 64469 66085,66137,66111
 1.2500e+001 66504  1.1236e-002 -1.0147e+000  2.3555e-002 64271 66279,66383,66305
 1.2500e+001 66481  1.0745e-001 -1.0116e+000 -2.9233e-002 64271 66279,66409,66383
 1.2500e+001 66458  1.9488e-001 -1.2842e+000  2.5340e-002 64271 66305,66357,66331
 1.2500e+001 66435 -7.6608e-002 -1.1522e+000  6.1854e-002 64271 66305,66383,66357
 1.2500e+001 66705  3.5860e-001 -2.7225e+000  2.2313e-001 64073 66728,66581,66555
 1.2500e+001 66682  3.5407e-001 -1.9518e+000  4.1637e-001 64073 66728,66555,66529
 1.2500e+001 66659  1.9227e-001 -1.7000e+000 -3.0274e-001 64073 66581,66633,66607
 1.2500e+001 66754 -1.2552e-001 -1.9972e+000 -5.7759e-002 64073 66633,66581,66728
 1.2500e+001 66777  6.7174e-002 -9.8378e-001  2.1662e-002 64073 66633,66728,66529
 1.2500e+001 66951 -1.2438e-001 -4.1766e-001 -5.5582e-002 63783 66824,66876,66850
 1.2500e+001 66928  4.5754e-001 -3.4321e-001  1.7819e-001 63783 66824,66902,66876
 1.2500e+001 67201 -5.7207e-001 -1.3090e+000 -1.2973e-001 63585 66976,67080,67054
 1.2500e+001 67178 -9.9316e-002 -1.1276e+000  6.6550e-002 63585 66976,67106,67080
 1.2500e+001 67155  1.9248e-001 -1.5815e+000 -5.4736e-001 63585 66976,67054,67028
 1.2500e+001 67132 -1.0682e-002 -2.0729e+000 -5.0567e-001 63585 66976,67028,67002
 1.2500e+001 67654  7.6454e-002 -7.9243e-001 -1.5234e-002 63295 67357,67487,67383
 1.2500e+001 67631  8.4140e-002 -9.7320e-001  1.1549e-001 63295 67331,67487,67357
 1.2500e+001 67608 -5.8999e-002 -1.1441e+000 -1.6538e-002 63295 67331,67513,67487
 1.2500e+001 67585  8.0935e-004 -1.1620e+000  2.4167e-003 63295 67435,67487,67461
 1.2500e+001 67562 -5.8158e-002 -1.1859e+000  5.9452e-003 63295 67383,67487,67435
 1.2500e+001 67539  2.9979e-002 -1.1035e+000  3.9936e-002 63295 67383,67435,67409
 1.2500e+001 67853 -6.2326e-002 -1.0659e+000  1.1513e-002 62891 67876,67703,67677
 1.2500e+001 67830 -4.3460e-002 -1.0941e+000 -1.0259e-002 62891 67876,67677,67781
 1.2500e+001 67807  1.9742e-002 -9.3619e-001 -6.0666e-002 62891 67948,67729,67703
 1.2500e+001 67902 -2.4584e-002 -1.0487e+000  1.5513e-002 62891 67948,67703,67876
 1.2500e+001 67925 -1.6193e-001 -1.0304e+000  4.5168e-002 62891 67755,67876,67781
 1.2500e+001 67974 -7.2646e-002 -7.8629e-001 -6.4182e-002 62891 67755,67729,67948
 1.2500e+001 67997 -5.4057e-002 -8.4384e-001 -4.5686e-003 62891 67755,67948,67876
 1.2500e+001 68218  7.0938e-002 -1.6539e-002 -8.5247e-002 62693 68042,68120,68068
 1.2500e+001 68195  1.1138e-003 -6.9026e-003  2.5522e-003 62693 68042,68146,68120
 1.2500e+001 68172 -2.6052e-001  2.3776e-001 -4.1351e-002 62693 68068,68120,68094
 1.2500e+001 68468  2.7100e-001 -4.2667e-002  1.5212e-002 62289 68491,68295,68269
 1.2500e+001 68445  4.4164e-002 -7.2936e-002 -1.3220e-001 62289 68563,68491,68269
 1.2500e+001 68422  5.9996e-002  4.2045e-002 -4.9202e-002 62289 68563,68269,68243
 1.2500e+001 68399 -1.6063e-001 -1.6139e-001  3.5786e-002 62289 68295,68347,68321
 1.2500e+001 68517  1.1948e-001 -2.1728e-001 -6.2822e-002 62289 68347,68295,68491
 1.2500e+001 68540 -1.9784e-001 -7.3754e-002 -2.1062e-001 62289 68347,68491,68373
 1.2500e+001 68589  8.2606e-002  1.5089e-001 -1.1114e-001 62289 68373,68491,68563
 1.2500e+001 68612  4.3098e-002  1.9097e-001 -2.9078e-002 62289 68373,68563,68243
 1.2500e+001 68911 -7.3702e-002 -1.0685e+000  5.5431e-003 62091 69222,68934,68741
 1.2500e+001 68888  9.7593e-002 -1.0235e+000 -3.2342e-002 62091 69006,68934,68689
 1.2500e+001 68865  1.2641e-001 -1.0038e+000  7.8784e-003 62091 69006,68689,68663
 1.2500e+001 68842 -1.2075e-001 -1.0637e+000 -1.2042e-001 62091 69078,68793,68767
 1.2500e+001 68819 -1.8681e-001 -1.1358e+000  1.6653e-001 62091 69222,68741,68715
 1.2500e+001 68960 -1.7430e-001 -1.0664e+000  1.3869e-002 62091 68767,68741,68934
 1.2500e+001 68983 -5.4707e-002 -1.1064e+000 -2.8740e-002 62091 69078,68767,68934
 1.2500e+001 69032  8.9592e-002 -1.0264e+000 -1.7472e-002 62091 69150,69006,68637
 1.2500e+001 69055  8.1226e-002 -1.0400e+000 -9.7883e-003 62091 68637,69006,68663
 1.2500e+001 69104 -2.5551e-002 -8.4145e-001 -6.1790e-002 62091 68637,68793,69078
 1.2500e+001 69127  6.2720e-002 -9.9040e-001 -2.1479e-003 62091 69150,68637,69078
 1.2500e+001 69176  3.2330e-002 -1.0427e+000 -3.7128e-002 62091 68934,69006,69150
 1.2500e+001 69199 -2.0564e-002 -1.0224e+000 -1.4561e-002 62091 68934,69150,69078
 1.2500e+001 69248  2.9601e-003 -9.0456e-001 -1.8557e-002 62091 68689,68934,69222
 1.2500e+001 69271 -2.2839e-002 -8.5378e-001  9.4811e-002 62091 68689,69222,68715
 1.2500e+001 69521 -2.9560e-001  1.4560e-001  2.0617e-002 61893 69544,69348,69296
 1.2500e+001 69498 -7.1063e-002  1.9219e-001  5.4897e-002 61893 69544,69296,69400
 1.2500e+001 69475  6.7989e-002  2.0022e-001  3.2205e-002 61893 69296,69426,69400
 1.2500e+001 69452 -2.5055e-001 -4.4916e-001 -9.2642e-002 61893 69296,69348,69322
 1.2500e+001 69570 -1.7751e-001  3.7824e-002  1.9780e-001 61893 69374,69348,69544
 1.2500e+001 69593  2.2052e-001  1.8037e-001  2.1983e-001 61893 69374,69544,69400
 1.2500e+001 70046  6.2415e-002 -8.4475e-001 -9.7940e-003 61467 69749,69905,69879
 1.2500e+001 70023  1.3260e-001 -6.6234e-001  1.8978e-001 61467 69723,69905,69749
 1.2500e+001 70000  4.9360e-002 -9.0745e-001 -2.7624e-002 61467 70069,69827,69775
 1.2500e+001 69977 -9.8991e-002 -1.2844e+000  1.0077e-001 61467 70069,69775,69749
 1.2500e+001 69954 -3.5782e-002 -6.7199e-001 -3.0164e-002 61467 70141,69853,69827
 1.2500e+001 69931  8.1192e-002 -1.1922e+000 -3.5549e-001 61467 69775,69827,69801
 1.2500e+001 70095  8.9231e-003 -7.3438e-001 -7.0662e-002 61467 70141,69827,70069
 1.2500e+001 70118  5.2351e-002 -8.9239e-001  2.5619e-004 61467 69879,70069,69749
 1.2500e+001 70167  7.9527e-003 -7.6697e-001 -2.6341e-002 61467 69879,69853,70141
 1.2500e+001 70190 -1.3097e-002 -9.1471e-001 -6.7610e-002 61467 69879,70141,70069
 1.2500e+001 70291 -9.4922e-002 -1.5049e+000 -1.7405e-001 61013 70213,70265,70239
 1.2500e+001 70441  1.2734e-001 -1.2851e-002 -8.4451e-002 60651 70340,70392,70366
 1.2500e+001 70418  1.6339e-001 -1.1709e-001 -2.5590e-002 60651 70314,70392,70340
 1.2500e+001 70642  6.4659e-002 -6.6611e-001 -1.5208e-001 60311 70665,70492,70466
 1.2500e+001 70619 -1.4907e-001 -1.2196e+000 -2.4543e-001 60311 70665,70466,70570
 1.2500e+001 70596 -3.2380e+000 -1.5562e-001  3.3914e-001 60311 70492,70544,70518
 1.2500e+001 70691  5.2814e-002 -1.0416e-001  4.1708e-001 60311 70544,70492,70665
 1.2500e+001 70714 -2.9383e-001 -9.4701e-001  3.3577e-001 60311 70544,70665,70570
 1.2500e+001 70964  2.9499e-001 -1.2522e+000  1.6012e-001 59907 70987,70765,70739
 1.2500e+001 70941  2.9599e-001 -1.2731e+000 -3.3461e-002 59907 71059,70987,70739
 1.2500e+001 70918  1.6842e-001 -1.4353e+000  2.1883e-002 59907 71059,70739,70869
 1.2500e+001 70895  1.6277e-001 -1.0679e+000  1.8134e-002 59907 70817,70869,70843
 1.2500e+001 71013  1.2480e+000 -7.8822e-001  5.8204e-001 59907 70791,70765,70987
 1.2500e+001 71036  4.0597e-001 -1.4363e+000  1.9551e-001 59907 70791,70987,70817
 1.2500e+001 71085  1.4018e-001 -1.1793e+000 -2.6887e-002 59907 70817,70987,71059
 1.2500e+001 71108  1.3108e-001 -1.2081e+000 -2.2393e-002 59907 70817,71059,70869
 1.2500e+001 71441 -4.9980e-001 -7.9275e-001  5.8382e-001 59417 71464,71242,71216
 1.2500e+001 71418 -3.1601e-001 -4.6421e-001  8.0686e-001 59417 71464,71216,71320
 1.2500e+001 71395 -4.5215e-001 -3.7021e-001  8.5673e-001 59417 71216,71346,71320
 1.2500e+001 71372 -3.4283e-001 -8.9649e-001  3.5912e-001 59417 71268,71320,71294
 1.2500e+001 71490 -7.0450e-001 -8.3619e-001  2.3672e-001 59417 71268,71242,71464
 1.2500e+001 71513 -6.0737e-001 -3.7264e-001  4.5189e-001 59417 71268,71464,71320
 1.2500e+001 71712  1.4103e+000  1.2715e+000  4.4462e-001 58913 71562,71614,71588
 1.2500e+001 71689  8.2268e-001  9.2842e-001  3.0116e-001 58913 71536,71614,71562
 1.2500e+001 71666  4.8835e-001  1.8767e+000 -1.5651e-001 58913 71536,71640,71614
 1.2500e+001 72171 -9.0143e-001 -2.1971e+000  1.5485e-001 58409 72194,72027,72001
 1.2500e+001 72148 -8.3511e-001 -2.6216e+000 -5.5698e-002 58409 72194,72001,71949
 1.2500e+001 72125 -5.7694e-001 -1.4785e+000 -2.8054e-003 58409 71923,72053,71949
 1.2500e+001 72102 -9.8565e-001 -2.5898e+000 -1.8405e-001 58409 71949,72001,71975
 1.2500e+001 72079 -3.7345e-001 -1.0513e+000  3.7079e-001 58409 71897,72053,71923
 1.2500e+001 72220 -7.2769e-001 -2.0456e+000  3.4030e-001 58409 72053,72027,72194
 1.2500e+001 72243 -6.5293e-001 -2.3203e+000  1.0890e-001 58409 72053,72194,71949
 1.2500e+001 72491  7.8145e-001  1.2298e+000  2.7613e-001 57855 72514,72318,72292
 1.2500e+001 72468  1.1357e+000  1.2017e+000  5.1177e-001 57855 72514,72292,72266
 1.2500e+001 72445  6.8452e-001  1.2059e+000  3.6755e-001 57855 72318,72396,72370
 1.2500e+001 72422  5.1720e-001  1.2177e+000  2.8319e-001 57855 72318,72370,72344
 1.2500e+001 72540  7.4247e-001  1.3858e+000  3.7001e-001 57855 72396,72318,72514
 1.2500e+001 72563  7.7643e-001  1.5163e+000  4.4970e-001 57855 72396,72514,72266
 1.2500e+001 72811 -2.9684e-001 -2.2186e+000  1.1301e+000 57401 72612,72690,72638
 1.2500e+001 72788 -2.1453e+000 -2.9997e+000  1.5169e+000 57401 72586,72690,72612
 1.2500e+001 72765  3.6152e+000 -3.7938e+000  1.1552e-001 57401 72638,72690,72664
 1.2500e+001 72742  2.5106e-001 -1.2443e+000  7.1111e-001 57401 72586,72716,72690
 1.2500e+001 73144 -5.5276e-002 -1.0157e+000 -1.9718e-002 57004 72919,72997,72945
 1.2500e+001 73121 -1.4239e-001 -1.2348e+000  4.8940e-002 57004 72919,73049,72997
 1.2500e+001 73098 -1.9567e-001 -9.0343e-001 -1.2002e-001 57004 72945,72997,72971
 1.2500e+001 73075 -1.1568e-001 -1.2151e+000  8.4619e-002 57004 72997,73049,73023
 1.2500e+001 73650 -3.6062e-001 -3.5812e+000  1.8353e-001 56592 73673,73379,73353
 1.2500e+001 73627 -9.1789e-001 -2.8071e+000  1.4237e+000 56592 73673,73353,73327
 1.2500e+001 73604  6.6000e-001 -1.9248e+000  1.0996e+000 56592 73745,73509,73483
 1.2500e+001 73581  8.5838e-001 -2.0703e+000  5.5031e-001 56592 73379,73457,73405
 1.2500e+001 73558  1.4436e+000 -2.0210e+000  9.4288e-001 56592 73379,73483,73457
 1.2500e+001 73535  2.1059e+000 -1.2418e+000  9.0902e-001 56592 73405,73457,73431
 1.2500e+001 73699  1.8407e-001 -2.6380e+000  6.3425e-001 56592 73483,73379,73673
 1.2500e+001 73722  5.8125e-001 -2.6671e+000  1.3664e+000 56592 73745,73483,73673
 1.2500e+001 73771  3.7264e-001 -4.4892e-001  6.1785e-001 56592 73327,73509,73745
 1.2500e+001 73794 -5.5912e-002 -1.3428e+000  1.0683e+000 56592 73327,73745,73673
 1.2500e+001 74123  2.8512e-001  1.7982e-001 -5.4093e-001 56152 74146,74002,73924
 1.2500e+001 74100  4.7544e-001  1.2974e-001 -3.9816e-001 56152 74146,73924,73898
 1.2500e+001 74077  1.1957e+000  6.6737e-001 -7.8196e-001 56152 73924,74002,73976
 1.2500e+001 74054  5.5247e-001 -7.9006e-001  4.5421e-001 56152 73924,73976,73950
 1.2500e+001 74172  1.3921e-001  4.5903e-001 -4.3558e-001 56152 74028,74002,74146
 1.2500e+001 74195  4.0350e-001  3.0363e-001 -2.8733e-001 56152 74028,74146,73898
 1.2500e+001 74345  1.3541e+000 -3.4926e-001 -6.8218e-001 55634 74218,74270,74244
 1.2500e+001 74322 -1.4451e-001 -3.7447e-001 -2.9128e-001 55634 74218,74296,74270
 1.2500e+001 74823 -1.5174e-001 -2.6802e+000  4.4478e-001 55016 74918,74846,74581
 1.2500e+001 74800 -4.6660e-001 -2.8210e+000  1.5714e-001 55016 74846,74477,74633
 1.2500e+001 74777 -7.5937e-001 -3.1633e+000  6.5669e-001 55016 74918,74581,74555
 1.2500e+001 74754 -7.9121e-001 -2.4349e+000  2.5061e-001 55016 74990,74503,74477
 1.2500e+001 74731 -4.0986e-001 -3.2638e+000 -5.5721e-001 55016 74451,74633,74477
 1.2500e+001 74708 -1.3602e+000 -2.3071e+000 -8.6665e-001 55016 74451,74659,74633
 1.2500e+001 74685 -1.5252e+000 -1.3682e+000  1.3121e+000 55016 74503,74555,74529
 1.2500e+001 74872 -4.6123e-001 -3.4492e+000  3.9358e-001 55016 74607,74581,74846
 1.2500e+001 74895 -2.9604e-001 -3.0277e+000  2.3374e-001 55016 74607,74846,74633
 1.2500e+001 74944 -9.5609e-001 -3.0943e+000  2.8972e-001 55016 74477,74846,74918
 1.2500e+001 74967 -7.7646e-001 -2.5422e+000  3.2956e-001 55016 74990,74477,74918
 1.2500e+001 75016 -8.4448e-001 -2.4355e+000  5.8206e-001 55016 74555,74503,74990
 1.2500e+001 75039 -9.3055e-001 -2.7627e+000  6.5368e-001 55016 74555,74990,74918
 1.2500e+001 75287 -9.0093e-001 -6.3062e+000  9.4908e-001 54726 75310,75140,75114
 1.2500e+001 75264 -1.4098e+000 -5.3392e+000  6.5041e-001 54726 75310,75114,75088
 1.2500e+001 75241  1.4731e-001 -4.3139e+000  1.5816e-001 54726 75088,75192,75166
 1.2500e+001 75218 -7.8339e-001 -9.7248e-001  8.7339e-001 54726 75062,75192,75088
 1.2500e+001 75336 -1.8361e-001 -5.7094e+000  4.3632e-001 54726 75166,75140,75310
 1.2500e+001 75359 -1.2055e+000 -4.8510e+000  3.5963e-001 54726 75166,75310,75088
 1.2500e+001 75946 -1.2369e-001 -4.9328e-001 -1.6315e-001 54322 75969,75701,75649
 1.2500e+001 75923  1.3575e-001 -3.6662e-001 -2.0992e-001 54322 75969,75649,75623
 1.2500e+001 75900 -2.2300e-002 -3.5971e-001 -2.1914e-002 54322 76041,75753,75701
 1.2500e+001 75877 -7.3497e-002 -7.9155e-001 -3.0867e-002 54322 75623,75805,75779
 1.2500e+001 75854 -5.7758e-002 -4.5516e-001  1.8284e-001 54322 75701,75753,75727
 1.2500e+001 75831 -6.6162e-003 -1.5919e-001 -6.3299e-002 54322 75649,75701,75675
 1.2500e+001 75995  6.6418e-002 -4.0832e-001 -9.5609e-002 54322 76041,75701,75969
 1.2500e+001 76018  7.9826e-002 -5.2745e-001 -1.0871e-001 54322 75779,75969,75623
 1.2500e+001 76067 -7.7749e-002 -4.8877e-001  1.0799e-002 54322 75779,75753,76041
 1.2500e+001 76090 -1.4216e-002 -5.8184e-001 -6.2432e-002 54322 75779,76041,75969
 1.2500e+001 76468 -1.5070e-002 -5.2516e-001 -6.7500e-002 53868 76491,76272,76220
 1.2500e+001 76445  7.7203e-002 -5.4100e-001 -2.0574e-002 53868 76491,76220,76324
 1.2500e+001 76422 -2.0577e-002 -7.3908e-001 -8.8697e-002 53868 76220,76272,76246
 1.2500e+001 76399  1.2405e-001 -5.7458e-001 -3.7554e-002 53868 76194,76324,76220
 1.2500e+001 76376  5.5491e-001 -4.0200e-001  7.7669e-002 53868 76194,76350,76324
 1.2500e+001 76517  3.6362e-002 -4.8766e-001 -1.4389e-002 53868 76298,76272,76491
 1.2500e+001 76540  1.2880e-001 -5.1500e-001  2.8297e-002 53868 76298,76491,76324
 1.2500e+001 76690  1.4941e-002 -7.0344e-001  7.2638e-002 53356 76589,76641,76615
 1.2500e+001 76667 -1.9357e-001 -8.8237e-001 -1.7745e-002 53356 76563,76641,76589
 1.2500e+001 76938  1.6578e-001  3.4575e-001  8.9581e-002 53009 77105,76961,76765
 1.2500e+001 76915 -7.3617e-002 -1.5253e+000 -5.8780e-001 53009 76961,76713,76843
 1.2500e+001 76892 -2.4962e-001 -7.2046e-001  7.6531e-002 53009 77033,76817,76791
 1.2500e+001 76869  4.9958e-001  1.6914e+000 -1.2671e-001 53009 77105,76765,76739
 1.2500e+001 76987 -2.6790e-001 -6.7576e-001 -1.7311e-001 53009 76791,76765,76961
 1.2500e+001 77010 -2.0674e-001 -4.3263e-001 -2.0381e-001 53009 77033,76791,76961
 1.2500e+001 77059  2.0464e-001 -4.6845e-001 -1.7903e-001 53009 76843,76817,77033
 1.2500e+001 77082  1.5758e-001 -3.4788e-001 -4.4075e-001 53009 76843,77033,76961
 1.2500e+001 77131  8.1466e-001 -2.6036e-002 -1.0052e+000 53009 76713,76961,77105
 1.2500e+001 77154  9.9279e-001  4.8067e-001 -1.2377e+000 53009 76713,77105,76739
 1.2500e+001 77355  5.5472e-001 -4.0825e+000  4.6875e-001 52390 77378,77257,77231
 1.2500e+001 77332  6.9614e-001 -5.2652e+000  6.5367e-001 52390 77378,77231,77179
 1.2500e+001 77309  1.4002e+000 -3.8765e+000  3.9622e-001 52390 77179,77231,77205
 1.2500e+001 77404  8.3933e-001 -5.0326e+000  1.0616e+000 52390 77283,77257,77378
 1.2500e+001 77427  7.5419e-001 -6.6160e+000  1.1530e+000 52390 77283,77378,77179
 1.2500e+001 77677 -1.1741e+000  1.2498e+000 -1.4868e+000 51986 77700,77504,77478
 1.2500e+001 77654 -2.5167e-001  1.1953e+000 -1.3086e+000 51986 77700,77478,77452
 1.2500e+001 77631  3.7862e-001  1.1742e+000 -1.3898e+000 51986 77772,77556,77530
 1.2500e+001 77608  3.4528e+000  2.1534e+000 -2.2486e+000 51986 77452,77582,77556
 1.2500e+001 77726 -3.9535e-001  1.6007e+000 -9.6585e-001 51986 77530,77504,77700
 1.2500e+001 77749  3.3631e-001  1.1521e+000 -1.1168e+000 51986 77772,77530,77700
 1.2500e+001 77798  6.3128e-002  1.0192e+000 -1.2996e+000 51986 77452,77556,77772
 1.2500e+001 77821 -1.0372e-001  1.0081e+000 -1.0656e+000 51986 77452,77772,77700
 1.2500e+001 78282 -1.0257e+000 -3.3324e+000  1.0752e-001 51738 78008,78138,78060
 1.2500e+001 78259 -1.2611e+000 -4.1264e+000  2.0295e+000 51738 78008,78164,78138
 1.2500e+001 78236 -6.7534e-001 -1.9484e+000  7.8993e-001 51738 78086,78138,78112
 1.2500e+001 78213 -6.6018e-001 -1.6480e+000  6.8728e-001 51738 78060,78138,78086
 1.2500e+001 78190  1.6496e-001 -4.4445e+000 -6.0713e-001 51738 78008,78060,78034
 1.2500e+001 78432  2.4551e-001 -4.3744e-001  2.4291e-002 51148 78305,78357,78331
 1.2500e+001 78409  1.5828e-001 -3.0701e-001  2.9810e-002 51148 78305,78383,78357
 1.2500e+001 78891 -1.1122e-001 -5.9654e-001 -6.4232e-002 50808 78914,78695,78669
 1.2500e+001 78868 -4.0200e-002 -4.1598e-001 -3.1869e-002 50808 78914,78669,78643
 1.2500e+001 78845 -6.0537e-002 -5.4408e-001 -3.0140e-001 50808 78643,78773,78747
 1.2500e+001 78822 -4.8888e-002 -5.8687e-001 -2.9458e-001 50808 78617,78773,78643
 1.2500e+001 78799 -2.9305e-001 -6.1108e-001 -1.1973e-001 50808 78695,78747,78721
 1.2500e+001 78940 -1.9753e-001 -4.7684e-001 -1.8850e-001 50808 78747,78695,78914
 1.2500e+001 78963 -1.2026e-001 -3.7345e-001 -1.5248e-001 50808 78747,78914,78643
 1.2500e+001 79260  9.4023e-002 -5.9579e-001 -2.9956e-002 50468 79283,79090,79012
 1.2500e+001 79237  2.7327e-001 -5.5301e-001  2.4572e-002 50468 79283,79012,78986
 1.2500e+001 79214 -9.6904e-002 -6.7974e-001 -5.5100e-002 50468 79012,79090,79038
 1.2500e+001 79191  1.3389e-001 -4.8032e-001  1.1893e-001 50468 78986,79142,79116
 1.2500e+001 79168  7.0421e-003 -6.7826e-001 -9.5032e-002 50468 79038,79090,79064
 1.2500e+001 79309 -1.0532e-001 -5.3468e-001 -5.3564e-002 50468 79116,79090,79283
 1.2500e+001 79332  1.2145e-001 -4.4388e-001  1.8582e-002 50468 79116,79283,78986
 1.2500e+001 79889  7.8527e-001  1.0942e+000 -4.9231e-001 50064 79569,79725,79699
 1.2500e+001 79866  9.1520e-001  1.1231e+000 -3.9655e-001 50064 79543,79725,79569
 1.2500e+001 79843  8.2428e-001  6.8910e-001 -5.4181e-001 50064 79621,79699,79673
 1.2500e+001 79820  1.0655e+000  1.2289e+000 -8.4675e-001 50064 79595,79699,79621
 1.2500e+001 79797  1.5994e+000  1.3229e+000 -6.3858e-001 50064 79569,79699,79595
 1.2500e+001 79774  3.9827e-001  1.1536e+000 -2.1235e-001 50064 79517,79725,79543
 1.2500e+001 79751  4.8581e-001  6.9569e-001 -5.7800e-001 50064 79621,79673,79647
 1.2500e+001 80169  1.0320e+000  1.5240e+000 -6.7652e-001 49724 80019,80097,80071
 1.2500e+001 80146  9.5119e-001  1.8848e+000 -7.6459e-001 49724 79993,80097,80019
 1.2500e+001 80123  6.9702e-001  1.4337e+000 -8.0345e-001 49724 80019,80071,80045
 1.2500e+001 80626  1.0148e-001  2.9813e-001  2.3623e-001 49277 80352,80482,80378
 1.2500e+001 80603 -2.4243e-001  1.9643e-001 -2.8065e-002 49277 80352,80508,80482
 1.2500e+001 80580 -1.4671e-001 -4.3447e-001  5.1384e-002 49277 80378,80482,80456
 1.2500e+001 80557 -1.3778e-001 -7.6631e-001  3.5412e-001 49277 80378,80430,80404
 1.2500e+001 80534 -3.4113e-002 -3.4051e-001  2.6163e-001 49277 80378,80456,80430
 1.2500e+001 81230  5.8255e-001 -5.1940e-001  1.9975e-001 48716 81253,80835,80809
 1.2500e+001 81207  5.7121e-001 -3.8413e-001  4.7915e-001 48716 81397,81253,80809
 1.2500e+001 81184  7.8498e-003  2.6830e-001 -8.7050e-002 48716 81325,80913,80887
 1.2500e+001 81161 -1.1104e-001 -4.9116e-001  6.4359e-001 48716 81397,80809,81017
 1.2500e+001 81138 -2.3596e-001  3.8953e-001 -1.5045e-001 48716 81469,80965,80913
 1.2500e+001 81115 -1.8582e-001 -8.7535e-001  2.4928e-001 48716 80835,80887,80861
 1.2500e+001 81092  9.8417e-001 -4.3703e-001  1.2577e+000 48716 80809,81043,81017
 1.2500e+001 81069  5.9217e-002  9.6287e-002 -4.0377e-001 48716 80913,80965,80939
 1.2500e+001 81279  3.3046e-001 -3.9434e-001 -3.0913e-002 48716 80887,80835,81253
 1.2500e+001 81302  2.3089e-002  2.6695e-001 -1.0900e-001 48716 81325,80887,81253
 1.2500e+001 81351  4.7574e-002  3.2964e-001 -4.0619e-002 48716 81469,80913,81325
 1.2500e+001 81374 -7.3804e-002  5.1578e-001  6.2132e-002 48716 80991,81325,81253
 1.2500e+001 81423 -4.4753e-001  5.3928e-002  5.7871e-001 48716 80991,81253,81397
 1.2500e+001 81446 -1.2312e+000 -1.7695e-001  8.1096e-001 48716 80991,81397,81017
 1.2500e+001 81495 -6.9484e-001  3.8188e-001 -1.4613e-001 48716 80991,80965,81469
 1.2500e+001 81518 -4.6901e-001  2.7661e-001 -3.9809e-002 48716 80991,81469,81325
 1.2500e+001 81717 -2.3726e-002 -6.0359e-001  7.7442e-002 48262 81740,81567,81541
 1.2500e+001 81694 -1.6180e-001 -6.0478e-001  2.0579e-002 48262 81740,81541,81645
 1.2500e+001 81671 -1.0867e-001 -6.5839e-001 -2.0206e-002 48262 81567,81619,81593
 1.2500e+001 81766 -1.1057e-001 -6.1293e-001 -3.2091e-003 48262 81619,81567,81740
 1.2500e+001 81789 -2.6067e-001 -6.4582e-001 -7.0028e-002 48262 81619,81740,81645
 1.2500e+001 81939  9.4208e-001  1.1183e+000 -5.0523e-001 47957 82034,81962,81864
 1.2500e+001 81916  7.1368e-001  8.0317e-001 -1.5598e-001 47957 82166,81962,81838
 1.2500e+001 81988 -4.9532e-001  1.0028e+000 -5.2517e-001 47957 82294,81962,81890
 1.2500e+001 82011  6.4151e-001  1.6437e+000  2.9496e-001 47957 81890,81962,81812
 1.2500e+001 82060  8.5287e-001  1.6762e+000 -1.5193e-004 47957 81838,81962,82034
 1.2500e+001 82192  8.9516e-001  9.2530e-001  3.0970e-001 47957 81812,81962,82166
 1.2500e+001 82320  2.6764e-003  1.0422e+000 -6.4094e-001 47957 81864,81962,82294
 1.2500e+001 82549  4.6534e-002 -6.7887e-001 -1.7580e-001 47617 82448,82500,82474
 1.2500e+001 82526  3.4977e-001 -8.6049e-001  4.8880e-003 47617 82422,82500,82448
 1.2500e+001 82902 -4.6403e-001 -1.1444e+000  1.5524e-001 47255 82729,82807,82755
 1.2500e+001 82879 -1.2483e-001 -2.0857e+000  4.7399e-001 47255 82703,82807,82729
 1.2500e+001 82856 -9.6471e-001 -1.3315e+000  6.6286e-001 47255 82755,82807,82781
 1.2500e+001 82833  1.1064e+000 -1.5582e+000  5.9792e-001 47255 82677,82807,82703
 1.2500e+001 83182  3.3546e-001 -9.6951e-001  1.9727e-001 46680 83032,83084,83058
 1.2500e+001 83159  4.6645e-001 -3.9250e-001  1.9407e-001 46680 83205,83084,83032
 1.2500e+001 83136  7.2166e-001 -1.5771e-001 -2.3320e-002 46680 83006,83110,83084
 1.2500e+001 83231  2.7674e-001 -5.0295e-001  1.4898e-001 46680 83006,83084,83205
 1.2500e+001 83737 -7.7519e-001 -3.4986e-001  3.5146e-002 46290 83832,83760,83492
 1.2500e+001 83714 -6.2331e-001 -4.4032e-002 -1.0447e-001 46290 83760,83440,83414
 1.2500e+001 83691 -4.9436e-001 -5.2700e-001 -1.5940e-002 46290 83832,83492,83466
 1.2500e+001 83668 -6.5420e-001 -1.1003e+000  2.1524e-001 46290 83492,83570,83544
 1.2500e+001 83645 -5.9229e-001 -2.3905e-001 -2.6814e-001 46290 83414,83596,83570
 1.2500e+001 83622 -7.8227e-001 -8.5226e-001  4.2273e-001 46290 83492,83544,83518
 1.2500e+001 83786 -7.8948e-001 -3.3552e-001  5.5898e-002 46290 83570,83492,83760
 1.2500e+001 83809 -7.5220e-001 -4.6990e-001 -1.4037e-001 46290 83570,83760,83414
 1.2500e+001 83858 -4.1481e-001 -1.5005e-001  1.3325e-001 46290 83440,83760,83832
 1.2500e+001 83881  8.7781e-002 -2.7627e-001  2.0599e-002 46290 83440,83832,83466
 1.2500e+001 84161 -1.8987e-001 -8.7074e-001  3.7544e-001 45829 84011,84063,84037
 1.2500e+001 84138  3.2449e-002 -5.2297e-001  1.1970e-001 45829 84011,84089,84063
 1.2500e+001 84115  5.8937e-003 -5.3213e-001  1.6316e-001 45829 83985,84089,84011
 1.2500e+001 84311  2.0223e-001 -8.2021e-002  1.0257e-001 45631 84184,84236,84210
 1.2500e+001 84288 -1.4440e-001 -1.0844e+000  1.9891e-002 45631 84184,84262,84236
 1.2500e+001 84657 -5.1969e-002 -5.3867e-001 -1.5138e-002 45155 84680,84490,84412
 1.2500e+001 84634 -1.2586e-001 -4.8994e-001  1.9047e-003 45155 84680,84412,84360
 1.2500e+001 84611 -1.0268e-001 -5.7083e-001  1.5997e-002 45155 84412,84490,84438
 1.2500e+001 84588  6.2099e-002 -3.7800e-001 -3.3748e-002 45155 84334,84516,84360
 1.2500e+001 84565 -1.6500e-001 -5.7118e-001 -1.1883e-001 45155 84360,84412,84386
 1.2500e+001 84542 -7.6866e-002 -4.5608e-001  8.1687e-002 45155 84438,84490,84464
 1.2500e+001 84706 -2.1161e-002 -4.9862e-001 -2.9544e-002 45155 84516,84490,84680
 1.2500e+001 84729 -7.6877e-002 -4.3505e-001 -2.0306e-002 45155 84516,84680,84360
 1.2500e+001 85077  1.9543e-001 -2.3840e-001  6.7312e-002 44508 85100,84754,84910
 1.2500e+001 85054  2.0294e-001  1.0415e-001  1.2339e-001 44508 84754,84936,84910
 1.2500e+001 85031  5.2955e-002 -3.8522e-001  2.0836e-001 44508 85100,84910,84884
 1.2500e+001 85008 -1.6090e-001 -4.7424e-001  1.2656e-001 44508 84780,84884,84832
 1.2500e+001 84985  9.5136e-002 -1.2930e-002 -1.0071e-001 44508 84780,84832,84806
 1.2500e+001 84962  7.0109e-001  1.5174e-001 -1.5131e-001 44508 84832,84884,84858
 1.2500e+001 85126  7.8739e-002 -1.4315e-002 -4.2343e-002 44508 84780,84754,85100
 1.2500e+001 85149 -2.8551e-002 -1.6244e-001  8.6505e-002 44508 84780,85100,84884
 1.2500e+001 85482 -4.2282e-001 -7.2870e-001  4.9376e-003 44104 85335,85387,85361
 1.2500e+001 85459 -3.6977e-001 -1.0907e+000  4.9324e-002 44104 85309,85387,85335
 1.2500e+001 85436 -1.6891e-001 -8.8173e-001  1.8547e-001 44104 85257,85387,85309
 1.2500e+001 85413 -2.9166e-001 -1.4855e+000  1.1279e-001 44104 85257,85309,85283
 1.2500e+001 85811 -7.3772e-002 -3.8128e-001 -2.5899e-002 43600 85586,85664,85612
 1.2500e+001 85788 -1.6108e-001 -4.8674e-001  2.5810e-002 43600 85586,85690,85664
 1.2500e+001 85765  7.8452e-002 -3.8307e-001 -1.5313e-002 43600 85586,85716,85690
 1.2500e+001 85742 -7.1996e-003 -3.6256e-001 -1.3337e-002 43600 85612,85664,85638
 1.2500e+001 86010  9.3899e-003 -4.4917e-001 -6.6878e-002 43224 85886,85938,85912
 1.2500e+001 85987  1.1559e-001 -7.8954e-002 -1.0545e-001 43224 85834,85938,85886
 1.2500e+001 85964 -2.4648e-001 -4.8717e-001  4.9637e-002 43224 85834,85886,85860
 1.2500e+001 86420  1.8462e+000  9.0577e-001 -2.8542e-001 42820 86195,86299,86221
 1.2500e+001 86397  1.3596e+000  8.0832e-001 -9.5131e-001 42820 86195,86325,86299
 1.2500e+001 86374  1.1965e+000  1.1405e+000  1.6892e-002 42820 86221,86299,86273
 1.2500e+001 86351  1.0709e+000  6.2189e-001  1.2591e-001 42820 86221,86273,86247
 1.2500e+001 86749  3.7722e-001 -3.4992e-001 -1.2169e-001 42223 86550,86602,86576
 1.2500e+001 86726  1.0925e+000 -6.7571e-001  2.8588e-002 42223 86550,86628,86602
 1.2500e+001 86703  3.8816e-002 -1.0412e+000  3.2269e-001 42223 86524,86628,86550
 1.2500e+001 86680  6.3371e-001 -9.0971e-002  5.6080e-002 42223 86524,86654,86628
 1.2500e+001 87078  5.8143e-001 -3.3731e-001  2.4840e-001 41883 87173,87101,86905
 1.2500e+001 87055  4.3546e-001  3.0577e-001 -1.6966e-003 41883 87101,86879,86853
 1.2500e+001 87032  6.0842e-002 -7.6004e-002  3.1693e-002 41883 86853,86983,86931
 1.2500e+001 87009 -3.6625e-002 -5.1564e-001  1.7697e-001 41883 86931,86983,86957
 1.2500e+001 87127  7.0477e-001 -1.9910e-001  2.1210e-002 41883 86931,86905,87101
 1.2500e+001 87150  1.6248e-001 -3.3032e-001 -1.3358e-002 41883 86931,87101,86853
 1.2500e+001 87199  1.0434e-001 -2.9963e-001  2.2526e-001 41883 86879,87101,87173
 1.2500e+001 87558  6.9980e-003  4.7863e-001 -3.6250e-002 41471 87382,87460,87408
 1.2500e+001 87535 -7.3978e-001 -7.7532e-002 -2.8515e-001 41471 87382,87486,87460
 1.2500e+001 87512 -1.9488e-001  2.8901e-001 -1.2682e-001 41471 87408,87460,87434
 1.2500e+001 87806  1.4624e-001 -3.3352e-001  7.3453e-002 41017 87829,87607,87581
 1.2500e+001 87783  1.0484e-001 -4.5143e-001  9.7318e-002 41017 87829,87581,87685
 1.2500e+001 87760  2.9595e-001 -1.9883e-001  1.1232e-002 41017 87581,87711,87685
 1.2500e+001 87737  3.2677e-001 -8.4865e-001  3.6654e-002 41017 87633,87685,87659
 1.2500e+001 87855  1.4622e-001 -3.7184e-001  1.6329e-001 41017 87633,87607,87829
 1.2500e+001 87878  9.7554e-002 -4.9585e-001  1.8936e-001 41017 87633,87829,87685
 1.2500e+001 88258 -7.9140e-003 -1.3528e-002 -1.4964e-003 40613 88281,88036,88010
 1.2500e+001 88235 -4.6946e-003 -1.5737e-002 -2.7599e-003 40613 88281,88010,88088
 1.2500e+001 88212 -5.2630e-003 -1.8136e-002 -1.1273e-003 40613 87984,88088,88010
 1.2500e+001 88189  3.0525e-004 -2.8515e-003 -8.4754e-003 40613 87984,88114,88088
 1.2500e+001 88166  6.2019e-005 -1.8869e-002 -3.3346e-003 40613 87984,88140,88114
 1.2500e+001 88307 -7.2305e-003 -9.6633e-003  1.4268e-003 40613 88062,88036,88281
 1.2500e+001 88330 -5.0420e-003 -1.4495e-002  8.7348e-004 40613 88062,88281,88088
 1.2500e+001 88649 -3.4806e-002 -3.3053e-002  1.1436e-002 40095 88375,88505,88401
 1.2500e+001 88626 -1.9486e-002 -1.0946e-002  9.3563e-004 40095 88375,88531,88505
 1.2500e+001 88603  1.2120e-002 -5.4666e-002 -3.9338e-003 40095 88401,88505,88479
 1.2500e+001 88580  7.8251e-002 -6.5290e-002  7.7013e-002 40095 88427,88479,88453
 1.2500e+001 88557  5.0921e-003 -1.5023e-001  7.7210e-003 40095 88401,88479,88427
 1.2500e+001 89078  1.0640e+000 -1.5727e-001 -8.5374e-002 39897 89101,88833,88807
 1.2500e+001 89055  6.4495e-001 -6.2625e-001 -3.1838e-001 39897 89101,88807,88911
 1.2500e+001 89032  7.6221e-001 -7.4812e-002 -3.2147e-001 39897 88781,88911,88807
 1.2500e+001 89009 -9.2169e-002 -7.4643e-001 -8.0308e-001 39897 88781,88937,88911
 1.2500e+001 88986  2.0667e+000  3.1355e-001 -3.6191e-001 39897 88833,88885,88859
 1.2500e+001 88963  5.9965e-001 -1.5853e-001 -4.6165e-001 39897 88755,88937,88781
 1.2500e+001 89127  1.4993e+000 -7.2850e-001 -5.9165e-001 39897 88885,88833,89101
 1.2500e+001 89150  7.2324e-001 -1.4566e+000 -9.1808e-001 39897 88885,89101,88911
 1.2500e+001 89300 -7.7374e-001 -1.0498e+000  1.6505e-001 39607 89453,89323,89199
 1.2500e+001 89277 -1.2170e+000 -9.0537e-001  6.3660e-002 39607 89525,89453,89199
 1.2500e+001 89349 -7.4962e-001 -1.0658e+000 -7.0160e-002 39607 89225,89199,89323
 1.2500e+001 89479 -8.6599e-001 -6.8907e-001  1.7694e-001 39607 89251,89323,89453
 1.2500e+001 89502 -4.9518e-001 -3.1991e-001  4.4912e-001 39607 89251,89453,89173
 1.2500e+001 89551 -1.9815e-001 -5.3849e-001  5.7324e-002 39607 89173,89453,89525
 1.2500e+001 90264 -6.7428e-001 -1.7928e+000 -1.2035e-001 39039 89996,90074,90048
 1.2500e+001 90241 -4.0793e-001 -8.2842e-001 -9.8444e-002 39039 89918,90074,89996
 1.2500e+001 90218 -5.7000e-001 -1.0053e+000 -2.2349e-002 39039 89918,89996,89944
 1.2500e+001 90195 -4.4925e-001 -8.3084e-001 -7.6306e-002 39039 89892,90074,89918
 1.2500e+001 90172  8.1815e-002 -1.8170e+000 -2.1109e-001 39039 89996,90048,90022
 1.2500e+001 90149 -1.0765e+000  2.4318e-001 -8.6609e-002 39039 89892,90100,90074
 1.2500e+001 90126 -8.8855e-001 -1.1472e+000  8.0782e-002 39039 89944,89996,89970
 1.2500e+001 90770 -8.2956e-002 -4.5357e-001  2.0153e-002 38635 90473,90603,90577
 1.2500e+001 90747  2.7148e-002 -3.8708e-001 -2.6312e-002 38635 90447,90603,90473
 1.2500e+001 90724  1.6855e-002 -4.6084e-001 -5.7636e-002 38635 90499,90577,90551
 1.2500e+001 90701 -1.4199e-001 -5.8808e-001  5.0707e-002 38635 90473,90577,90499
 1.2500e+001 90678 -6.3921e-002 -6.6879e-001 -1.1365e-002 38635 90499,90551,90525
 1.2500e+001 90655 -1.8038e-001 -4.5044e-001  5.2626e-002 38635 90447,90629,90603
 1.2500e+001 90871  9.1605e-003 -4.0891e-001 -9.6333e-002 38231 90793,90845,90819
 1.2500e+001 91458 -2.7850e-002 -2.5069e-001 -5.8167e-003 37534 91161,91317,91291
 1.2500e+001 91435 -2.1269e-001 -1.7256e-001  6.6774e-002 37534 91135,91317,91161
 1.2500e+001 91412 -3.4122e-001 -1.1665e+000 -2.2733e-001 37534 91187,91291,91239
 1.2500e+001 91389 -1.1141e-001 -1.1563e+000  1.3354e-001 37534 91161,91291,91187
 1.2500e+001 91366 -8.9841e-002 -8.8799e-001 -1.1608e-001 37534 91239,91291,91265
 1.2500e+001 91343  3.9356e-001 -1.2666e+000 -5.4243e-001 37534 91187,91239,91213
 1.2500e+001 91915 -2.9231e-001 -9.0221e-001  1.4933e-001 37080 91938,91745,91667
 1.2500e+001 91892  2.2744e-002 -8.5351e-001  4.4468e-002 37080 91938,91667,91797
 1.2500e+001 91869  2.4114e-001 -3.5688e-001  1.1221e-001 37080 91641,91797,91667
 1.2500e+001 91846 -2.6345e-001 -9.9907e-001  2.6279e-002 37080 91667,91719,91693
 1.2500e+001 91823 -1.6705e-001 -7.4822e-001  8.3715e-002 37080 91667,91745,91719
 1.2500e+001 91964 -4.5313e-001 -1.0394e+000  4.2624e-001 37080 91771,91745,91938
 1.2500e+001 91987 -1.3812e-001 -8.7463e-001  2.8393e-001 37080 91771,91938,91797
 1.2500e+001 92235 -1.3758e-001 -4.2409e-001 -2.4793e-002 36397 92036,92088,92062
 1.2500e+001 92212 -7.7773e-002 -4.1275e-001 -4.8107e-002 36397 92036,92114,92088
 1.2500e+001 92189  2.2407e-002 -3.3200e-001  1.3874e-002 36397 92036,92140,92114
 1.2500e+001 92166  4.5987e-002 -4.6546e-001 -1.7427e-002 36397 92010,92140,92036
 1.2500e+001 92694  1.4187e-001  5.4359e-003 -2.7164e-002 36057 92446,92498,92472
 1.2500e+001 92671  1.8372e-001 -1.9530e-002  6.8151e-002 36057 92446,92550,92498
 1.2500e+001 92648 -5.4064e-002 -4.1144e-001  1.8071e-001 36057 92446,92576,92550
 1.2500e+001 92625  1.4803e-001 -1.1917e-002 -3.0643e-001 36057 92420,92576,92446
 1.2500e+001 92602  2.7782e-002  1.1487e-002  1.6531e-001 36057 92498,92550,92524
 1.2500e+001 93023 -1.2935e-001 -3.7941e-001 -3.3227e-002 35717 92876,92928,92902
 1.2500e+001 93000 -1.0078e-001 -4.2160e-001 -4.9849e-002 35717 92824,92928,92876
 1.2500e+001 92977  2.2205e-002 -4.1268e-001 -1.7581e-002 35717 92798,92928,92824
 1.2500e+001 92954 -1.5478e-001 -5.8013e-001 -9.2608e-002 35717 92824,92876,92850
 1.2500e+001 93499  3.3732e-001 -4.9897e-001  2.3936e-001 35405 93522,93309,93257
 1.2500e+001 93476  3.6636e-001 -4.4140e-001  2.2639e-001 35405 93666,93522,93257
 1.2500e+001 93453  3.6612e-001 -1.2139e+000  2.6046e-001 35405 93594,93127,93335
 1.2500e+001 93430  2.6366e-001 -4.6272e-001  2.1325e-001 35405 93666,93257,93231
 1.2500e+001 93407  5.4706e-002 -1.5304e+000  6.8320e-002 35405 93127,93179,93153
 1.2500e+001 93384 -4.5107e-001 -4.2298e-001  4.9371e-001 35405 93179,93231,93205
 1.2500e+001 93361  4.1924e-001  2.6527e-001  2.6658e-003 35405 93257,93309,93283
 1.2500e+001 93548  5.5435e-001 -3.2830e-001  4.5080e-001 35405 93335,93309,93522
 1.2500e+001 93571  3.7369e-001 -6.9883e-001  3.3503e-001 35405 93594,93335,93522
 1.2500e+001 93620  4.4646e-001 -6.7302e-001  1.7917e-001 35405 93179,93127,93594
 1.2500e+001 93643  2.4571e-001 -4.4735e-001  1.9171e-001 35405 93738,93594,93522
 1.2500e+001 93692  2.5604e-001 -4.4845e-001  1.8440e-001 35405 93738,93522,93666
 1.2500e+001 93715  2.1256e-001 -4.5358e-001  1.6157e-001 35405 93179,93666,93231
 1.2500e+001 93764  2.4117e-001 -4.5624e-001  1.9688e-001 35405 93179,93594,93738
 1.2500e+001 93787  2.4526e-001 -4.6007e-001  1.9015e-001 35405 93179,93738,93666
 1.2500e+001 94372  8.1546e-001 -1.1549e-001  1.0475e-001 34951 94395,94127,94075
 1.2500e+001 94349  1.0754e+000 -1.6512e-001  2.0646e-001 34951 94395,94075,94231
 1.2500e+001 94326  1.2694e+000 -4.2845e-001 -3.0284e-001 34951 94049,94231,94075
 1.2500e+001 94303  7.0127e-001  3.2118e-001  2.7472e-001 34951 94075,94127,94101
 1.2500e+001 94280  1.6301e+000  7.6745e-001  7.2382e-001 34951 94127,94205,94153
 1.2500e+001 94257  1.2023e+000 -3.7241e-001  7.1986e-001 34951 94153,94205,94179
 1.2500e+001 94421  1.0208e+000 -1.5830e-001  2.5449e-001 34951 94205,94127,94395
 1.2500e+001 94444  1.4880e+000 -7.5127e-002  3.4755e-001 34951 94205,94395,94231
 1.2500e+001 94692  1.3312e-002 -1.0153e-001 -4.1161e-003 34397 94715,94519,94467
 1.2500e+001 94669  1.9937e-002 -1.2031e-001 -1.1554e-002 34397 94715,94467,94597
 1.2500e+001 94646  4.0264e-002 -1.3934e-002  4.8336e-003 34397 94545,94597,94571
 1.2500e+001 94623 -6.1196e-002 -2.7460e-001 -8.9402e-003 34397 94467,94519,94493
 1.2500e+001 94741  3.6896e-002 -4.1404e-002  8.5593e-003 34397 94545,94519,94715
 1.2500e+001 94764  1.3218e-002 -1.0114e-001 -4.2752e-003 34397 94545,94715,94597
 1.2500e+001 94985  1.8209e-002 -3.3917e-001 -5.3667e-003 33985 94835,94913,94887
 1.2500e+001 94962  4.8182e-002 -2.9503e-001  4.3925e-002 33985 94809,94913,94835
 1.2500e+001 94939 -1.1562e-001 -3.9979e-001  2.5200e-002 33985 94835,94887,94861
 1.2500e+001 95186 -5.6102e-002 -6.6182e-001 -1.8888e-001 33645 95281,95209,95036
 1.2500e+001 95163  3.8912e-001 -6.5662e-001  3.0473e-002 33645 95209,95010,95088
 1.2500e+001 95140  3.7153e-001 -3.5734e-001 -5.0322e-003 33645 95010,95114,95088
 1.2500e+001 95235 -2.4259e-001 -8.1970e-001 -3.2931e-001 33645 95062,95036,95209
 1.2500e+001 95258 -1.9043e-001 -8.8549e-001  2.5985e-001 33645 95413,95209,95088
 1.2500e+001 95307  3.1274e-001 -3.4425e-002 -4.1194e-001 33645 95010,95209,95281
 1.2500e+001 95439  1.8751e-001 -4.6728e-001  9.6101e-002 33645 95062,95209,95413
 1.2500e+001 95766 -1.4531e-001 -1.8794e-001 -2.7028e-001 33141 95789,95593,95567
 1.2500e+001 95743  4.3939e-002 -3.1208e-001 -8.8143e-002 33141 95861,95789,95567
 1.2500e+001 95720  3.3641e-002 -2.8468e-001 -3.7822e-002 33141 95861,95567,95671
 1.2500e+001 95697  3.3146e-002 -3.1095e-001 -4.6362e-002 33141 95541,95671,95567
 1.2500e+001 95815  5.9637e-003  1.6656e-001 -2.3075e-001 33141 95619,95593,95789
 1.2500e+001 95838  6.6558e-002 -1.5200e-001 -7.7395e-002 33141 95619,95789,95645
 1.2500e+001 95887  8.1608e-002 -2.2321e-001 -9.0501e-002 33141 95645,95789,95861
 1.2500e+001 95910  7.2389e-002 -1.9543e-001 -3.3187e-002 33141 95645,95861,95671
 1.2500e+001 96060 -1.1729e-001 -3.9378e-001 -1.1410e-001 32487 95959,96011,95985
 1.2500e+001 96037  4.2145e-002 -4.0340e-001 -1.0571e-002 32487 95933,96011,95959
 1.2500e+001 96570 -2.1779e-001 -4.9365e-001  2.6592e-001 32033 96665,96593,96377
 1.2500e+001 96547 -1.7659e-001 -5.0115e-001 -8.9715e-002 32033 96737,96593,96325
 1.2500e+001 96524 -2.8085e-001 -6.3370e-001  1.6823e-001 32033 96665,96377,96351
 1.2500e+001 96501 -2.9099e-001 -7.2668e-001 -5.0379e-002 32033 96737,96325,96299
 1.2500e+001 96478 -3.2540e-001 -2.2546e-001 -3.6329e-002 32033 96247,96429,96299
 1.2500e+001 96455 -7.4195e-001 -1.3436e+000 -1.5707e-003 32033 96247,96299,96273
 1.2500e+001 96619  9.2246e-002 -2.4902e-001  3.3569e-001 32033 96809,96593,96403
 1.2500e+001 96642  3.0315e-001  3.1376e-001 -2.8116e-001 32033 96403,96593,96429
 1.2500e+001 96691  4.0557e-002 -8.3209e-001  8.8946e-002 32033 96325,96593,96665
 1.2500e+001 96714 -1.8096e-001 -1.0924e+000 -4.7153e-002 32033 96325,96665,96351
 1.2500e+001 96763 -3.0826e-001 -4.2349e-001  1.7302e-002 32033 96429,96593,96737
 1.2500e+001 96786 -3.5168e-001 -5.2226e-001  2.5059e-002 32033 96429,96737,96299
 1.2500e+001 96835 -5.0475e-002 -4.2108e-001  2.5604e-001 32033 96377,96593,96809
 1.2500e+001 97064 -3.8457e-002 -1.1259e-001 -3.1201e-002 31671 97087,96989,96963
 1.2500e+001 97041 -8.6414e-002 -1.5415e-001  2.9162e-002 31671 97087,96963,96937
 1.2500e+001 97113  5.1600e-003 -7.6923e-002 -5.8187e-002 31671 97159,97087,97015
 1.2500e+001 97136 -2.4628e-002  1.1817e-002 -1.1777e-005 31671 97015,97087,96937
 1.2500e+001 97185 -4.5755e-002 -1.1853e-001 -3.9262e-002 31671 96989,97087,97159
 1.2500e+001 97563 -2.9066e-003 -1.5902e-001 -1.8231e-002 31117 97586,97367,97341
 1.2500e+001 97540 -1.6452e-002 -1.3167e-001  7.0897e-003 31117 97658,97586,97341
 1.2500e+001 97517 -3.3059e-002 -1.2219e-001  3.7446e-004 31117 97658,97341,97315
 1.2500e+001 97494  1.3252e-001 -2.5122e-002  4.5678e-002 31117 97289,97445,97315
 1.2500e+001 97471 -5.5193e-003 -5.3105e-002 -6.9660e-003 31117 97367,97419,97393
 1.2500e+001 97612 -2.8791e-002 -8.3902e-002 -2.0716e-002 31117 97419,97367,97586
 1.2500e+001 97635  2.2809e-002 -1.0597e-001  3.2506e-002 31117 97419,97586,97445
 1.2500e+001 97684  1.2398e-002 -1.2679e-001  4.4657e-003 31117 97445,97586,97658
 1.2500e+001 97707 -6.5610e-003 -1.1910e-001 -2.4374e-003 31117 97445,97658,97315
 1.2500e+001 98215  9.8837e-002 -1.1362e-001 -1.4935e-001 30563 98238,97996,97944
 1.2500e+001 98192 -1.0269e-001 -1.0784e-001 -1.6402e-001 30563 98310,98238,97944
 1.2500e+001 98169 -2.9720e-001 -2.8352e-001 -3.0748e-001 30563 98310,97944,97918
 1.2500e+001 98146  2.5948e-001 -1.0931e-001 -7.7266e-002 30563 97892,98074,97918
 1.2500e+001 98123  2.1610e-001 -2.3226e-001  1.0562e-001 30563 97996,98048,98022
 1.2500e+001 98100 -2.0059e-001 -2.2269e-001 -1.5884e-001 30563 97944,97996,97970
 1.2500e+001 98264  2.3897e-002 -5.4844e-002 -1.0245e-001 30563 98048,97996,98238
 1.2500e+001 98287  2.1463e-001  2.4290e-001  1.1420e-001 30563 98048,98238,98074
 1.2500e+001 98336  1.1962e-001 -1.2660e-001 -1.5839e-002 30563 98074,98238,98310
 1.2500e+001 98359 -2.6996e-002 -1.4691e-001 -1.2058e-001 30563 98074,98310,97918
 1.2500e+001 98607 -2.1180e-001 -1.2649e-001  1.4942e-002 30073 98630,98460,98408
 1.2500e+001 98584 -3.7201e-001 -2.1541e-001 -3.0795e-002 30073 98630,98408,98382
 1.2500e+001 98561 -5.5099e-002 -2.2123e-001 -2.0969e-002 30073 98382,98512,98486
 1.2500e+001 98538 -8.4783e-002 -1.6889e-001  1.0505e-001 30073 98408,98460,98434
 1.2500e+001 98656 -1.1826e-001 -2.4596e-001 -1.9775e-002 30073 98486,98460,98630
 1.2500e+001 98679 -2.2171e-001 -2.9185e-001 -5.3095e-002 30073 98486,98630,98382
 1.2500e+001 99157  1.0310e+000 -2.6643e-001  2.2033e-001 29669 99180,98837,98811
 1.2500e+001 99134  8.9249e-001 -2.1250e-001  4.0452e-001 29669 99324,99180,98811
 1.2500e+001 99111  7.6471e-001 -1.6716e-002  6.1264e-002 29669 99252,98863,98837
 1.2500e+001 99088  8.6198e-001 -3.4017e-001  4.4363e-001 29669 99324,98811,98993
 1.2500e+001 99065  7.4350e-001  2.5444e-001  1.3669e-001 29669 98863,98941,98915
 1.2500e+001 99042 -4.2386e-001  6.3329e-002  6.9039e-002 29669 98863,98915,98889
 1.2500e+001 99019  3.4380e-001 -5.2504e-001  6.3548e-001 29669 98785,98993,98811
 1.2500e+001 99206  7.9114e-001 -3.6657e-001  1.7591e-001 29669 99252,98837,99180
 1.2500e+001 99229  4.2097e-001 -2.7613e-001  4.8857e-001 29669 98941,99180,98967
 1.2500e+001 99278  6.9613e-001  2.2731e-001  1.1723e-001 29669 98941,98863,99252
 1.2500e+001 99301  8.7549e-001  7.9528e-002  2.6135e-001 29669 98941,99252,99180
 1.2500e+001 99350  8.4373e-001 -5.3886e-002  3.8767e-001 29669 98967,99180,99324
 1.2500e+001 99373  8.4778e-001 -1.5390e-001  4.0695e-001 29669 98967,99324,98993
 1.2500e+001 99958  4.4337e-001  5.9504e-001  2.4780e-001 29051 99981,99765,99739
 1.2500e+001 99935  4.6856e-002 -1.3810e-002  7.6804e-002 29051 99981,99739,99661
 1.2500e+001 99912  1.4539e-001 -1.3216e+000  8.0393e-002 29051 99765,99817,99791
 1.2500e+001 99889  7.3484e-002 -5.4256e-001  6.0019e-002 29051 99635,99817,99661
 1.2500e+001 99866 -3.3890e-001 -5.1803e-002  3.5543e-001 29051 99661,99739,99687
 1.2500e+001 99843 -5.4410e-001  2.8855e-002  2.2976e-001 29051 99687,99739,99713
 1.2500e+001 100007  6.6321e-001  4.2296e-003  3.0685e-001 29051 99817,99765,99981
 1.2500e+001 100030  4.9148e-001 -2.7945e-001  2.3013e-001 29051 99817,99981,99661
 1.2500e+001 100278  3.6078e-001 -3.2700e-001  1.7291e-001 28525 100445,100301,100131
 1.2500e+001 100255  1.7868e-001  3.3288e-002  1.0815e-001 28525 100373,100301,100079
 1.2500e+001 100232  1.6147e-001 -2.9015e-001  1.5676e-001 28525 100373,100079,100053
 1.2500e+001 100209  1.7308e-001 -2.0040e-001  3.8721e-002 28525 100445,100131,100105
 1.2500e+001 100327  4.6872e-001 -2.7903e-001  3.0975e-001 28525 100517,100301,100157
 1.2500e+001 100350  4.4343e-001  4.6600e-001  3.7040e-001 28525 100157,100301,100183
 1.2500e+001 100399  1.5174e-001 -3.0215e-001  2.7262e-001 28525 100183,100301,100373
 1.2500e+001 100422  2.0901e-001 -5.3224e-001  3.1721e-001 28525 100183,100373,100053
 1.2500e+001 100471  1.1132e-001 -3.4928e-001 -1.3406e-001 28525 100079,100301,100445
 1.2500e+001 100494 -4.2540e-001 -4.6802e-001 -2.7755e-001 28525 100079,100445,100105
 1.2500e+001 100543  6.8300e-001  1.5411e-003  3.5455e-002 28525 100131,100301,100517
 1.2500e+001 101209 -5.8775e-001 -1.8477e-001 -5.1535e-002 28185 100938,101016,100990
 1.2500e+001 101186 -7.4909e-001 -6.5167e-002  4.7367e-002 28185 100912,101016,100938
 1.2500e+001 101163 -2.1852e-001  8.0643e-002  1.4372e-001 28185 100912,101068,101016
 1.2500e+001 101140 -6.9504e-001  1.6281e-001  1.1890e-001 28185 100886,101068,100912
 1.2500e+001 101117 -1.9113e-001  3.8189e-001  1.8686e-001 28185 101016,101068,101042
 1.2500e+001 101094 -1.6975e+000 -4.7262e-001 -1.0467e-001 28185 100938,100990,100964
 1.2500e+001 101408  1.6778e-001 -2.1841e-001 -1.1082e-001 27781 101503,101431,101310
 1.2500e+001 101385 -1.1371e-001 -5.1171e-002 -3.5844e-001 27781 101431,101258,101232
 1.2500e+001 101362  1.9724e-001 -2.3395e-001 -1.2639e-001 27781 101503,101310,101284
 1.2500e+001 101457  7.3305e-001  2.2346e-002 -1.6352e-001 27781 101336,101310,101431
 1.2500e+001 101480  1.6606e-001  6.6909e-002 -3.6383e-001 27781 101575,101431,101232
 1.2500e+001 101529  3.3150e-001 -2.0182e-001 -2.9744e-001 27781 101258,101431,101503
 1.2500e+001 101552  2.3400e-001 -2.1124e-001 -1.4665e-001 27781 101705,101503,101284
 1.2500e+001 101601  3.8571e-001  4.3359e-001 -4.5861e-001 27781 101336,101431,101575
 1.2500e+001 101731 -9.2424e-002 -3.7256e-001 -3.1483e-001 27781 101258,101503,101705
 1.2500e+001 102237 -2.0264e-001 -1.8296e-001  3.5970e-002 27419 102476,102260,101992
 1.2500e+001 102214 -7.7719e-002 -3.1132e-001  1.6431e-003 27419 102260,101940,101914
 1.2500e+001 102191 -2.8557e-001 -3.9171e-001  2.6014e-002 27419 102404,102332,102096
 1.2500e+001 102168 -2.4383e-001 -3.9105e-001 -1.8688e-002 27419 102404,102096,102044
 1.2500e+001 102145 -1.7947e-001 -2.0248e-001  5.0681e-002 27419 102476,101992,101966
 1.2500e+001 102122 -1.7607e-001 -4.3224e-001 -1.7526e-002 27419 102044,102096,102070
 1.2500e+001 102286 -2.6988e-001 -2.9324e-001  6.4765e-002 27419 102018,101992,102260
 1.2500e+001 102309 -2.3203e-001 -2.6915e-001  3.3182e-003 27419 102332,102018,102260
 1.2500e+001 102358 -2.6624e-001 -5.4669e-001  1.2844e-001 27419 101914,102096,102332
 1.2500e+001 102381 -1.6791e-001 -4.2163e-001  4.1955e-002 27419 101914,102332,102260
 1.2500e+001 102430 -1.9362e-001 -3.6383e-001  8.4844e-003 27419 102018,102332,102404
 1.2500e+001 102453 -1.6873e-001 -3.6396e-001 -4.0782e-002 27419 102018,102404,102044
 1.2500e+001 102502 -1.1670e-001 -2.8401e-001  5.4562e-002 27419 101940,102260,102476
 1.2500e+001 102525  2.7143e-001 -8.5128e-002 -1.7378e-002 27419 101940,102476,101966
 1.2500e+001 103031 -8.5921e-001 -8.1985e-001  7.5980e-001 26715 102708,102786,102760
 1.2500e+001 103008  4.5278e-002 -5.6946e-001  2.7767e-001 26715 102708,102890,102786
 1.2500e+001 102985  4.9301e-001 -1.2125e+000  3.2410e-001 26715 102838,102890,102864
 1.2500e+001 102962  1.5956e-001 -3.4513e-001  3.1797e-001 26715 102786,102890,102838
 1.2500e+001 102939  1.0297e+000  5.5532e-002  5.5155e-001 26715 102786,102838,102812
 1.2500e+001 102916 -8.5376e-001 -2.6918e-002  1.5193e-001 26715 102708,102760,102734
 1.2500e+001 103279 -1.5594e-002 -2.1125e-002  5.7107e-002 26303 103302,103158,103080
 1.2500e+001 103256 -7.5773e-002  1.8644e-002  5.6866e-002 26303 103302,103080,103054
 1.2500e+001 103233 -1.4860e-001 -8.9662e-002  2.3093e-002 26303 103080,103158,103106
 1.2500e+001 103210  1.8358e-001  1.0699e-003  2.9884e-002 26303 103106,103158,103132
 1.2500e+001 103328  9.2965e-002  1.4867e-002  4.0667e-002 26303 103184,103158,103302
 1.2500e+001 103351 -2.4164e-002  1.1435e-002  4.7549e-002 26303 103184,103302,103054
 1.2500e+001 103501 -6.5331e-002 -3.9649e-001 -1.6675e-002 25849 103374,103426,103400
 1.2500e+001 103478 -1.7020e-001 -3.4974e-001  3.1916e-002 25849 103374,103452,103426
 1.2500e+001 104090  1.0765e-001 -4.9837e-002  1.3764e-001 25445 103793,103871,103819
 1.2500e+001 104067  2.8787e-001  2.0326e-002  6.0380e-002 25445 103793,103949,103871
 1.2500e+001 104044  3.3323e-001 -1.5512e-002  1.5528e-001 25445 103871,103949,103923
 1.2500e+001 104021  7.8493e-003  5.9248e-003 -3.4246e-002 25445 103819,103871,103845
 1.2500e+001 103998  3.8508e-001  1.1262e-001  1.6119e-001 25445 103767,103949,103793
 1.2500e+001 103975  3.6366e-001  4.3396e-002  1.7620e-001 25445 103871,103923,103897
 1.2500e+001 104419 -8.4347e-002 -1.2735e-001 -6.1711e-002 25083 104220,104298,104272
 1.2500e+001 104396 -1.7707e-001 -2.8126e-001 -1.1669e-002 25083 104220,104324,104298
 1.2500e+001 104373 -6.3890e-002 -8.7584e-002 -5.4431e-002 25083 104220,104272,104246
 1.2500e+001 104350 -1.4176e-001 -3.1037e-001 -1.6655e-002 25083 104194,104324,104220
 1.2500e+001 105102  8.3812e-002 -2.0220e-001  6.4754e-002 24793 104785,104863,104837
 1.2500e+001 105079  1.1018e-001 -2.7586e-001 -1.0230e-001 24793 104759,104863,104785
 1.2500e+001 105056  9.3605e-002 -4.1524e-002 -9.9358e-002 24793 104759,104915,104863
 1.2500e+001 105033  1.2891e-001 -1.5985e-001 -1.5325e-001 24793 104733,104915,104759
 1.2500e+001 105010  4.2200e-001  1.1270e-001 -1.7185e-001 24793 104863,104915,104889
 1.2500e+001 104987 -3.9596e-002  1.4190e-002 -2.8324e-001 24793 104681,104915,104733
 1.2500e+001 104964 -3.9157e-003 -2.8917e-001  2.0057e-002 24793 104785,104837,104811
 1.2500e+001 104941 -2.6137e-002  2.4272e-001 -2.3593e-001 24793 104681,104733,104707
 1.2500e+001 105252  1.1215e+000  4.6939e-001  3.1460e-002 24389 105477,105275,105177
 1.2500e+001 105229  3.7776e-001  7.5430e-002  3.0190e-001 24389 105347,105275,105151
 1.2500e+001 105301  1.0979e+000  2.4734e-001  3.5212e-002 24389 105203,105177,105275
 1.2500e+001 105324  1.4253e+000  9.3555e-001  3.7112e-001 24389 105203,105275,105125
 1.2500e+001 105373  1.1407e+000  5.2811e-001  5.7456e-002 24389 105125,105275,105347
 1.2500e+001 105503  7.8585e-001 -1.9416e-001 -8.5633e-002 24389 105151,105275,105477
 1.2500e+001 106088 -2.5758e-001  2.4165e-001  2.9085e-001 23735 105791,105921,105895
 1.2500e+001 106065 -7.5561e-001  1.3011e-001  4.4076e-001 23735 105765,105921,105791
 1.2500e+001 106042 -1.0472e-001  4.9905e-001  2.7542e-001 23735 105765,105947,105921
 1.2500e+001 106019 -9.7426e-001 -3.8633e-002  3.6285e-001 23735 105817,105895,105869
 1.2500e+001 105996 -6.1931e-001  9.2464e-002  3.6558e-001 23735 105791,105895,105817
 1.2500e+001 105973 -5.6607e-001 -3.3231e-001  4.1113e-001 23735 105817,105869,105843
 1.2500e+001 106417  4.1839e-001  7.2899e-001 -8.9800e-002 23295 106218,106296,106270
 1.2500e+001 106394  4.0323e-001  3.4947e-001 -1.2114e-001 23295 106218,106322,106296
 1.2500e+001 106371  1.9253e-001  2.3791e-001 -1.7374e-001 23295 106218,106270,106244
 1.2500e+001 106348  5.2846e-001  4.0298e-001 -4.8141e-002 23295 106192,106322,106218
 1.2500e+001 106746 -3.3277e-001  2.0560e-001  2.8859e-001 23005 106521,106599,106547
 1.2500e+001 106723  2.2914e-001  7.3938e-001  6.9074e-002 23005 106521,106651,106599
 1.2500e+001 106700  3.8112e-001  8.8963e-002 -1.2423e-001 23005 106547,106599,106573
 1.2500e+001 106677  3.0620e-001  6.2052e-001  3.5481e-001 23005 106599,106651,106625
 1.2500e+001 107331 -1.4670e-001  3.3913e-001 -3.4364e-001 22601 107060,107190,107138
 1.2500e+001 107308 -1.2251e+000  1.0997e+000 -6.6363e-001 22601 107034,107190,107060
 1.2500e+001 107285 -2.4127e+000 -6.4209e-001 -4.4269e-001 22601 107060,107138,107112
 1.2500e+001 107262 -1.6156e+000  1.7791e+000  1.0757e+000 22601 107008,107190,107034
 1.2500e+001 107239  1.6835e-001 -3.4474e+000  8.9026e-002 22601 107060,107112,107086
 1.2500e+001 107216 -1.2127e+000  2.9799e+000  6.9594e-001 22601 107138,107190,107164
 1.2500e+001 107807 -1.1873e-001  6.6858e-002 -2.1817e-002 22031 107974,107902,107617
 1.2500e+001 107784 -1.1812e-001  2.0905e-001 -8.3711e-002 22031 107830,107565,107513
 1.2500e+001 107761 -3.2110e-003  2.3220e-002 -1.0732e-001 22031 108046,107830,107513
 1.2500e+001 107738 -6.9587e-002  1.6235e-001  9.5650e-003 22031 107974,107617,107591
 1.2500e+001 107715 -2.2620e-002 -9.0267e-003 -1.2184e-001 22031 108046,107513,107461
 1.2500e+001 107692 -3.4450e-001  2.6063e-001 -1.3176e-001 22031 107513,107565,107539
 1.2500e+001 107669  1.1642e-001  2.0764e-001 -1.8770e-001 22031 107461,107513,107487
 1.2500e+001 107856 -1.8264e-001  1.1829e-001 -4.8507e-002 22031 107902,107565,107830
 1.2500e+001 107879 -4.6601e-002 -9.0949e-002 -8.5671e-003 22031 107643,107830,107435
 1.2500e+001 107928 -3.2075e-001  9.1871e-002 -1.5061e-001 22031 107643,107617,107902
 1.2500e+001 107951 -1.7375e-001  1.0967e-001  2.0603e-002 22031 107643,107902,107830
 1.2500e+001 108000 -1.4482e-001  2.0339e-001 -4.1714e-002 22031 107565,107902,107974
 1.2500e+001 108023 -1.4460e-001  1.8114e-001 -3.7726e-002 22031 107565,107974,107591
 1.2500e+001 108072  4.6206e-002 -1.2587e-002 -5.5440e-002 22031 107435,107830,108046
 1.2500e+001 108095  2.1831e-002 -6.4155e-002 -7.2150e-002 22031 107435,108046,107461
 1.2500e+001 108196  7.0885e-002 -9.2680e-002  1.8972e-002 21783 108118,108170,108144
 1.2500e+001 108655  1.5379e-001  8.8379e-001  5.2007e-001 21379 108407,108485,108459
 1.2500e+001 108632  1.8013e+000  4.0221e-001  5.7512e-001 21379 108407,108511,108485
 1.2500e+001 108609  1.7246e+000  8.6737e-001  1.1459e+000 21379 108381,108511,108407
 1.2500e+001 108586  7.5543e-001  1.7187e+000  8.7246e-003 21379 108381,108537,108511
 1.2500e+001 108563  4.6776e-001  1.2053e-001  2.3691e-001 21379 108407,108459,108433
 1.2500e+001 109082  1.7111e-001 -6.6606e-001 -4.7329e-002 20974 109105,108863,108811
 1.2500e+001 109059 -1.8758e-001 -8.2347e-001 -1.8803e-002 20974 109105,108811,108759
 1.2500e+001 109036  1.0796e-002 -1.8661e+000  2.4932e-001 20974 109177,108889,108863
 1.2500e+001 109013 -1.2917e-001 -6.4748e-001  4.2279e-002 20974 108811,108863,108837
 1.2500e+001 108990  1.6455e-001 -7.3586e-002 -9.7284e-003 20974 108759,108941,108915
 1.2500e+001 108967  8.1519e-002 -4.2004e-002 -6.3944e-003 20974 108759,108811,108785
 1.2500e+001 109131 -1.9032e-001 -1.4496e+000  7.1386e-002 20974 109177,108863,109105
 1.2500e+001 109154  5.7930e-003 -3.9218e-002 -4.7051e-002 20974 108915,109105,108759
 1.2500e+001 109203 -1.1752e-001 -1.5413e+000 -2.7745e-001 20974 108915,108889,109177
 1.2500e+001 109226  3.4636e-002 -4.9467e-001 -3.8383e-001 20974 108915,109177,109105
 1.2500e+001 109496 -2.7249e-001  2.9441e-002 -3.9442e-002 20470 109271,109375,109297
 1.2500e+001 109473 -2.3407e-001  5.5485e-002 -5.0763e-002 20470 109271,109401,109375
 1.2500e+001 109450 -3.2705e-001 -9.9447e-003 -5.7846e-002 20470 109297,109375,109349
 1.2500e+001 109427 -4.8031e-001 -2.9906e-001  9.9478e-002 20470 109297,109349,109323
 1.2500e+001 109955  1.0082e-001  3.7575e-001  2.9207e-001 20123 110050,109733,109707
 1.2500e+001 109932 -1.6358e-001  2.8440e-001  2.6815e-001 20123 110050,109707,109681
 1.2500e+001 109909  1.6205e-001  1.4978e-001  2.2812e-001 20123 109978,109759,109733
 1.2500e+001 109886  7.3891e-002  1.3977e-001  2.2554e-001 20123 110122,109978,109733
 1.2500e+001 109863  1.7058e-001  5.7764e-002  2.1231e-001 20123 109785,109837,109811
 1.2500e+001 110004  1.6610e-001  1.7244e-001  1.9758e-001 20123 109785,109759,109978
 1.2500e+001 110027  1.5700e-001  1.6341e-001  1.8723e-001 20123 109785,109978,109837
 1.2500e+001 110076  1.3411e-002  2.1286e-001  1.8881e-001 20123 110122,109733,110050
 1.2500e+001 110099 -6.9344e-003  3.4471e-001  1.4953e-001 20123 109837,110050,109681
 1.2500e+001 110148  1.8888e-001  2.4124e-001  1.8261e-001 20123 109837,109978,110122
 1.2500e+001 110171  1.3663e-001  3.0812e-001  1.4616e-001 20123 109837,110122,110050
 1.2500e+001 110500  3.5719e-001 -4.3297e-002  2.4894e-002 19511 110301,110379,110353
 1.2500e+001 110477  8.9862e-001  3.8401e-001 -2.0036e-001 19511 110301,110405,110379
 1.2500e+001 110454  3.8442e-001  8.1772e-002  9.4913e-003 19511 110275,110405,110301
 1.2500e+001 110431  3.1924e-001 -1.2702e-001  3.4411e-002 19511 110301,110353,110327
 1.2500e+001 110957  3.1335e-001  1.3628e+000  3.2308e-001 19107 110683,110735,110709
 1.2500e+001 110934  5.8665e-001  9.9158e-001 -2.9223e-002 19107 110683,110813,110735
 1.2500e+001 110911  1.0885e+000  1.2764e+000  2.6502e-001 19107 110735,110813,110761
 1.2500e+001 110888  1.4345e+000  9.4745e-001  6.1746e-001 19107 110683,110839,110813
 1.2500e+001 110865  1.1461e+000  1.1782e+000 -1.0345e-001 19107 110761,110813,110787
 1.2500e+001 111335  9.1888e-001 -1.1008e+000  5.3226e-001 18653 111087,111165,111139
 1.2500e+001 111312  8.1603e-001 -2.9784e-002  2.4243e-001 18653 111087,111217,111165
 1.2500e+001 111289  1.5310e-001 -4.3613e-001  1.0804e+000 18653 111061,111217,111087
 1.2500e+001 111266  1.6190e+000 -1.2956e+000  1.7129e+000 18653 111087,111139,111113
 1.2500e+001 111243  7.0410e-001 -2.9003e-002 -1.2843e-001 18653 111165,111217,111191
 1.2500e+001 111735 -3.6695e-001 -2.9083e-001  1.1849e-001 18213 111461,111513,111487
 1.2500e+001 111712 -1.9962e-001 -2.9366e-001  5.1580e-002 18213 111461,111617,111513
 1.2500e+001 111689 -1.1608e-001 -9.0609e-002  8.3706e-002 18213 111513,111617,111591
 1.2500e+001 111666 -2.2552e-002 -1.5453e-001  1.0419e-001 18213 111513,111591,111539
 1.2500e+001 111643  1.3466e-001 -3.8572e-002  4.4610e-002 18213 111539,111591,111565
 1.2500e+001 111885 -7.2905e-001 -3.9415e+000 -1.2560e-001 17659 111784,111836,111810
 1.2500e+001 111862 -5.3255e-001 -2.8065e+000  3.4261e-001 17659 111758,111836,111784
 1.2500e+001 112287 -5.4482e-001 -3.0379e+000 -1.0143e+000 17411 112065,112169,112143
 1.2500e+001 112264 -1.7540e+000 -1.3908e+000 -8.9390e-001 17411 112039,112169,112065
 1.2500e+001 112241 -1.5281e+000 -1.0024e+000 -7.3647e-001 17411 112013,112169,112039
 1.2500e+001 112218  3.3160e+000 -2.3178e+000 -1.0071e+000 17411 112091,112143,112117
 1.2500e+001 112195 -7.1271e-002 -2.6986e+000 -2.3189e-001 17411 112065,112143,112091
 1.2500e+001 112508 -2.5099e-001  2.4534e-001  3.8388e-002 17007 112384,112436,112410
 1.2500e+001 112485 -1.5931e-001  3.3239e-001  7.5950e-002 17007 112332,112436,112384
 1.2500e+001 112462 -2.4117e-001  1.7435e-001  4.6560e-002 17007 112332,112384,112358
 1.2500e+001 112658 -6.3449e-001 -5.0605e-001  3.7335e-001 16553 112557,112609,112583
 1.2500e+001 112635 -1.2262e+000 -6.3272e-003  5.2249e-001 16553 112531,112609,112557
 1.2500e+001 112761  1.9275e-001 -1.0348e+000  4.9520e-002 16355 112683,112735,112709
 1.2500e+001 112913 -4.4229e-001  3.1013e-001  3.1553e-002 15949 112786,112838,112812
 1.2500e+001 112890 -1.7555e-001  7.7474e-001 -9.1933e-002 15949 112786,112864,112838
 1.2500e+001 113065  9.8846e-002 -4.9377e-001 -9.6665e-003 15609 112938,112990,112964
 1.2500e+001 113042 -1.3448e-001 -1.1465e+000 -3.2488e-001 15609 112938,113016,112990
 1.2500e+001 113420  4.5668e-001  3.0001e-001  1.0660e-001 15284 113247,113325,113299
 1.2500e+001 113397  4.4420e-001  2.6693e-001  3.0710e-002 15284 113195,113325,113247
 1.2500e+001 113374  2.9700e-001  2.0430e-001  3.7533e-002 15284 113195,113247,113221
 1.2500e+001 113351  3.5217e-001  4.2974e-001  8.8527e-002 15284 113247,113299,113273
 1.2500e+001 113521  1.0915e-001 -1.1375e-001  6.9326e-002 202 113443,113495,113469
 1.3000e+001 65564  1.6226e-003  5.6414e-002  5.1197e-003 65155 65414,65466,65440
 1.3000e+001 65541  4.8644e-002 -2.7563e-002 -5.3767e-002 65155 65414,65492,65466
 1.3000e+001 65518  3.4885e-002 -6.6139e-002  2.2832e-002 65155 65388,65492,65414
 1.3000e+001 65883  1.3737e-001 -6.9913e-001 -1.0559e-002 64957 65635,65739,65713
 1.3000e+001 65860  1.2103e-001 -1.0305e+000 -5.1114e-002 64957 65635,65765,65739
 1.3000e+001 65837 -8.1777e-002 -1.1368e+000 -4.1030e-003 64957 65609,65765,65635
 1.3000e+001 65814  1.2516e-001 -8.3692e-001  2.3290e-001 64957 65635,65713,65687
 1.3000e+001 65791  1.3087e-004 -9.9117e-001  1.5438e-001 64957 65635,65687,65661
 1.3000e+001 65984 -1.3022e-002  1.3681e-001 -2.5390e-003 64781 65906,65958,65932
 1.3000e+001 66232 -2.9705e-001 -3.8351e-001  3.2855e-001 64469 66007,66059,66033
 1.3000e+001 66209  7.1724e-002 -4.1105e-001  3.7552e-001 64469 66007,66085,66059
 1.3000e+001 66186 -1.9276e-001 -1.0053e+000  4.8121e-001 64469 66007,66137,66085
 1.3000e+001 66163 -9.8843e-002 -1.3624e+000  1.0862e+000 64469 66085,66137,66111
 1.3000e+001 66504  9.6169e-003 -9.9343e-001  2.2550e-002 64271 66279,66383,66305
 1.3000e+001 66481  1.0849e-001 -9.9031e-001 -3.1667e-002 64271 66279,66409,66383
 1.3000e+001 66458  1.8823e-001 -1.2520e+000  2.3284e-002 64271 66305,66357,66331
 1.3000e+001 66435 -7.3100e-002 -1.1245e+000  5.8610e-002 64271 66305,66383,66357
 1.3000e+001 66705  3.7118e-001 -2.6407e+000  2.0888e-001 64073 66728,66581,66555
 1.3000e+001 66682  3.6239e-001 -1.8922e+000  3.9591e-001 64073 66728,66555,66529
 1.3000e+001 66659  2.1318e-001 -1.6457e+000 -3.0263e-001 64073 66581,66633,66607
 1.3000e+001 66754 -9.7980e-002 -1.9380e+000 -6.3300e-002 64073 66633,66581,66728
 1.3000e+001 66777  8.6590e-002 -9.5236e-001  1.2676e-002 64073 66633,66728,66529
 1.3000e+001 66951 -1.1857e-001 -3.9788e-001 -5.6855e-002 63783 66824,66876,66850
 1.3000e+001 66928  4.4495e-001 -3.3042e-001  1.6940e-001 63783 66824,66902,66876
 1.3000e+001 67201 -5.6473e-001 -1.2823e+000 -1.3423e-001 63585 66976,67080,67054
 1.3000e+001 67178 -9.2985e-002 -1.1011e+000  6.0784e-002 63585 66976,67106,67080
 1.3000e+001 67155  2.0588e-001 -1.5629e+000 -5.5554e-001 63585 66976,67054,67028
 1.3000e+001 67132  7.9578e-003 -2.0484e+000 -4.9594e-001 63585 66976,67028,67002
 1.3000e+001 67654  7.5197e-002 -7.7066e-001 -1.6425e-002 63295 67357,67487,67383
 1.3000e+001 67631  8.1222e-002 -9.4987e-001  1.1052e-001 63295 67331,67487,67357
 1.3000e+001 67608 -5.7030e-002 -1.1148e+000 -1.6835e-002 63295 67331,67513,67487
 1.3000e+001 67585  7.0834e-004 -1.1313e+000  1.7874e-003 63295 67435,67487,67461
 1.3000e+001 67562 -5.6993e-002 -1.1544e+000  4.9151e-003 63295 67383,67487,67435
 1.3000e+001 67539  2.8514e-002 -1.0734e+000  3.8149e-002 63295 67383,67435,67409
 1.3000e+001 67853 -5.7108e-002 -1.0377e+000  5.9850e-003 62891 67876,67703,67677
 1.3000e+001 67830 -3.7839e-002 -1.0665e+000 -1.6261e-002 62891 67876,67677,67781
 1.3000e+001 67807  2.1818e-002 -9.0915e-001 -6.6905e-002 62891 67948,67729,67703
 1.3000e+001 67902 -2.0453e-002 -1.0212e+000  9.3444e-003 62891 67948,67703,67876
 1.3000e+001 67925 -1.5288e-001 -1.0027e+000  3.8806e-002 62891 67755,67876,67781
 1.3000e+001 67974 -6.7835e-002 -7.5956e-001 -6.9742e-002 62891 67755,67729,67948
 1.3000e+001 67997 -4.8014e-002 -8.1705e-001 -9.8028e-003 62891 67755,67948,67876
 1.3000e+001 68218  6.0229e-002 -2.6356e-002 -7.8852e-002 62693 68042,68120,68068
 1.3000e+001 68195  1.2417e-003 -1.7340e-002 -2.5285e-003 62693 68042,68146,68120
 1.3000e+001 68172 -2.2023e-001  1.9592e-001 -4.2786e-002 62693 68068,68120,68094
 1.3000e+001 68468  2.8872e-001 -4.1000e-002  1.5631e-002 62289 68491,68295,68269
 1.3000e+001 68445  5.8275e-002 -7.5600e-002 -1.2508e-001 62289 68563,68491,68269
 1.3000e+001 68422  6.4304e-002  2.2070e-002 -5.3101e-002 62289 68563,68269,68243
 1.3000e+001 68399 -1.6743e-001 -1.8000e-001  9.0310e-003 62289 68295,68347,68321
 1.3000e+001 68517  1.3161e-001 -2.0329e-001 -6.8822e-002 62289 68347,68295,68491
 1.3000e+001 68540 -1.6566e-001 -7.6300e-002 -2.0219e-001 62289 68347,68491,68373
 1.3000e+001 68589  9.8458e-002  1.1514e-001 -1.1317e-001 62289 68373,68491,68563
 1.3000e+001 68612  5.9020e-002  1.4862e-001 -4.0931e-002 62289 68373,68563,68243
 1.3000e+001 68911 -7.4386e-002 -1.0352e+000  2.6384e-003 62091 69222,68934,68741
 1.3000e+001 68888  9.1098e-002 -9.9303e-001 -3.5545e-002 62091 69006,68934,68689
 1.3000e+001 68865  1.1578e-001 -9.7793e-001  2.9518e-004 62091 69006,68689,68663
 1.3000e+001 68842 -1.1657e-001 -1.0345e+000 -1.1964e-001 62091 69078,68793,68767
 1.3000e+001 68819 -1.8529e-001 -1.1014e+000  1.6130e-001 62091 69222,68741,68715
 1.3000e+001 68960 -1.6998e-001 -1.0359e+000  1.1387e-002 62091 68767,68741,68934
 1.3000e+001 68983 -5.3584e-002 -1.0761e+000 -3.0953e-002 62091 69078,68767,68934
 1.3000e+001 69032  8.5092e-002 -9.9777e-001 -2.0639e-002 62091 69150,69006,68637
 1.3000e+001 69055  7.8478e-002 -1.0090e+000 -1.5099e-002 62091 68637,69006,68663
 1.3000e+001 69104 -2.5171e-002 -8.2109e-001 -6.3427e-002 62091 68637,68793,69078
 1.3000e+001 69127  5.9764e-002 -9.6402e-001 -6.2024e-003 62091 69150,68637,69078
 1.3000e+001 69176  3.0677e-002 -1.0115e+000 -3.9153e-002 62091 68934,69006,69150
 1.3000e+001 69199 -1.9959e-002 -9.9357e-001 -1.7542e-002 62091 68934,69150,69078
 1.3000e+001 69248  1.2133e-003 -8.7332e-001 -2.0816e-002 62091 68689,68934,69222
 1.3000e+001 69271 -2.4259e-002 -8.2331e-001  9.0862e-002 62091 68689,69222,68715
 1.3000e+001 69521 -2.4765e-001  1.1872e-001 -2.6209e-003 61893 69544,69348,69296
 1.3000e+001 69498 -5.8218e-002  1.5312e-001  3.1637e-002 61893 69544,69296,69400
 1.3000e+001 69475  5.5721e-002  1.6641e-001  1.8224e-002 61893 69296,69426,69400
 1.3000e+001 69452 -1.7808e-001 -4.3712e-001 -1.2637e-001 61893 69296,69348,69322
 1.3000e+001 69570 -1.4765e-001  3.3250e-002  1.4511e-001 61893 69374,69348,69544
 1.3000e+001 69593  1.8712e-001  1.4932e-001  1.6988e-001 61893 69374,69544,69400
 1.3000e+001 70046  5.9749e-002 -8.2383e-001 -9.9453e-003 61467 69749,69905,69879
 1.3000e+001 70023  1.2817e-001 -6.4595e-001  1.8467e-001 61467 69723,69905,69749
 1.3000e+001 70000  4.3966e-002 -8.8472e-001 -2.7897e-002 61467 70069,69827,69775
 1.3000e+001 69977 -9.8172e-002 -1.2520e+000  9.6923e-002 61467 70069,69775,69749
 1.3000e+001 69954 -3.7196e-002 -6.5458e-001 -2.9335e-002 61467 70141,69853,69827
 1.3000e+001 69931  7.4884e-002 -1.1596e+000 -3.4483e-001 61467 69775,69827,69801
 1.3000e+001 70095  6.1167e-003 -7.1568e-001 -6.8948e-002 61467 70141,69827,70069
 1.3000e+001 70118  4.9215e-002 -8.7057e-001  7.3780e-005 61467 69879,70069,69749
 1.3000e+001 70167  6.2794e-003 -7.4774e-001 -2.5729e-002 61467 69879,69853,70141
 1.3000e+001 70190 -1.4910e-002 -8.9245e-001 -6.6234e-002 61467 69879,70141,70069
 1.3000e+001 70291 -9.2874e-002 -1.4645e+000 -1.6943e-001 61013 70213,70265,70239
 1.3000e+001 70441  1.5809e-001 -1.6046e-002  1.0275e-002 60651 70340,70392,70366
 1.3000e+001 70418  1.4080e-001 -2.9891e-002 -9.3502e-004 60651 70314,70392,70340
 1.3000e+001 70642  7.6976e-002 -6.4198e-001 -1.6667e-001 60311 70665,70492,70466
 1.3000e+001 70619 -1.3549e-001 -1.1871e+000 -2.4990e-001 60311 70665,70466,70570
 1.3000e+001 70596 -3.1864e+000 -1.4251e-001  3.1892e-001 60311 70492,70544,70518
 1.3000e+001 70691  5.5843e-002 -9.0487e-002  3.9509e-001 60311 70544,70492,70665
 1.3000e+001 70714 -2.8734e-001 -9.2142e-001  3.2419e-001 60311 70544,70665,70570
 1.3000e+001 70964  2.9803e-001 -1.2077e+000  1.4372e-001 59907 70987,70765,70739
 1.3000e+001 70941  2.9656e-001 -1.2334e+000 -4.1728e-002 59907 71059,70987,70739
 1.3000e+001 70918  1.6979e-001 -1.3947e+000  1.3269e-002 59907 71059,70739,70869
 1.3000e+001 70895  1.6333e-001 -1.0291e+000  1.1407e-002 59907 70817,70869,70843
 1.3000e+001 71013  1.2238e+000 -7.5591e-001  5.6149e-001 59907 70791,70765,70987
 1.3000e+001 71036  4.0270e-001 -1.3949e+000  1.8480e-001 59907 70791,70987,70817
 1.3000e+001 71085  1.4175e-001 -1.1402e+000 -3.5192e-002 59907 70817,70987,71059
 1.3000e+001 71108  1.3270e-001 -1.1690e+000 -3.0719e-002 59907 70817,71059,70869
 1.3000e+001 71441 -4.6615e-001 -7.3668e-001  5.1571e-001 59417 71464,71242,71216
 1.3000e+001 71418 -2.8644e-001 -4.1910e-001  7.4157e-001 59417 71464,71216,71320
 1.3000e+001 71395 -4.4444e-001 -3.3751e-001  8.0040e-001 59417 71216,71346,71320
 1.3000e+001 71372 -4.0600e-001 -7.8555e-001  3.1504e-001 59417 71268,71320,71294
 1.3000e+001 71490 -6.7065e-001 -7.8177e-001  1.8228e-001 59417 71268,71242,71464
 1.3000e+001 71513 -5.8351e-001 -3.3841e-001  4.0142e-001 59417 71268,71464,71320
 1.3000e+001 71712  1.3872e+000  1.2796e+000  4.1181e-001 58913 71562,71614,71588
 1.3000e+001 71689  8.5744e-001  9.5956e-001  2.7290e-001 58913 71536,71614,71562
 1.3000e+001 71666  4.9704e-001  1.8881e+000 -1.7612e-001 58913 71536,71640,71614
 1.3000e+001 72171 -8.5059e-001 -2.0352e+000  1.4362e-001 58409 72194,72027,72001
 1.3000e+001 72148 -7.4632e-001 -2.3999e+000 -8.5056e-002 58409 72194,72001,71949
 1.3000e+001 72125 -4.5998e-001 -1.3370e+000 -4.1349e-002 58409 71923,72053,71949
 1.3000e+001 72102 -9.3289e-001 -2.4246e+000 -1.5204e-001 58409 71949,72001,71975
 1.3000e+001 72079 -1.6257e-001 -9.3645e-001  2.7102e-001 58409 71897,72053,71923
 1.3000e+001 72220 -6.3762e-001 -1.8822e+000  2.9509e-001 58409 72053,72027,72194
 1.3000e+001 72243 -5.4777e-001 -2.1378e+000  5.3247e-002 58409 72053,72194,71949
 1.3000e+001 72491  7.9276e-001  1.2178e+000  2.5429e-001 57855 72514,72318,72292
 1.3000e+001 72468  1.1718e+000  1.2090e+000  4.7585e-001 57855 72514,72292,72266
 1.3000e+001 72445  7.1206e-001  1.2065e+000  3.5988e-001 57855 72318,72396,72370
 1.3000e+001 72422  5.2725e-001  1.2239e+000  2.6649e-001 57855 72318,72370,72344
 1.3000e+001 72540  7.5135e-001  1.3717e+000  3.4991e-001 57855 72396,72318,72514
 1.3000e+001 72563  7.8718e-001  1.4954e+000  4.2501e-001 57855 72396,72514,72266
 1.3000e+001 72811 -2.9788e-001 -2.1591e+000  1.1011e+000 57401 72612,72690,72638
 1.3000e+001 72788 -2.0916e+000 -2.9170e+000  1.4826e+000 57401 72586,72690,72612
 1.3000e+001 72765  3.5630e+000 -3.7246e+000  9.4198e-002 57401 72638,72690,72664
 1.3000e+001 72742  2.6410e-001 -1.1822e+000  6.8821e-001 57401 72586,72716,72690
 1.3000e+001 73144 -4.5224e-002 -9.7506e-001 -2.8869e-002 57004 72919,72997,72945
 1.3000e+001 73121 -1.3227e-001 -1.1916e+000  3.9115e-002 57004 72919,73049,72997
 1.3000e+001 73098 -1.8165e-001 -8.6296e-001 -1.2843e-001 57004 72945,72997,72971
 1.3000e+001 73075 -1.0291e-001 -1.1583e+000  6.9442e-002 57004 72997,73049,73023
 1.3000e+001 73650 -1.3724e-001 -2.8843e+000  3.1387e-001 56592 73673,73379,73353
 1.3000e+001 73627 -7.0223e-001 -2.3607e+000  1.2405e+000 56592 73673,73353,73327
 1.3000e+001 73604  6.4351e-001 -1.6456e+000  9.4473e-001 56592 73745,73509,73483
 1.3000e+001 73581  1.0883e+000 -1.7496e+000  5.7497e-001 56592 73379,73457,73405
 1.3000e+001 73558  1.5001e+000 -1.7621e+000  9.4973e-001 56592 73379,73483,73457
 1.3000e+001 73535  2.2404e+000 -1.0900e+000  8.4850e-001 56592 73405,73457,73431
 1.3000e+001 73699  2.2451e-001 -2.2999e+000  6.6553e-001 56592 73483,73379,73673
 1.3000e+001 73722  5.8155e-001 -2.2860e+000  1.1746e+000 56592 73745,73483,73673
 1.3000e+001 73771  4.0445e-001 -3.7917e-001  5.3684e-001 56592 73327,73509,73745
 1.3000e+001 73794  4.6868e-002 -1.1464e+000  9.2414e-001 56592 73327,73745,73673
 1.3000e+001 74123  2.9216e-001  2.0962e-001 -5.7652e-001 56152 74146,74002,73924
 1.3000e+001 74100  4.9878e-001  1.7909e-001 -4.5015e-001 56152 74146,73924,73898
 1.3000e+001 74077  1.1922e+000  7.0228e-001 -8.1810e-001 56152 73924,74002,73976
 1.3000e+001 74054  5.7854e-001 -6.8871e-001  3.4755e-001 56152 73924,73976,73950
 1.3000e+001 74172  1.0805e-001  4.5813e-001 -4.5235e-001 56152 74028,74002,74146
 1.3000e+001 74195  4.0711e-001  3.4151e-001 -3.2503e-001 56152 74028,74146,73898
 1.3000e+001 74345  1.3869e+000 -3.7448e-001 -6.1587e-001 55634 74218,74270,74244
 1.3000e+001 74322 -1.4280e-001 -2.4609e-001 -2.3907e-001 55634 74218,74296,74270
 1.3000e+001 74823 -6.8793e-002 -2.5100e+000  4.5507e-001 55016 74918,74846,74581
 1.3000e+001 74800 -4.0761e-001 -2.6456e+000  1.5118e-001 55016 74846,74477,74633
 1.3000e+001 74777 -6.8340e-001 -3.1298e+000  7.0431e-001 55016 74918,74581,74555
 1.3000e+001 74754 -6.6286e-001 -2.1658e+000  1.5957e-001 55016 74990,74503,74477
 1.3000e+001 74731 -3.5981e-001 -3.0919e+000 -5.6329e-001 55016 74451,74633,74477
 1.3000e+001 74708 -1.3142e+000 -2.1540e+000 -8.6556e-001 55016 74451,74659,74633
 1.3000e+001 74685 -1.7007e+000 -1.4919e+000  1.4447e+000 55016 74503,74555,74529
 1.3000e+001 74872 -4.0241e-001 -3.3396e+000  3.9872e-001 55016 74607,74581,74846
 1.3000e+001 74895 -2.5240e-001 -2.8653e+000  2.2105e-001 55016 74607,74846,74633
 1.3000e+001 74944 -8.7854e-001 -2.9416e+000  2.8910e-001 55016 74477,74846,74918
 1.3000e+001 74967 -6.3384e-001 -2.3117e+000  2.7962e-001 55016 74990,74477,74918
 1.3000e+001 75016 -7.6411e-001 -2.1798e+000  5.9791e-001 55016 74555,74503,74990
 1.3000e+001 75039 -8.6929e-001 -2.6170e+000  7.1008e-001 55016 74555,74990,74918
 1.3000e+001 75287 -8.6339e-001 -6.1738e+000  9.1465e-001 54726 75310,75140,75114
 1.3000e+001 75264 -1.3703e+000 -5.2119e+000  6.1719e-001 54726 75310,75114,75088
 1.3000e+001 75241  2.0899e-001 -4.1809e+000  1.2316e-001 54726 75088,75192,75166
 1.3000e+001 75218 -7.3220e-001 -9.1140e-001  8.1850e-001 54726 75062,75192,75088
 1.3000e+001 75336 -1.4816e-001 -5.5799e+000  4.0524e-001 54726 75166,75140,75310
 1.3000e+001 75359 -1.1663e+000 -4.7268e+000  3.2844e-001 54726 75166,75310,75088
 1.3000e+001 75946 -1.2459e-001 -4.8256e-001 -1.5676e-001 54322 75969,75701,75649
 1.3000e+001 75923  1.2102e-001 -3.6493e-001 -1.9961e-001 54322 75969,75649,75623
 1.3000e+001 75900 -2.9564e-002 -3.5094e-001 -2.0631e-002 54322 76041,75753,75701
 1.3000e+001 75877 -7.6527e-002 -7.7093e-001 -3.0759e-002 54322 75623,75805,75779
 1.3000e+001 75854 -6.1205e-002 -4.4329e-001  1.8027e-001 54322 75701,75753,75727
 1.3000e+001 75831 -8.2575e-003 -1.5029e-001 -5.7035e-002 54322 75649,75701,75675
 1.3000e+001 75995  5.5976e-002 -3.9843e-001 -9.2274e-002 54322 76041,75701,75969
 1.3000e+001 76018  6.8236e-002 -5.1647e-001 -1.0500e-001 54322 75779,75969,75623
 1.3000e+001 76067 -8.1436e-002 -4.7710e-001  1.0735e-002 54322 75779,75753,76041
 1.3000e+001 76090 -2.1107e-002 -5.6826e-001 -6.0692e-002 54322 75779,76041,75969
 1.3000e+001 76468 -1.9002e-002 -5.1369e-001 -6.5586e-002 53868 76491,76272,76220
 1.3000e+001 76445  7.0286e-002 -5.2897e-001 -2.0224e-002 53868 76491,76220,76324
 1.3000e+001 76422 -2.2218e-002 -7.1739e-001 -8.7005e-002 53868 76220,76272,76246
 1.3000e+001 76399  1.1710e-001 -5.6106e-001 -3.6502e-002 53868 76194,76324,76220
 1.3000e+001 76376  5.3294e-001 -3.9447e-001  7.4411e-002 53868 76194,76350,76324
 1.3000e+001 76517  3.0758e-002 -4.7747e-001 -1.4167e-002 53868 76298,76272,76491
 1.3000e+001 76540  1.2021e-001 -5.0386e-001  2.7092e-002 53868 76298,76491,76324
 1.3000e+001 76690  1.0809e-002 -6.8586e-001  7.0276e-002 53356 76589,76641,76615
 1.3000e+001 76667 -1.9097e-001 -8.6051e-001 -1.7193e-002 53356 76563,76641,76589
 1.3000e+001 76938  1.6380e-001  3.8026e-001  8.2700e-002 53009 77105,76961,76765
 1.3000e+001 76915 -6.4170e-002 -1.4738e+000 -5.9158e-001 53009 76961,76713,76843
 1.3000e+001 76892 -2.4937e-001 -6.8818e-001  7.6485e-002 53009 77033,76817,76791
 1.3000e+001 76869  4.8769e-001  1.7193e+000 -1.4332e-001 53009 77105,76765,76739
 1.3000e+001 76987 -2.6010e-001 -6.2686e-001 -1.7537e-001 53009 76791,76765,76961
 1.3000e+001 77010 -2.0346e-001 -3.9306e-001 -2.0401e-001 53009 77033,76791,76961
 1.3000e+001 77059  2.0595e-001 -4.3412e-001 -1.8590e-001 53009 76843,76817,77033
 1.3000e+001 77082  1.6000e-001 -3.1066e-001 -4.4786e-001 53009 76843,77033,76961
 1.3000e+001 77131  8.2317e-001  1.5085e-002 -1.0078e+000 53009 76713,76961,77105
 1.3000e+001 77154  9.9971e-001  5.2116e-001 -1.2485e+000 53009 76713,77105,76739
 1.3000e+001 77355  5.6362e-001 -3.9704e+000  4.4470e-001 52390 77378,77257,77231
 1.3000e+001 77332  7.0787e-001 -5.1093e+000  6.2735e-001 52390 77378,77231,77179
 1.3000e+001 77309  1.3846e+000 -3.7298e+000  4.0711e-001 52390 77179,77231,77205
 1.3000e+001 77404  8.2605e-001 -4.8841e+000  1.0137e+000 52390 77283,77257,77378
 1.3000e+001 77427  7.5425e-001 -6.4063e+000  1.1072e+000 52390 77283,77378,77179
 1.3000e+001 77677 -1.1679e+000  1.2904e+000 -1.4853e+000 51986 77700,77504,77478
 1.3000e+001 77654 -2.4039e-001  1.2376e+000 -1.3075e+000 51986 77700,77478,77452
 1.3000e+001 77631  3.8151e-001  1.2126e+000 -1.3784e+000 51986 77772,77556,77530
 1.3000e+001 77608  3.4222e+000  2.2104e+000 -2.2323e+000 51986 77452,77582,77556
 1.3000e+001 77726 -3.8682e-001  1.6439e+000 -9.6313e-001 51986 77530,77504,77700
 1.3000e+001 77749  3.3973e-001  1.1899e+000 -1.1120e+000 51986 77772,77530,77700
 1.3000e+001 77798  7.3238e-002  1.0609e+000 -1.2896e+000 51986 77452,77556,77772
 1.3000e+001 77821 -8.9704e-002  1.0499e+000 -1.0611e+000 51986 77452,77772,77700
 1.3000e+001 78282 -5.6656e-001 -2.7029e+000  6.0005e-002 51738 78008,78138,78060
 1.3000e+001 78259 -1.2375e+000 -3.6496e+000  1.9040e+000 51738 78008,78164,78138
 1.3000e+001 78236 -7.1832e-001 -1.8677e+000  5.4560e-001 51738 78086,78138,78112
 1.3000e+001 78213 -6.5144e-001 -1.4584e+000  4.5788e-001 51738 78060,78138,78086
 1.3000e+001 78190  9.7864e-002 -3.6345e+000 -3.6071e-001 51738 78008,78060,78034
 1.3000e+001 78432  2.3439e-001 -4.2977e-001  2.3779e-002 51148 78305,78357,78331
 1.3000e+001 78409  1.5005e-001 -3.0217e-001  2.8912e-002 51148 78305,78383,78357
 1.3000e+001 78891 -1.1272e-001 -5.8447e-001 -4.9362e-002 50808 78914,78695,78669
 1.3000e+001 78868 -3.8939e-002 -3.9823e-001 -1.8878e-002 50808 78914,78669,78643
 1.3000e+001 78845 -5.8075e-002 -5.2728e-001 -2.9309e-001 50808 78643,78773,78747
 1.3000e+001 78822 -3.2522e-002 -5.5859e-001 -2.7997e-001 50808 78617,78773,78643
 1.3000e+001 78799 -2.8944e-001 -5.9632e-001 -1.1211e-001 50808 78695,78747,78721
 1.3000e+001 78940 -1.9556e-001 -4.5989e-001 -1.7691e-001 50808 78747,78695,78914
 1.3000e+001 78963 -1.1941e-001 -3.5433e-001 -1.4197e-001 50808 78747,78914,78643
 1.3000e+001 79260  8.5365e-002 -5.8232e-001 -2.9448e-002 50468 79283,79090,79012
 1.3000e+001 79237  2.6100e-001 -5.4063e-001  2.3951e-002 50468 79283,79012,78986
 1.3000e+001 79214 -1.0030e-001 -6.6395e-001 -5.3891e-002 50468 79012,79090,79038
 1.3000e+001 79191  1.2514e-001 -4.6756e-001  1.1214e-001 50468 78986,79142,79116
 1.3000e+001 79168  8.4108e-004 -6.6211e-001 -9.2299e-002 50468 79038,79090,79064
 1.3000e+001 79309 -1.0986e-001 -5.2260e-001 -5.2512e-002 50468 79116,79090,79283
 1.3000e+001 79332  1.1230e-001 -4.3392e-001  1.8128e-002 50468 79116,79283,78986
 1.3000e+001 79889  7.9792e-001  1.1263e+000 -5.0978e-001 50064 79569,79725,79699
 1.3000e+001 79866  9.2587e-001  1.1844e+000 -4.2198e-001 50064 79543,79725,79569
 1.3000e+001 79843  8.4438e-001  6.9908e-001 -5.4747e-001 50064 79621,79699,79673
 1.3000e+001 79820  1.0785e+000  1.2231e+000 -8.4197e-001 50064 79595,79699,79621
 1.3000e+001 79797  1.5807e+000  1.3497e+000 -6.4464e-001 50064 79569,79699,79595
 1.3000e+001 79774  4.0115e-001  1.2133e+000 -2.3689e-001 50064 79517,79725,79543
 1.3000e+001 79751  4.9849e-001  7.0644e-001 -5.8427e-001 50064 79621,79673,79647
 1.3000e+001 80169  1.0395e+000  1.5504e+000 -6.8366e-001 49724 80019,80097,80071
 1.3000e+001 80146  9.6849e-001  1.9461e+000 -7.6961e-001 49724 79993,80097,80019
 1.3000e+001 80123  7.0538e-001  1.4597e+000 -8.0860e-001 49724 80019,80071,80045
 1.3000e+001 80626  8.6550e-002  2.9692e-001  2.3423e-001 49277 80352,80482,80378
 1.3000e+001 80603 -2.5490e-001  1.9531e-001 -2.4349e-002 49277 80352,80508,80482
 1.3000e+001 80580 -1.5870e-001 -4.2444e-001  5.2029e-002 49277 80378,80482,80456
 1.3000e+001 80557 -1.5201e-001 -7.5848e-001  3.5013e-001 49277 80378,80430,80404
 1.3000e+001 80534 -4.9908e-002 -3.3302e-001  2.5807e-001 49277 80378,80456,80430
 1.3000e+001 81230  6.0878e-001 -4.1069e-001  2.1022e-001 48716 81253,80835,80809
 1.3000e+001 81207  5.7949e-001 -3.1304e-001  4.9788e-001 48716 81397,81253,80809
 1.3000e+001 81184  7.3272e-002  3.2224e-001 -5.7871e-002 48716 81325,80913,80887
 1.3000e+001 81161 -9.9123e-002 -4.1435e-001  6.6046e-001 48716 81397,80809,81017
 1.3000e+001 81138 -1.8992e-001  4.6664e-001 -1.4923e-001 48716 81469,80965,80913
 1.3000e+001 81115 -1.8423e-001 -5.9701e-001  3.0715e-001 48716 80835,80887,80861
 1.3000e+001 81092  9.3797e-001 -4.4091e-001  1.3694e+000 48716 80809,81043,81017
 1.3000e+001 81069  1.1267e-002  2.1221e-001 -3.5980e-001 48716 80913,80965,80939
 1.3000e+001 81279  3.1873e-001 -3.1903e-001  1.4900e-003 48716 80887,80835,81253
 1.3000e+001 81302  4.1394e-002  3.0559e-001 -6.7515e-002 48716 81325,80887,81253
 1.3000e+001 81351  1.1064e-001  3.9350e-001 -3.3099e-002 48716 81469,80913,81325
 1.3000e+001 81374 -2.7680e-002  5.8265e-001  8.5708e-002 48716 80991,81325,81253
 1.3000e+001 81423 -4.3199e-001  1.1398e-001  5.9385e-001 48716 80991,81253,81397
 1.3000e+001 81446 -1.2104e+000 -1.0894e-001  8.2356e-001 48716 80991,81397,81017
 1.3000e+001 81495 -6.7261e-001  4.4434e-001 -1.3852e-001 48716 80991,80965,81469
 1.3000e+001 81518 -4.3270e-001  3.2428e-001 -2.5409e-002 48716 80991,81469,81325
 1.3000e+001 81717 -2.6444e-002 -5.8819e-001  7.6023e-002 48262 81740,81567,81541
 1.3000e+001 81694 -1.6045e-001 -5.8833e-001  1.9627e-002 48262 81740,81541,81645
 1.3000e+001 81671 -1.0944e-001 -6.4438e-001 -1.9315e-002 48262 81567,81619,81593
 1.3000e+001 81766 -1.1086e-001 -5.9827e-001 -2.0550e-003 48262 81619,81567,81740
 1.3000e+001 81789 -2.5685e-001 -6.2978e-001 -6.8175e-002 48262 81619,81740,81645
 1.3000e+001 81939  1.0055e+000  1.1844e+000 -4.7033e-001 47957 82034,81962,81864
 1.3000e+001 81916  7.5305e-001  8.6759e-001 -1.3917e-001 47957 82166,81962,81838
 1.3000e+001 81988 -4.1596e-001  1.0653e+000 -4.9835e-001 47957 82294,81962,81890
 1.3000e+001 82011  7.0856e-001  1.7613e+000  2.9644e-001 47957 81890,81962,81812
 1.3000e+001 82060  9.0452e-001  1.6754e+000  1.1086e-002 47957 81838,81962,82034
 1.3000e+001 82192  9.5620e-001  9.9822e-001  3.1830e-001 47957 81812,81962,82166
 1.3000e+001 82320  9.7680e-002  1.1176e+000 -6.0666e-001 47957 81864,81962,82294
 1.3000e+001 82549  3.9379e-002 -6.6252e-001 -1.7228e-001 47617 82448,82500,82474
 1.3000e+001 82526  3.3637e-001 -8.3392e-001  4.1813e-003 47617 82422,82500,82448
 1.3000e+001 82902 -7.3895e-001 -1.1313e+000 -3.2821e-002 47255 82729,82807,82755
 1.3000e+001 82879 -1.7904e-001 -1.6174e+000  3.6770e-001 47255 82703,82807,82729
 1.3000e+001 82856 -1.1299e+000 -1.1171e+000  4.3065e-001 47255 82755,82807,82781
 1.3000e+001 82833  1.3293e+000 -9.7112e-001  5.1954e-001 47255 82677,82807,82703
 1.3000e+001 83182  3.4684e-001 -9.6339e-001  2.0566e-001 46680 83032,83084,83058
 1.3000e+001 83159  4.8134e-001 -3.8630e-001  2.0485e-001 46680 83205,83084,83032
 1.3000e+001 83136  7.2904e-001 -1.3368e-001 -1.1211e-002 46680 83006,83110,83084
 1.3000e+001 83231  3.0877e-001 -4.8108e-001  1.6792e-001 46680 83006,83084,83205
 1.3000e+001 83737 -7.9027e-001 -3.4662e-001  3.4880e-002 46290 83832,83760,83492
 1.3000e+001 83714 -6.3716e-001 -4.3171e-002 -1.0247e-001 46290 83760,83440,83414
 1.3000e+001 83691 -5.0625e-001 -5.2583e-001 -1.6779e-002 46290 83832,83492,83466
 1.3000e+001 83668 -6.6479e-001 -1.1049e+000  2.2185e-001 46290 83492,83570,83544
 1.3000e+001 83645 -6.1840e-001 -2.3882e-001 -2.6369e-001 46290 83414,83596,83570
 1.3000e+001 83622 -7.9385e-001 -8.5124e-001  4.3369e-001 46290 83492,83544,83518
 1.3000e+001 83786 -8.0656e-001 -3.3210e-001  5.7850e-002 46290 83570,83492,83760
 1.3000e+001 83809 -7.6489e-001 -4.6421e-001 -1.3758e-001 46290 83570,83760,83414
 1.3000e+001 83858 -4.2546e-001 -1.4664e-001  1.3349e-001 46290 83440,83760,83832
 1.3000e+001 83881  8.5083e-002 -2.7121e-001  1.8538e-002 46290 83440,83832,83466
 1.3000e+001 84161 -1.8596e-001 -8.5659e-001  3.7135e-001 45829 84011,84063,84037
 1.3000e+001 84138  2.7647e-002 -5.1478e-001  1.1856e-001 45829 84011,84089,84063
 1.3000e+001 84115  9.3263e-003 -5.2031e-001  1.6398e-001 45829 83985,84089,84011
 1.3000e+001 84311  2.3418e-001  3.1017e-001  5.9932e-002 45631 84184,84236,84210
 1.3000e+001 84288 -1.2749e-001 -8.3751e-001 -9.4909e-002 45631 84184,84262,84236
 1.3000e+001 84657 -5.5506e-002 -5.2540e-001 -1.5069e-002 45155 84680,84490,84412
 1.3000e+001 84634 -1.2742e-001 -4.7674e-001  2.0081e-003 45155 84680,84412,84360
 1.3000e+001 84611 -1.0618e-001 -5.5807e-001  1.7569e-002 45155 84412,84490,84438
 1.3000e+001 84588  5.6602e-002 -3.6595e-001 -3.3757e-002 45155 84334,84516,84360
 1.3000e+001 84565 -1.6479e-001 -5.5389e-001 -1.1823e-001 45155 84360,84412,84386
 1.3000e+001 84542 -8.0656e-002 -4.4890e-001  7.9964e-002 45155 84438,84490,84464
 1.3000e+001 84706 -2.6018e-002 -4.8515e-001 -2.9288e-002 45155 84516,84490,84680
 1.3000e+001 84729 -8.0306e-002 -4.2206e-001 -1.9983e-002 45155 84516,84680,84360
 1.3000e+001 85077  1.9177e-001 -2.3430e-001  6.6998e-002 44508 85100,84754,84910
 1.3000e+001 85054  1.9979e-001  1.0400e-001  1.2194e-001 44508 84754,84936,84910
 1.3000e+001 85031  4.7858e-002 -3.8255e-001  2.0940e-001 44508 85100,84910,84884
 1.3000e+001 85008 -1.6164e-001 -4.6085e-001  1.2422e-001 44508 84780,84884,84832
 1.3000e+001 84985  9.2118e-002 -2.6302e-003 -9.9443e-002 44508 84780,84832,84806
 1.3000e+001 84962  6.8293e-001  1.4923e-001 -1.4622e-001 44508 84832,84884,84858
 1.3000e+001 85126  7.3906e-002 -8.0566e-003 -4.3746e-002 44508 84780,84754,85100
 1.3000e+001 85149 -3.4470e-002 -1.5762e-001  8.6336e-002 44508 84780,85100,84884
 1.3000e+001 85482 -4.0689e-001 -7.0368e-001  6.7650e-003 44104 85335,85387,85361
 1.3000e+001 85459 -3.5514e-001 -1.0614e+000  5.0782e-002 44104 85309,85387,85335
 1.3000e+001 85436 -1.5861e-001 -8.4998e-001  1.8150e-001 44104 85257,85387,85309
 1.3000e+001 85413 -2.8492e-001 -1.4577e+000  1.1101e-001 44104 85257,85309,85283
 1.3000e+001 85811 -7.5460e-002 -3.7181e-001 -2.4143e-002 43600 85586,85664,85612
 1.3000e+001 85788 -1.5861e-001 -4.7036e-001  2.5725e-002 43600 85586,85690,85664
 1.3000e+001 85765  7.1210e-002 -3.6830e-001 -1.5031e-002 43600 85586,85716,85690
 1.3000e+001 85742 -1.3326e-002 -3.5414e-001 -1.2771e-002 43600 85612,85664,85638
 1.3000e+001 86010  1.1543e-002 -4.3271e-001 -6.2174e-002 43224 85886,85938,85912
 1.3000e+001 85987  1.1311e-001 -7.6482e-002 -1.0007e-001 43224 85834,85938,85886
 1.3000e+001 85964 -2.3644e-001 -4.7901e-001  4.9973e-002 43224 85834,85886,85860
 1.3000e+001 86420  1.8745e+000  9.3607e-001 -2.6807e-001 42820 86195,86299,86221
 1.3000e+001 86397  1.4117e+000  8.7505e-001 -9.1937e-001 42820 86195,86325,86299
 1.3000e+001 86374  1.2384e+000  1.1642e+000  2.7883e-002 42820 86221,86299,86273
 1.3000e+001 86351  1.1019e+000  6.6072e-001  1.1210e-001 42820 86221,86273,86247
 1.3000e+001 86749  4.0188e-001 -3.1287e-001 -1.0184e-001 42223 86550,86602,86576
 1.3000e+001 86726  1.1375e+000 -6.2653e-001  4.3170e-002 42223 86550,86628,86602
 1.3000e+001 86703  7.6687e-002 -9.9533e-001  3.3626e-001 42223 86524,86628,86550
 1.3000e+001 86680  6.5563e-001 -3.4356e-002  8.6573e-002 42223 86524,86654,86628
 1.3000e+001 87078  5.7114e-001 -3.2940e-001  2.4338e-001 41883 87173,87101,86905
 1.3000e+001 87055  4.4484e-001  3.4767e-001 -6.7910e-003 41883 87101,86879,86853
 1.3000e+001 87032  6.6123e-002 -5.4641e-002  3.4875e-002 41883 86853,86983,86931
 1.3000e+001 87009 -3.2080e-002 -4.9584e-001  1.7994e-001 41883 86931,86983,86957
 1.3000e+001 87127  6.9086e-001 -1.8870e-001  3.2436e-002 41883 86931,86905,87101
 1.3000e+001 87150  1.6377e-001 -3.0820e-001 -8.4206e-003 41883 86931,87101,86853
 1.3000e+001 87199  1.1212e-001 -2.7690e-001  2.2663e-001 41883 86879,87101,87173
 1.3000e+001 87558  8.7404e-002  5.9266e-001 -1.6796e-002 41471 87382,87460,87408
 1.3000e+001 87535 -9.2953e-001 -4.3016e-002 -2.8724e-001 41471 87382,87486,87460
 1.3000e+001 87512 -2.8186e-001  3.0543e-001 -1.8392e-001 41471 87408,87460,87434
 1.3000e+001 87806  1.4538e-001 -3.1854e-001  6.9584e-002 41017 87829,87607,87581
 1.3000e+001 87783  1.0469e-001 -4.3794e-001  9.7502e-002 41017 87829,87581,87685
 1.3000e+001 87760  2.9317e-001 -1.9095e-001  1.2923e-002 41017 87581,87711,87685
 1.3000e+001 87737  3.2244e-001 -8.3415e-001  3.8983e-002 41017 87633,87685,87659
 1.3000e+001 87855  1.4250e-001 -3.5838e-001  1.6022e-001 41017 87633,87607,87829
 1.3000e+001 87878  9.3692e-002 -4.8427e-001  1.9042e-001 41017 87633,87829,87685
 1.3000e+001 88258 -5.0222e-002 -7.9621e-002 -5.6977e-003 40613 88281,88036,88010
 1.3000e+001 88235 -3.5462e-002 -4.8502e-002 -1.2381e-002 40613 88281,88010,88088
 1.3000e+001 88212 -9.8702e-004 -4.4203e-002 -9.0617e-003 40613 87984,88088,88010
 1.3000e+001 88189  2.5946e-002  2.3406e-002 -2.4735e-002 40613 87984,88114,88088
 1.3000e+001 88166  3.5086e-002  1.7051e-002 -2.3567e-002 40613 87984,88140,88114
 1.3000e+001 88307 -3.2439e-002 -1.0322e-001 -2.7951e-002 40613 88062,88036,88281
 1.3000e+001 88330 -1.4205e-003 -4.6384e-002 -4.2249e-002 40613 88062,88281,88088
 1.3000e+001 88649 -3.4894e-002 -1.0934e-001  1.5585e-002 40095 88375,88505,88401
 1.3000e+001 88626 -4.7463e-002 -4.9141e-002 -1.5345e-002 40095 88375,88531,88505
 1.3000e+001 88603  7.8641e-003 -1.3148e-001  2.4341e-004 40095 88401,88505,88479
 1.3000e+001 88580 -1.1161e-001 -3.4851e-001 -2.6051e-002 40095 88427,88479,88453
 1.3000e+001 88557  1.1186e-002 -2.1981e-001  7.9786e-003 40095 88401,88479,88427
 1.3000e+001 89078  1.1191e+000 -1.3277e-001 -7.7184e-002 39897 89101,88833,88807
 1.3000e+001 89055  6.9740e-001 -5.8043e-001 -2.9738e-001 39897 89101,88807,88911
 1.3000e+001 89032  7.8855e-001 -4.6622e-002 -3.1512e-001 39897 88781,88911,88807
 1.3000e+001 89009 -2.0690e-002 -6.6477e-001 -7.4645e-001 39897 88781,88937,88911
 1.3000e+001 88986  2.1183e+000  3.4769e-001 -3.4245e-001 39897 88833,88885,88859
 1.3000e+001 88963  5.5452e-001 -4.9676e-002 -4.7407e-001 39897 88755,88937,88781
 1.3000e+001 89127  1.5523e+000 -6.8147e-001 -5.7612e-001 39897 88885,88833,89101
 1.3000e+001 89150  7.8183e-001 -1.3796e+000 -8.8821e-001 39897 88885,89101,88911
 1.3000e+001 89300 -7.7550e-001 -1.0301e+000  1.8470e-001 39607 89453,89323,89199
 1.3000e+001 89277 -1.2220e+000 -8.7067e-001  8.4390e-002 39607 89525,89453,89199
 1.3000e+001 89349 -7.4983e-001 -1.0463e+000 -5.8397e-002 39607 89225,89199,89323
 1.3000e+001 89479 -8.6501e-001 -6.4837e-001  1.9437e-001 39607 89251,89323,89453
 1.3000e+001 89502 -4.9418e-001 -2.7644e-001  4.6969e-001 39607 89251,89453,89173
 1.3000e+001 89551 -1.8876e-001 -4.9180e-001  7.0229e-002 39607 89173,89453,89525
 1.3000e+001 90264 -6.5987e-001 -1.7523e+000 -1.0533e-001 39039 89996,90074,90048
 1.3000e+001 90241 -4.0345e-001 -8.0082e-001 -8.8202e-002 39039 89918,90074,89996
 1.3000e+001 90218 -5.7494e-001 -9.9274e-001 -8.0968e-003 39039 89918,89996,89944
 1.3000e+001 90195 -4.6097e-001 -8.0835e-001 -6.4096e-002 39039 89892,90074,89918
 1.3000e+001 90172  9.1124e-002 -1.7840e+000 -1.9988e-001 39039 89996,90048,90022
 1.3000e+001 90149 -1.0800e+000  2.9629e-001 -8.1156e-002 39039 89892,90100,90074
 1.3000e+001 90126 -9.0414e-001 -1.1384e+000  7.9942e-002 39039 89944,89996,89970
 1.3000e+001 90770 -8.3489e-002 -4.4111e-001  1.9060e-002 38635 90473,90603,90577
 1.3000e+001 90747  2.0401e-002 -3.7915e-001 -2.3093e-002 38635 90447,90603,90473
 1.3000e+001 90724  1.0614e-002 -4.5263e-001 -5.4319e-002 38635 90499,90577,90551
 1.3000e+001 90701 -1.4163e-001 -5.7440e-001  4.9218e-002 38635 90473,90577,90499
 1.3000e+001 90678 -6.4745e-002 -6.5430e-001 -1.0347e-002 38635 90499,90551,90525
 1.3000e+001 90655 -1.8059e-001 -4.3825e-001  5.3236e-002 38635 90447,90629,90603
 1.3000e+001 90871  5.9554e-003 -3.9826e-001 -9.6010e-002 38231 90793,90845,90819
 1.3000e+001 91458 -2.3316e-002 -2.3412e-001 -8.9506e-004 37534 91161,91317,91291
 1.3000e+001 91435 -2.0414e-001 -1.5618e-001  7.1065e-002 37534 91135,91317,91161
 1.3000e+001 91412 -3.3429e-001 -1.1421e+000 -2.1792e-001 37534 91187,91291,91239
 1.3000e+001 91389 -1.0152e-001 -1.1289e+000  1.3559e-001 37534 91161,91291,91187
 1.3000e+001 91366 -8.3972e-002 -8.7408e-001 -1.1003e-001 37534 91239,91291,91265
 1.3000e+001 91343  3.8419e-001 -1.2449e+000 -5.2600e-001 37534 91187,91239,91213
 1.3000e+001 91915 -2.8918e-001 -8.8190e-001  1.5350e-001 37080 91938,91745,91667
 1.3000e+001 91892  2.0374e-002 -8.3284e-001  5.2225e-002 37080 91938,91667,91797
 1.3000e+001 91869  2.3251e-001 -3.3665e-001  1.1559e-001 37080 91641,91797,91667
 1.3000e+001 91846 -2.6406e-001 -9.8797e-001  3.4728e-002 37080 91667,91719,91693
 1.3000e+001 91823 -1.6709e-001 -7.3613e-001  9.1323e-002 37080 91667,91745,91719
 1.3000e+001 91964 -4.4590e-001 -1.0138e+000  4.2533e-001 37080 91771,91745,91938
 1.3000e+001 91987 -1.3724e-001 -8.5266e-001  2.8737e-001 37080 91771,91938,91797
 1.3000e+001 92235 -1.4149e-001 -4.1625e-001 -2.4104e-002 36397 92036,92088,92062
 1.3000e+001 92212 -8.1771e-002 -4.0117e-001 -4.7533e-002 36397 92036,92114,92088
 1.3000e+001 92189  1.7469e-002 -3.2131e-001  1.3667e-002 36397 92036,92140,92114
 1.3000e+001 92166  3.8145e-002 -4.4651e-001 -1.5902e-002 36397 92010,92140,92036
 1.3000e+001 92694  1.3410e-001  4.6777e-003 -2.6428e-002 36057 92446,92498,92472
 1.3000e+001 92671  1.7578e-001 -1.6550e-002  6.5820e-002 36057 92446,92550,92498
 1.3000e+001 92648 -4.4185e-002 -3.9396e-001  1.7143e-001 36057 92446,92576,92550
 1.3000e+001 92625  1.4234e-001 -1.4405e-002 -2.9458e-001 36057 92420,92576,92446
 1.3000e+001 92602  2.5404e-002  1.0158e-002  1.5590e-001 36057 92498,92550,92524
 1.3000e+001 93023 -1.3260e-001 -3.7014e-001 -3.3037e-002 35717 92876,92928,92902
 1.3000e+001 93000 -1.0329e-001 -4.1054e-001 -4.8909e-002 35717 92824,92928,92876
 1.3000e+001 92977  1.5491e-002 -4.0347e-001 -1.6193e-002 35717 92798,92928,92824
 1.3000e+001 92954 -1.5367e-001 -5.6378e-001 -9.6413e-002 35717 92824,92876,92850
 1.3000e+001 93499  3.5124e-001 -4.7964e-001  2.5256e-001 35405 93522,93309,93257
 1.3000e+001 93476  3.8904e-001 -4.2829e-001  2.3607e-001 35405 93666,93522,93257
 1.3000e+001 93453  3.9191e-001 -1.2017e+000  2.7650e-001 35405 93594,93127,93335
 1.3000e+001 93430  2.8558e-001 -4.4687e-001  2.1992e-001 35405 93666,93257,93231
 1.3000e+001 93407  8.4706e-002 -1.5247e+000  8.1893e-002 35405 93127,93179,93153
 1.3000e+001 93384 -4.2719e-001 -4.2267e-001  4.9118e-001 35405 93179,93231,93205
 1.3000e+001 93361  4.5182e-001  3.2295e-001  2.1610e-002 35405 93257,93309,93283
 1.3000e+001 93548  5.8466e-001 -2.9834e-001  4.7407e-001 35405 93335,93309,93522
 1.3000e+001 93571  3.9745e-001 -6.8099e-001  3.5133e-001 35405 93594,93335,93522
 1.3000e+001 93620  4.8008e-001 -6.5868e-001  1.9263e-001 35405 93179,93127,93594
 1.3000e+001 93643  2.7212e-001 -4.2645e-001  2.0655e-001 35405 93738,93594,93522
 1.3000e+001 93692  2.7839e-001 -4.3267e-001  1.9407e-001 35405 93738,93522,93666
 1.3000e+001 93715  2.2753e-001 -4.4499e-001  1.6384e-001 35405 93179,93666,93231
 1.3000e+001 93764  2.6408e-001 -4.4485e-001  2.0787e-001 35405 93179,93594,93738
 1.3000e+001 93787  2.6909e-001 -4.5135e-001  1.9734e-001 35405 93179,93738,93666
 1.3000e+001 94372  8.3394e-001 -1.1641e-001  9.8100e-002 34951 94395,94127,94075
 1.3000e+001 94349  1.1021e+000 -1.7058e-001  2.0546e-001 34951 94395,94075,94231
 1.3000e+001 94326  1.2870e+000 -4.3957e-001 -3.0703e-001 34951 94049,94231,94075
 1.3000e+001 94303  7.1569e-001  3.1317e-001  2.6972e-001 34951 94075,94127,94101
 1.3000e+001 94280  1.6528e+000  7.6998e-001  7.2059e-001 34951 94127,94205,94153
 1.3000e+001 94257  1.2257e+000 -3.6876e-001  7.1706e-001 34951 94153,94205,94179
 1.3000e+001 94421  1.0452e+000 -1.5549e-001  2.5127e-001 34951 94205,94127,94395
 1.3000e+001 94444  1.5253e+000 -7.3262e-002  3.5060e-001 34951 94205,94395,94231
 1.3000e+001 94692  2.8390e-002 -8.3644e-002 -2.4953e-003 34397 94715,94519,94467
 1.3000e+001 94669  1.9504e-002 -7.2173e-002  5.2695e-003 34397 94715,94467,94597
 1.3000e+001 94646 -6.6818e-002 -1.6990e-001 -3.5220e-002 34397 94545,94597,94571
 1.3000e+001 94623 -4.3765e-002 -2.5431e-001 -1.6404e-004 34397 94467,94519,94493
 1.3000e+001 94741  5.1496e-003 -1.1020e-001 -1.2253e-002 34397 94545,94519,94715
 1.3000e+001 94764  1.6880e-002 -7.7954e-002  2.8805e-003 34397 94545,94715,94597
 1.3000e+001 94985  3.1026e-002 -2.3679e-001  7.4951e-003 33985 94835,94913,94887
 1.3000e+001 94962 -3.0415e-002 -3.8117e-001  1.2975e-002 33985 94809,94913,94835
 1.3000e+001 94939 -6.0523e-002 -2.6840e-001  2.5071e-002 33985 94835,94887,94861
 1.3000e+001 95186 -4.7819e-002 -6.4337e-001 -1.8587e-001 33645 95281,95209,95036
 1.3000e+001 95163  3.8472e-001 -6.4069e-001  3.3899e-002 33645 95209,95010,95088
 1.3000e+001 95140  3.6863e-001 -3.4194e-001 -1.9380e-003 33645 95010,95114,95088
 1.3000e+001 95235 -2.4042e-001 -8.0135e-001 -3.2248e-001 33645 95062,95036,95209
 1.3000e+001 95258 -1.8399e-001 -8.6521e-001  2.5989e-001 33645 95413,95209,95088
 1.3000e+001 95307  3.0803e-001 -2.7650e-002 -4.0404e-001 33645 95010,95209,95281
 1.3000e+001 95439  1.8403e-001 -4.6042e-001  1.0111e-001 33645 95062,95209,95413
 1.3000e+001 95766 -1.4755e-001 -1.7220e-001 -2.6925e-001 33141 95789,95593,95567
 1.3000e+001 95743  4.1665e-002 -2.9674e-001 -8.6735e-002 33141 95861,95789,95567
 1.3000e+001 95720  3.1149e-002 -2.6907e-001 -3.5846e-002 33141 95861,95567,95671
 1.3000e+001 95697  3.2271e-002 -2.9641e-001 -4.4592e-002 33141 95541,95671,95567
 1.3000e+001 95815  3.9912e-003  1.8187e-001 -2.2940e-001 33141 95619,95593,95789
 1.3000e+001 95838  6.6219e-002 -1.3609e-001 -7.6282e-002 33141 95619,95789,95645
 1.3000e+001 95887  7.9927e-002 -2.0685e-001 -8.9525e-002 33141 95645,95789,95861
 1.3000e+001 95910  7.0113e-002 -1.7896e-001 -3.1589e-002 33141 95645,95861,95671
 1.3000e+001 96060 -1.2281e-001 -3.8042e-001 -1.1476e-001 32487 95959,96011,95985
 1.3000e+001 96037  3.6181e-002 -3.8566e-001 -1.2103e-002 32487 95933,96011,95959
 1.3000e+001 96570 -2.1335e-001 -4.7765e-001  2.7413e-001 32033 96665,96593,96377
 1.3000e+001 96547 -1.7318e-001 -4.9073e-001 -8.1031e-002 32033 96737,96593,96325
 1.3000e+001 96524 -2.7654e-001 -6.1730e-001  1.7678e-001 32033 96665,96377,96351
 1.3000e+001 96501 -2.9045e-001 -7.2417e-001 -4.1389e-002 32033 96737,96325,96299
 1.3000e+001 96478 -3.1831e-001 -1.9716e-001 -2.3169e-002 32033 96247,96429,96299
 1.3000e+001 96455 -7.4605e-001 -1.3378e+000  1.5269e-002 32033 96247,96299,96273
 1.3000e+001 96619  9.2278e-002 -2.3543e-001  3.4591e-001 32033 96809,96593,96403
 1.3000e+001 96642  3.0144e-001  3.2284e-001 -2.6703e-001 32033 96403,96593,96429
 1.3000e+001 96691  4.4815e-002 -8.1524e-001  9.7340e-002 32033 96325,96593,96665
 1.3000e+001 96714 -1.7656e-001 -1.0749e+000 -3.8368e-002 32033 96325,96665,96351
 1.3000e+001 96763 -3.0759e-001 -4.0983e-001  2.9674e-002 32033 96429,96593,96737
 1.3000e+001 96786 -3.5215e-001 -5.1268e-001  3.6706e-002 32033 96429,96737,96299
 1.3000e+001 96835 -3.8098e-002 -4.0354e-001  2.6768e-001 32033 96377,96593,96809
 1.3000e+001 97064 -2.2086e-002 -6.8756e-002 -6.7455e-003 31671 97087,96989,96963
 1.3000e+001 97041 -4.0504e-002 -9.5105e-002  4.5446e-002 31671 97087,96963,96937
 1.3000e+001 97113 -1.9307e-002 -6.3787e-002  2.9738e-003 31671 97159,97087,97015
 1.3000e+001 97136 -5.6709e-004  2.4536e-003  4.1515e-002 31671 97015,97087,96937
 1.3000e+001 97185 -4.0577e-003 -2.1619e-002 -7.4045e-003 31671 96989,97087,97159
 1.3000e+001 97563  1.0225e-002 -7.3975e-002 -1.6393e-002 31117 97586,97367,97341
 1.3000e+001 97540 -1.7370e-002 -4.6588e-002  1.2229e-002 31117 97658,97586,97341
 1.3000e+001 97517 -3.8355e-002 -5.4971e-002  3.4054e-003 31117 97658,97341,97315
 1.3000e+001 97494  6.1080e-002 -6.1330e-002  1.0516e-002 31117 97289,97445,97315
 1.3000e+001 97471  6.0249e-002 -9.4792e-003  4.9394e-003 31117 97367,97419,97393
 1.3000e+001 97612  3.5077e-002  2.5689e-002 -3.6036e-002 31117 97419,97367,97586
 1.3000e+001 97635  4.4257e-002 -3.2010e-002  4.2872e-002 31117 97419,97586,97445
 1.3000e+001 97684  2.7565e-002 -6.8134e-002  1.9990e-002 31117 97445,97586,97658
 1.3000e+001 97707  2.3816e-003 -8.0913e-002  9.8715e-003 31117 97445,97658,97315
 1.3000e+001 98215  1.0493e-001 -9.7388e-002 -1.4506e-001 30563 98238,97996,97944
 1.3000e+001 98192 -9.1510e-002 -8.8282e-002 -1.5822e-001 30563 98310,98238,97944
 1.3000e+001 98169 -2.8164e-001 -2.6306e-001 -2.9733e-001 30563 98310,97944,97918
 1.3000e+001 98146  2.6545e-001 -9.1367e-002 -6.9552e-002 30563 97892,98074,97918
 1.3000e+001 98123  2.1759e-001 -2.0279e-001  1.0210e-001 30563 97996,98048,98022
 1.3000e+001 98100 -1.8631e-001 -2.0332e-001 -1.5451e-001 30563 97944,97996,97970
 1.3000e+001 98264  3.0906e-002 -3.6411e-002 -9.8498e-002 30563 98048,97996,98238
 1.3000e+001 98287  2.1853e-001  2.5888e-001  1.1681e-001 30563 98048,98238,98074
 1.3000e+001 98336  1.2355e-001 -1.0876e-001 -1.1537e-002 30563 98074,98238,98310
 1.3000e+001 98359 -1.8613e-002 -1.2979e-001 -1.1283e-001 30563 98074,98310,97918
 1.3000e+001 98607 -2.1586e-001 -1.1406e-001  1.5266e-002 30073 98630,98460,98408
 1.3000e+001 98584 -3.7669e-001 -1.9986e-001 -2.9733e-002 30073 98630,98408,98382
 1.3000e+001 98561 -5.8963e-002 -2.0252e-001 -2.3339e-002 30073 98382,98512,98486
 1.3000e+001 98538 -8.9332e-002 -1.5639e-001  1.0512e-001 30073 98408,98460,98434
 1.3000e+001 98656 -1.2247e-001 -2.3096e-001 -1.9455e-002 30073 98486,98460,98630
 1.3000e+001 98679 -2.2651e-001 -2.7362e-001 -5.2457e-002 30073 98486,98630,98382
 1.3000e+001 99157  1.0430e+000 -2.5907e-001  2.1922e-001 29669 99180,98837,98811
 1.3000e+001 99134  9.0172e-001 -2.1063e-001  4.0434e-001 29669 99324,99180,98811
 1.3000e+001 99111  7.4444e-001 -1.5498e-002  6.1213e-002 29669 99252,98863,98837
 1.3000e+001 99088  8.7905e-001 -3.3812e-001  4.4239e-001 29669 99324,98811,98993
 1.3000e+001 99065  7.7484e-001  2.6764e-001  1.4228e-001 29669 98863,98941,98915
 1.3000e+001 99042 -4.0297e-001  6.8914e-002  7.8197e-002 29669 98863,98915,98889
 1.3000e+001 99019  3.7052e-001 -5.1890e-001  6.3414e-001 29669 98785,98993,98811
 1.3000e+001 99206  7.8704e-001 -3.6610e-001  1.7484e-001 29669 99252,98837,99180
 1.3000e+001 99229  4.4501e-001 -2.7088e-001  4.8892e-001 29669 98941,99180,98967
 1.3000e+001 99278  6.9515e-001  2.2568e-001  1.1903e-001 29669 98941,98863,99252
 1.3000e+001 99301  8.9195e-001  7.9246e-002  2.6552e-001 29669 98941,99252,99180
 1.3000e+001 99350  8.6184e-001 -5.2626e-002  3.9112e-001 29669 98967,99180,99324
 1.3000e+001 99373  8.7054e-001 -1.5478e-001  4.0990e-001 29669 98967,99324,98993
 1.3000e+001 99958  4.6088e-001  5.8870e-001  2.4043e-001 29051 99981,99765,99739
 1.3000e+001 99935  6.5223e-002 -1.4985e-002  6.9606e-002 29051 99981,99739,99661
 1.3000e+001 99912  1.6551e-001 -1.3205e+000  6.6484e-002 29051 99765,99817,99791
 1.3000e+001 99889  7.9079e-002 -5.4292e-001  5.7256e-002 29051 99635,99817,99661
 1.3000e+001 99866 -3.3670e-001 -5.0425e-002  3.6071e-001 29051 99661,99739,99687
 1.3000e+001 99843 -5.4825e-001  3.2862e-002  2.3104e-001 29051 99687,99739,99713
 1.3000e+001 100007  6.8089e-001  2.2049e-003  2.9866e-001 29051 99817,99765,99981
 1.3000e+001 100030  5.0851e-001 -2.7847e-001  2.2179e-001 29051 99817,99981,99661
 1.3000e+001 100278  3.5658e-001 -3.3284e-001  1.7783e-001 28525 100445,100301,100131
 1.3000e+001 100255  1.8158e-001  3.4519e-002  1.1255e-001 28525 100373,100301,100079
 1.3000e+001 100232  1.6557e-001 -2.9025e-001  1.6230e-001 28525 100373,100079,100053
 1.3000e+001 100209  1.6919e-001 -2.0837e-001  4.5312e-002 28525 100445,100131,100105
 1.3000e+001 100327  4.4875e-001 -2.8213e-001  3.1662e-001 28525 100517,100301,100157
 1.3000e+001 100350  4.4568e-001  4.7767e-001  3.8570e-001 28525 100157,100301,100183
 1.3000e+001 100399  1.5240e-001 -3.0198e-001  2.7746e-001 28525 100183,100301,100373
 1.3000e+001 100422  2.1134e-001 -5.3309e-001  3.2298e-001 28525 100183,100373,100053
 1.3000e+001 100471  1.0766e-001 -3.5079e-001 -1.3050e-001 28525 100079,100301,100445
 1.3000e+001 100494 -4.2968e-001 -4.7127e-001 -2.7160e-001 28525 100079,100445,100105
 1.3000e+001 100543  6.7831e-001  5.6947e-003  4.0272e-002 28525 100131,100301,100517
 1.3000e+001 101209 -5.8271e-001 -1.8298e-001 -4.6898e-002 28185 100938,101016,100990
 1.3000e+001 101186 -7.3820e-001 -5.7917e-002  5.4721e-002 28185 100912,101016,100938
 1.3000e+001 101163 -2.1750e-001  8.4179e-002  1.5088e-001 28185 100912,101068,101016
 1.3000e+001 101140 -6.6871e-001  1.8261e-001  1.3363e-001 28185 100886,101068,100912
 1.3000e+001 101117 -1.9494e-001  3.8718e-001  1.9815e-001 28185 101016,101068,101042
 1.3000e+001 101094 -1.6742e+000 -4.6205e-001 -1.0281e-001 28185 100938,100990,100964
 1.3000e+001 101408  1.6851e-001 -2.0366e-001 -1.0628e-001 27781 101503,101431,101310
 1.3000e+001 101385 -1.1234e-001 -3.0591e-002 -3.5307e-001 27781 101431,101258,101232
 1.3000e+001 101362  1.9663e-001 -2.2000e-001 -1.2219e-001 27781 101503,101310,101284
 1.3000e+001 101457  7.2922e-001  3.7903e-002 -1.6129e-001 27781 101336,101310,101431
 1.3000e+001 101480  1.7407e-001  9.2791e-002 -3.6533e-001 27781 101575,101431,101232
 1.3000e+001 101529  3.3283e-001 -1.8542e-001 -2.9291e-001 27781 101258,101431,101503
 1.3000e+001 101552  2.3315e-001 -2.0233e-001 -1.4294e-001 27781 101705,101503,101284
 1.3000e+001 101601  3.8286e-001  4.4340e-001 -4.5485e-001 27781 101336,101431,101575
 1.3000e+001 101731 -8.7284e-002 -3.5519e-001 -3.0848e-001 27781 101258,101503,101705
 1.3000e+001 102237 -2.0435e-001 -1.7633e-001  3.6926e-002 27419 102476,102260,101992
 1.3000e+001 102214 -7.9177e-002 -3.0362e-001  3.7676e-003 27419 102260,101940,101914
 1.3000e+001 102191 -2.8768e-001 -3.7957e-001  2.8535e-002 27419 102404,102332,102096
 1.3000e+001 102168 -2.4495e-001 -3.7847e-001 -1.7079e-002 27419 102404,102096,102044
 1.3000e+001 102145 -1.8054e-001 -1.9630e-001  5.1997e-002 27419 102476,101992,101966
 1.3000e+001 102122 -1.7580e-001 -4.1516e-001 -1.7288e-002 27419 102044,102096,102070
 1.3000e+001 102286 -2.7590e-001 -2.8682e-001  6.7820e-002 27419 102018,101992,102260
 1.3000e+001 102309 -2.3394e-001 -2.6089e-001  5.7478e-003 27419 102332,102018,102260
 1.3000e+001 102358 -2.6848e-001 -5.3368e-001  1.3036e-001 27419 101914,102096,102332
 1.3000e+001 102381 -1.6945e-001 -4.0893e-001  4.4372e-002 27419 101914,102332,102260
 1.3000e+001 102430 -1.9377e-001 -3.5150e-001  9.8524e-003 27419 102018,102332,102404
 1.3000e+001 102453 -1.6808e-001 -3.5090e-001 -4.0425e-002 27419 102018,102404,102044
 1.3000e+001 102502 -1.1765e-001 -2.7681e-001  5.5812e-002 27419 101940,102260,102476
 1.3000e+001 102525  2.7294e-001 -7.7514e-002 -1.5429e-002 27419 101940,102476,101966
 1.3000e+001 103031 -8.5167e-001 -7.1849e-001  7.5622e-001 26715 102708,102786,102760
 1.3000e+001 103008  4.9129e-002 -5.5244e-001  2.6926e-001 26715 102708,102890,102786
 1.3000e+001 102985  5.3826e-001 -1.1885e+000  3.1943e-001 26715 102838,102890,102864
 1.3000e+001 102962  1.8458e-001 -2.8113e-001  3.1442e-001 26715 102786,102890,102838
 1.3000e+001 102939  1.0897e+000  1.3846e-001  5.7968e-001 26715 102786,102838,102812
 1.3000e+001 102916 -8.8274e-001 -2.7895e-002  1.5742e-001 26715 102708,102760,102734
 1.3000e+001 103279  5.0019e-003 -1.7827e-002  4.5779e-002 26303 103302,103158,103080
 1.3000e+001 103256 -5.5112e-002  3.8528e-002  4.9512e-002 26303 103302,103080,103054
 1.3000e+001 103233 -1.2625e-001 -8.2400e-002  1.9803e-002 26303 103080,103158,103106
 1.3000e+001 103210  1.7496e-001  3.4324e-003  2.8478e-002 26303 103106,103158,103132
 1.3000e+001 103328  1.0419e-001  3.4276e-002  2.2683e-002 26303 103184,103158,103302
 1.3000e+001 103351 -1.0885e-002  4.7654e-002  3.8581e-002 26303 103184,103302,103054
 1.3000e+001 103501 -7.9607e-002 -3.8654e-001 -1.3764e-002 25849 103374,103426,103400
 1.3000e+001 103478 -1.7444e-001 -3.3385e-001  3.0331e-002 25849 103374,103452,103426
 1.3000e+001 104090  1.1117e-001 -4.4672e-002  1.3817e-001 25445 103793,103871,103819
 1.3000e+001 104067  2.9193e-001  3.1087e-002  6.0628e-002 25445 103793,103949,103871
 1.3000e+001 104044  3.3543e-001 -9.2492e-003  1.5535e-001 25445 103871,103949,103923
 1.3000e+001 104021  8.5003e-003  9.2582e-003 -3.2479e-002 25445 103819,103871,103845
 1.3000e+001 103998  3.9163e-001  1.2278e-001  1.5842e-001 25445 103767,103949,103793
 1.3000e+001 103975  3.7033e-001  4.6763e-002  1.7589e-001 25445 103871,103923,103897
 1.3000e+001 104419 -8.1281e-002 -1.1829e-001 -6.2007e-002 25083 104220,104298,104272
 1.3000e+001 104396 -1.7919e-001 -2.7390e-001 -1.0627e-002 25083 104220,104324,104298
 1.3000e+001 104373 -5.8894e-002 -8.1318e-002 -5.2349e-002 25083 104220,104272,104246
 1.3000e+001 104350 -1.4710e-001 -3.0061e-001 -1.5235e-002 25083 104194,104324,104220
 1.3000e+001 105102  8.5660e-002 -1.9407e-001  6.7778e-002 24793 104785,104863,104837
 1.3000e+001 105079  1.1242e-001 -2.6521e-001 -9.7341e-002 24793 104759,104863,104785
 1.3000e+001 105056  9.6022e-002 -3.5428e-002 -9.4513e-002 24793 104759,104915,104863
 1.3000e+001 105033  1.2985e-001 -1.5549e-001 -1.4762e-001 24793 104733,104915,104759
 1.3000e+001 105010  4.1541e-001  1.1369e-001 -1.6073e-001 24793 104863,104915,104889
 1.3000e+001 104987 -3.5280e-002  1.7099e-002 -2.7528e-001 24793 104681,104915,104733
 1.3000e+001 104964 -2.4336e-003 -2.7294e-001  2.1722e-002 24793 104785,104837,104811
 1.3000e+001 104941 -1.7654e-002  2.4333e-001 -2.3213e-001 24793 104681,104733,104707
 1.3000e+001 105252  1.1238e+000  4.7390e-001  3.5836e-002 24389 105477,105275,105177
 1.3000e+001 105229  3.6518e-001  6.6789e-002  3.1332e-001 24389 105347,105275,105151
 1.3000e+001 105301  1.0989e+000  2.4250e-001  3.9907e-002 24389 105203,105177,105275
 1.3000e+001 105324  1.4291e+000  9.3850e-001  3.7966e-001 24389 105203,105275,105125
 1.3000e+001 105373  1.1412e+000  5.2345e-001  6.5426e-002 24389 105125,105275,105347
 1.3000e+001 105503  7.8453e-001 -2.0399e-001 -7.8882e-002 24389 105151,105275,105477
 1.3000e+001 106088 -2.5193e-001  2.4410e-001  2.9191e-001 23735 105791,105921,105895
 1.3000e+001 106065 -7.4255e-001  1.3538e-001  4.4160e-001 23735 105765,105921,105791
 1.3000e+001 106042 -1.0085e-001  5.0145e-001  2.7765e-001 23735 105765,105947,105921
 1.3000e+001 106019 -9.6485e-001 -3.6784e-002  3.6074e-001 23735 105817,105895,105869
 1.3000e+001 105996 -6.1248e-001  9.5702e-002  3.6629e-001 23735 105791,105895,105817
 1.3000e+001 105973 -5.5962e-001 -3.3604e-001  4.1103e-001 23735 105817,105869,105843
 1.3000e+001 106417  4.2222e-001  7.3519e-001 -8.8251e-002 23295 106218,106296,106270
 1.3000e+001 106394  4.0437e-001  3.5205e-001 -1.1838e-001 23295 106218,106322,106296
 1.3000e+001 106371  1.9443e-001  2.4049e-001 -1.7401e-001 23295 106218,106270,106244
 1.3000e+001 106348  5.3299e-001  4.0701e-001 -4.5260e-002 23295 106192,106322,106218
 1.3000e+001 106746 -3.3548e-001  2.0582e-001  2.9373e-001 23005 106521,106599,106547
 1.3000e+001 106723  2.2869e-001  7.4642e-001  7.2457e-002 23005 106521,106651,106599
 1.3000e+001 106700  3.8287e-001  8.6670e-002 -1.2365e-001 23005 106547,106599,106573
 1.3000e+001 106677  3.0364e-001  6.2299e-001  3.5766e-001 23005 106599,106651,106625
 1.3000e+001 107331 -1.5348e-001  3.4793e-001 -3.5558e-001 22601 107060,107190,107138
 1.3000e+001 107308 -1.1772e+000  1.0440e+000 -6.6702e-001 22601 107034,107190,107060
 1.3000e+001 107285 -2.4341e+000 -6.3845e-001 -4.4688e-001 22601 107060,107138,107112
 1.3000e+001 107262 -1.5972e+000  1.6811e+000  9.7635e-001 22601 107008,107190,107034
 1.3000e+001 107239  3.0836e-001 -3.5030e+000  1.0206e-001 22601 107060,107112,107086
 1.3000e+001 107216 -1.2174e+000  2.8710e+000  6.5074e-001 22601 107138,107190,107164
 1.3000e+001 107807 -1.1656e-001  7.5043e-002 -2.1489e-002 22031 107974,107902,107617
 1.3000e+001 107784 -1.1878e-001  2.1357e-001 -8.3928e-002 22031 107830,107565,107513
 1.3000e+001 107761 -3.3819e-003  3.2553e-002 -1.0634e-001 22031 108046,107830,107513
 1.3000e+001 107738 -6.6479e-002  1.7199e-001  1.1002e-002 22031 107974,107617,107591
 1.3000e+001 107715 -2.3171e-002 -1.2507e-003 -1.2025e-001 22031 108046,107513,107461
 1.3000e+001 107692 -3.5601e-001  2.6902e-001 -1.3506e-001 22031 107513,107565,107539
 1.3000e+001 107669  1.1287e-001  2.0499e-001 -1.8650e-001 22031 107461,107513,107487
 1.3000e+001 107856 -1.8222e-001  1.2790e-001 -4.8027e-002 22031 107902,107565,107830
 1.3000e+001 107879 -4.6988e-002 -7.8520e-002 -4.7071e-003 22031 107643,107830,107435
 1.3000e+001 107928 -3.2533e-001  1.0976e-001 -1.5568e-001 22031 107643,107617,107902
 1.3000e+001 107951 -1.7547e-001  1.1799e-001  2.3246e-002 22031 107643,107902,107830
 1.3000e+001 108000 -1.4424e-001  2.1364e-001 -4.1432e-002 22031 107565,107902,107974
 1.3000e+001 108023 -1.4371e-001  1.9081e-001 -3.7127e-002 22031 107565,107974,107591
 1.3000e+001 108072  4.6212e-002 -5.3081e-003 -5.2362e-002 22031 107435,107830,108046
 1.3000e+001 108095  2.0875e-002 -5.9346e-002 -6.8433e-002 22031 107435,108046,107461
 1.3000e+001 108196  7.4855e-002 -1.0440e-001  1.2063e-002 21783 108118,108170,108144
 1.3000e+001 108655  1.5289e-001  8.7544e-001  5.1452e-001 21379 108407,108485,108459
 1.3000e+001 108632  1.7976e+000  3.9341e-001  5.6992e-001 21379 108407,108511,108485
 1.3000e+001 108609  1.7291e+000  8.7316e-001  1.1542e+000 21379 108381,108511,108407
 1.3000e+001 108586  7.2431e-001  1.6899e+000  3.9283e-002 21379 108381,108537,108511
 1.3000e+001 108563  4.6322e-001  1.1938e-001  2.3445e-001 21379 108407,108459,108433
 1.3000e+001 109082  1.8937e-001 -6.6775e-001 -5.0792e-002 20974 109105,108863,108811
 1.3000e+001 109059 -1.8867e-001 -8.3338e-001 -2.2404e-002 20974 109105,108811,108759
 1.3000e+001 109036  1.1999e-002 -1.8506e+000  2.1918e-001 20974 109177,108889,108863
 1.3000e+001 109013 -1.2483e-001 -6.4153e-001  4.2278e-002 20974 108811,108863,108837
 1.3000e+001 108990  1.6125e-001 -8.3448e-002 -1.6182e-002 20974 108759,108941,108915
 1.3000e+001 108967  7.6925e-002 -7.3231e-002 -6.6043e-003 20974 108759,108811,108785
 1.3000e+001 109131 -1.6772e-001 -1.4481e+000  5.6379e-002 20974 109177,108863,109105
 1.3000e+001 109154  1.2381e-002 -4.5060e-002 -5.4844e-002 20974 108915,109105,108759
 1.3000e+001 109203 -1.4802e-001 -1.5389e+000 -3.0610e-001 20974 108915,108889,109177
 1.3000e+001 109226  2.4748e-002 -5.0698e-001 -3.9326e-001 20974 108915,109177,109105
 1.3000e+001 109496 -2.7336e-001  3.9069e-002 -3.9265e-002 20470 109271,109375,109297
 1.3000e+001 109473 -2.3543e-001  6.7643e-002 -5.1964e-002 20470 109271,109401,109375
 1.3000e+001 109450 -3.2960e-001 -5.6071e-003 -5.9163e-002 20470 109297,109375,109349
 1.3000e+001 109427 -4.8666e-001 -3.0166e-001  1.0192e-001 20470 109297,109349,109323
 1.3000e+001 109955  1.0327e-001  3.7910e-001  2.9362e-001 20123 110050,109733,109707
 1.3000e+001 109932 -1.5995e-001  2.8899e-001  2.7033e-001 20123 110050,109707,109681
 1.3000e+001 109909  1.6593e-001  1.5348e-001  2.3023e-001 20123 109978,109759,109733
 1.3000e+001 109886  7.6622e-002  1.4396e-001  2.2790e-001 20123 110122,109978,109733
 1.3000e+001 109863  1.7552e-001  6.2525e-002  2.1203e-001 20123 109785,109837,109811
 1.3000e+001 110004  1.7017e-001  1.7732e-001  1.9797e-001 20123 109785,109759,109978
 1.3000e+001 110027  1.5844e-001  1.6727e-001  1.8768e-001 20123 109785,109978,109837
 1.3000e+001 110076  1.6493e-002  2.1727e-001  1.9134e-001 20123 110122,109733,110050
 1.3000e+001 110099 -3.7508e-003  3.5098e-001  1.5251e-001 20123 109837,110050,109681
 1.3000e+001 110148  1.9107e-001  2.4588e-001  1.8487e-001 20123 109837,109978,110122
 1.3000e+001 110171  1.3898e-001  3.1275e-001  1.4852e-001 20123 109837,110122,110050
 1.3000e+001 110500  3.5889e-001 -4.4440e-002  2.6644e-002 19511 110301,110379,110353
 1.3000e+001 110477  9.0580e-001  3.8768e-001 -2.0092e-001 19511 110301,110405,110379
 1.3000e+001 110454  3.8921e-001  8.3083e-002  1.2083e-002 19511 110275,110405,110301
 1.3000e+001 110431  3.2070e-001 -1.3018e-001  3.4029e-002 19511 110301,110353,110327
 1.3000e+001 110957  3.2453e-001  1.3563e+000  3.3433e-001 19107 110683,110735,110709
 1.3000e+001 110934  5.9966e-001  1.0056e+000 -1.3788e-002 19107 110683,110813,110735
 1.3000e+001 110911  1.0978e+000  1.2846e+000  2.7886e-001 19107 110735,110813,110761
 1.3000e+001 110888  1.4629e+000  9.6344e-001  6.4004e-001 19107 110683,110839,110813
 1.3000e+001 110865  1.1591e+000  1.1917e+000 -9.4824e-002 19107 110761,110813,110787
 1.3000e+001 111335  9.3268e-001 -1.1123e+000  5.4057e-001 18653 111087,111165,111139
 1.3000e+001 111312  8.2580e-001 -2.9582e-002  2.4793e-001 18653 111087,111217,111165
 1.3000e+001 111289  1.5595e-001 -4.4043e-001  1.0964e+000 18653 111061,111217,111087
 1.3000e+001 111266  1.6401e+000 -1.3138e+000  1.7361e+000 18653 111087,111139,111113
 1.3000e+001 111243  7.1321e-001 -2.6778e-002 -1.2795e-001 18653 111165,111217,111191
 1.3000e+001 111735 -3.6837e-001 -2.9205e-001  1.2061e-001 18213 111461,111513,111487
 1.3000e+001 111712 -1.9937e-001 -2.9390e-001  5.3005e-002 18213 111461,111617,111513
 1.3000e+001 111689 -1.1414e-001 -8.6894e-002  8.5198e-002 18213 111513,111617,111591
 1.3000e+001 111666 -2.0519e-002 -1.5345e-001  1.0542e-001 18213 111513,111591,111539
 1.3000e+001 111643  1.3807e-001 -3.4497e-002  4.5104e-002 18213 111539,111591,111565
 1.3000e+001 111885 -7.3949e-001 -3.9813e+000 -1.3137e-001 17659 111784,111836,111810
 1.3000e+001 111862 -5.5031e-001 -2.8409e+000  3.3894e-001 17659 111758,111836,111784
 1.3000e+001 112287 -5.7346e-001 -3.1030e+000 -1.0443e+000 17411 112065,112169,112143
 1.3000e+001 112264 -1.8097e+000 -1.3847e+000 -9.2566e-001 17411 112039,112169,112065
 1.3000e+001 112241 -1.5377e+000 -9.5566e-001 -6.9862e-001 17411 112013,112169,112039
 1.3000e+001 112218  3.3061e+000 -2.3591e+000 -1.0090e+000 17411 112091,112143,112117
 1.3000e+001 112195 -7.4918e-002 -2.7284e+000 -2.3732e-001 17411 112065,112143,112091
 1.3000e+001 112508 -2.5077e-001  2.5405e-001  3.9427e-002 17007 112384,112436,112410
 1.3000e+001 112485 -1.5650e-001  3.4473e-001  7.8540e-002 17007 112332,112436,112384
 1.3000e+001 112462 -2.4117e-001  1.8074e-001  4.8269e-002 17007 112332,112384,112358
 1.3000e+001 112658 -6.2601e-001 -5.0834e-001  3.7525e-001 16553 112557,112609,112583
 1.3000e+001 112635 -1.2218e+000 -4.2978e-003  5.2574e-001 16553 112531,112609,112557
 1.3000e+001 112761  1.9764e-001 -1.0335e+000  4.9657e-002 16355 112683,112735,112709
 1.3000e+001 112913 -4.4642e-001  3.2058e-001  3.2427e-002 15949 112786,112838,112812
 1.3000e+001 112890 -1.7278e-001  7.9784e-001 -9.3943e-002 15949 112786,112864,112838
 1.3000e+001 113065  1.0447e-001 -4.8968e-001 -9.7138e-003 15609 112938,112990,112964
 1.3000e+001 113042 -1.2909e-001 -1.1435e+000 -3.2546e-001 15609 112938,113016,112990
 1.3000e+001 113420  4.5989e-001  3.0934e-001  1.0868e-001 15284 113247,113325,113299
 1.3000e+001 113397  4.4524e-001  2.7130e-001  3.4652e-002 15284 113195,113325,113247
 1.3000e+001 113374  2.9800e-001  2.1023e-001  3.8513e-002 15284 113195,113247,113221
 1.3000e+001 113351  3.6063e-001  4.4094e-001  9.2394e-002 15284 113247,113299,113273
 1.3000e+001 113521  1.5357e-001 -1.5205e-001  9.4206e-002 202 113443,113495,113469
 1.3500e+001 65564  1.1888e-002 -1.0035e-001 -2.4165e-002 65155 65414,65466,65440
 1.3500e+001 65541 -4.5320e-002 -3.2347e-002  3.9535e-002 65155 65414,65492,65466
 1.3500e+001 65518 -2.7423e-002 -3.1074e-002  5.0324e-002 65155 65388,65492,65414
 1.3500e+001 65883  1.5767e-001 -7.7552e-001 -1.6221e-002 64957 65635,65739,65713
 1.3500e+001 65860  1.2826e-001 -1.1746e+000 -5.8493e-002 64957 65635,65765,65739
 1.3500e+001 65837 -9.4707e-002 -1.2934e+000 -3.1572e-003 64957 65609,65765,65635
 1.3500e+001 65814  1.3576e-001 -9.5354e-001  2.6602e-001 64957 65635,65713,65687
 1.3500e+001 65791  1.4675e-002 -1.1473e+000  1.6354e-001 64957 65635,65687,65661
 1.3500e+001 65984 -6.5482e-002  8.5782e-004  6.2313e-002 64781 65906,65958,65932
 1.3500e+001 66232 -3.3625e-001 -4.4106e-001  3.7987e-001 64469 66007,66059,66033
 1.3500e+001 66209  4.6923e-002 -4.9568e-001  4.2203e-001 64469 66007,66085,66059
 1.3500e+001 66186 -2.7853e-001 -1.2162e+000  5.9855e-001 64469 66007,66137,66085
 1.3500e+001 66163 -1.7836e-001 -1.5626e+000  1.2080e+000 64469 66085,66137,66111
 1.3500e+001 66504  9.9060e-003 -1.1304e+000  2.7491e-002 64271 66279,66383,66305
 1.3500e+001 66481  1.2213e-001 -1.1287e+000 -3.6918e-002 64271 66279,66409,66383
 1.3500e+001 66458  2.1311e-001 -1.4224e+000  2.9752e-002 64271 66305,66357,66331
 1.3500e+001 66435 -8.1018e-002 -1.2853e+000  6.7103e-002 64271 66305,66383,66357
 1.3500e+001 66705  4.2629e-001 -2.9936e+000  2.4659e-001 64073 66728,66581,66555
 1.3500e+001 66682  4.3554e-001 -2.1293e+000  4.6545e-001 64073 66728,66555,66529
 1.3500e+001 66659  2.0223e-001 -1.9016e+000 -3.3253e-001 64073 66581,66633,66607
 1.3500e+001 66754 -1.2490e-001 -2.1791e+000 -6.8620e-002 64073 66633,66581,66728
 1.3500e+001 66777  9.9649e-002 -1.0466e+000  2.4248e-002 64073 66633,66728,66529
 1.3500e+001 66951 -1.4097e-001 -5.0075e-001 -5.9519e-002 63783 66824,66876,66850
 1.3500e+001 66928  5.2079e-001 -3.9697e-001  2.0686e-001 63783 66824,66902,66876
 1.3500e+001 67201 -6.1232e-001 -1.4618e+000 -1.3977e-001 63585 66976,67080,67054
 1.3500e+001 67178 -1.1167e-001 -1.2698e+000  7.0311e-002 63585 66976,67106,67080
 1.3500e+001 67155  2.3910e-001 -1.7192e+000 -6.0207e-001 63585 66976,67054,67028
 1.3500e+001 67132  1.6766e-002 -2.2629e+000 -5.3990e-001 63585 66976,67028,67002
 1.3500e+001 67654  8.6843e-002 -8.6906e-001 -1.8888e-002 63295 67357,67487,67383
 1.3500e+001 67631  9.3603e-002 -1.0797e+000  1.2977e-001 63295 67331,67487,67357
 1.3500e+001 67608 -6.5164e-002 -1.2735e+000 -2.1358e-002 63295 67331,67513,67487
 1.3500e+001 67585  1.5915e-003 -1.2944e+000  5.1375e-003 63295 67435,67487,67461
 1.3500e+001 67562 -6.4690e-002 -1.3167e+000  3.9711e-003 63295 67383,67487,67435
 1.3500e+001 67539  3.0672e-002 -1.2125e+000  4.4281e-002 63295 67383,67435,67409
 1.3500e+001 67853 -6.4112e-002 -1.1642e+000  6.9281e-003 62891 67876,67703,67677
 1.3500e+001 67830 -4.8563e-002 -1.2143e+000 -1.7256e-002 62891 67876,67677,67781
 1.3500e+001 67807  2.5147e-002 -1.0181e+000 -6.4370e-002 62891 67948,67729,67703
 1.3500e+001 67902 -2.6708e-002 -1.1433e+000  1.9829e-002 62891 67948,67703,67876
 1.3500e+001 67925 -1.8174e-001 -1.1317e+000  5.2056e-002 62891 67755,67876,67781
 1.3500e+001 67974 -8.0873e-002 -8.5193e-001 -6.9215e-002 62891 67755,67729,67948
 1.3500e+001 67997 -6.1987e-002 -9.1569e-001 -3.6884e-003 62891 67755,67948,67876
 1.3500e+001 68218  6.9147e-002 -1.7907e-002 -8.9796e-002 62693 68042,68120,68068
 1.3500e+001 68195  2.0826e-002  1.4171e-003  1.3883e-005 62693 68042,68146,68120
 1.3500e+001 68172 -2.5069e-001  2.1924e-001 -4.6185e-002 62693 68068,68120,68094
 1.3500e+001 68468  2.6069e-001 -5.2988e-002  2.6558e-003 62289 68491,68295,68269
 1.3500e+001 68445  5.4243e-002 -7.6735e-002 -1.4041e-001 62289 68563,68491,68269
 1.3500e+001 68422  7.4226e-002  3.8620e-002 -5.7958e-002 62289 68563,68269,68243
 1.3500e+001 68399 -1.7878e-001 -1.9125e-001  3.3514e-002 62289 68295,68347,68321
 1.3500e+001 68517  1.2544e-001 -2.3635e-001 -6.1803e-002 62289 68347,68295,68491
 1.3500e+001 68540 -1.6507e-001 -8.2543e-002 -2.1235e-001 62289 68347,68491,68373
 1.3500e+001 68589  8.8819e-002  1.4792e-001 -1.1602e-001 62289 68373,68491,68563
 1.3500e+001 68612  5.2411e-002  1.8843e-001 -3.5097e-002 62289 68373,68563,68243
 1.3500e+001 68911 -8.0631e-002 -1.1566e+000  4.3131e-003 62091 69222,68934,68741
 1.3500e+001 68888  1.0952e-001 -1.1175e+000 -3.5478e-002 62091 69006,68934,68689
 1.3500e+001 68865  1.4465e-001 -1.0919e+000  1.2308e-002 62091 69006,68689,68663
 1.3500e+001 68842 -1.3347e-001 -1.1703e+000 -1.3615e-001 62091 69078,68793,68767
 1.3500e+001 68819 -1.9941e-001 -1.2271e+000  1.7146e-001 62091 69222,68741,68715
 1.3500e+001 68960 -1.9167e-001 -1.1654e+000  1.7062e-002 62091 68767,68741,68934
 1.3500e+001 68983 -6.2138e-002 -1.2179e+000 -3.5097e-002 62091 69078,68767,68934
 1.3500e+001 69032  9.8627e-002 -1.1289e+000 -2.1399e-002 62091 69150,69006,68637
 1.3500e+001 69055  9.0985e-002 -1.1390e+000 -1.1544e-002 62091 68637,69006,68663
 1.3500e+001 69104 -3.3438e-002 -9.3681e-001 -6.7080e-002 62091 68637,68793,69078
 1.3500e+001 69127  7.0334e-002 -1.0917e+000 -5.2932e-003 62091 69150,68637,69078
 1.3500e+001 69176  3.6037e-002 -1.1381e+000 -4.2074e-002 62091 68934,69006,69150
 1.3500e+001 69199 -2.3554e-002 -1.1224e+000 -1.6610e-002 62091 68934,69150,69078
 1.3500e+001 69248 -9.5962e-004 -9.8675e-001 -2.1341e-002 62091 68689,68934,69222
 1.3500e+001 69271 -2.7813e-002 -9.3402e-001  9.6409e-002 62091 68689,69222,68715
 1.3500e+001 69521 -2.9010e-001  1.3432e-001 -4.4579e-003 61893 69544,69348,69296
 1.3500e+001 69498 -6.6437e-002  1.7136e-001  3.9898e-002 61893 69544,69296,69400
 1.3500e+001 69475  6.5681e-002  1.8435e-001  2.2463e-002 61893 69296,69426,69400
 1.3500e+001 69452 -2.4272e-001 -4.7805e-001 -1.2172e-001 61893 69296,69348,69322
 1.3500e+001 69570 -1.7154e-001  3.9610e-002  1.6803e-001 61893 69374,69348,69544
 1.3500e+001 69593  2.2220e-001  1.7317e-001  2.0201e-001 61893 69374,69544,69400
 1.3500e+001 70046  6.8000e-002 -9.3063e-001 -9.6936e-003 61467 69749,69905,69879
 1.3500e+001 70023  1.4315e-001 -7.3129e-001  2.0913e-001 61467 69723,69905,69749
 1.3500e+001 70000  5.3196e-002 -9.9131e-001 -3.0204e-002 61467 70069,69827,69775
 1.3500e+001 69977 -1.1240e-001 -1.4165e+000  1.1440e-001 61467 70069,69775,69749
 1.3500e+001 69954 -4.1612e-002 -7.2113e-001 -3.1522e-002 61467 70141,69853,69827
 1.3500e+001 69931  9.2121e-002 -1.2875e+000 -3.8409e-001 61467 69775,69827,69801
 1.3500e+001 70095  9.1537e-003 -7.9306e-001 -7.8138e-002 61467 70141,69827,70069
 1.3500e+001 70118  5.7198e-002 -9.7656e-001  2.6072e-004 61467 69879,70069,69749
 1.3500e+001 70167  9.8959e-003 -8.3089e-001 -2.7345e-002 61467 69879,69853,70141
 1.3500e+001 70190 -1.5339e-002 -1.0013e+000 -7.5080e-002 61467 69879,70141,70069
 1.3500e+001 70291 -1.0606e-001 -1.6525e+000 -1.9033e-001 61013 70213,70265,70239
 1.3500e+001 70441  1.7773e-003 -4.0551e-002 -1.0112e-001 60651 70340,70392,70366
 1.3500e+001 70418  4.2475e-002 -1.8425e-001 -2.7819e-002 60651 70314,70392,70340
 1.3500e+001 70642  8.6202e-002 -7.3258e-001 -2.0700e-001 60311 70665,70492,70466
 1.3500e+001 70619 -1.4889e-001 -1.3353e+000 -2.9814e-001 60311 70665,70466,70570
 1.3500e+001 70596 -3.3785e+000 -1.5725e-001  3.2370e-001 60311 70492,70544,70518
 1.3500e+001 70691  6.1794e-002 -1.2287e-001  4.1446e-001 60311 70544,70492,70665
 1.3500e+001 70714 -3.1785e-001 -1.0417e+000  3.3700e-001 60311 70544,70665,70570
 1.3500e+001 70964  3.1511e-001 -1.3154e+000  1.4880e-001 59907 70987,70765,70739
 1.3500e+001 70941  3.0063e-001 -1.3721e+000 -4.2489e-002 59907 71059,70987,70739
 1.3500e+001 70918  1.6308e-001 -1.5862e+000  1.8576e-002 59907 71059,70739,70869
 1.3500e+001 70895  1.6202e-001 -1.1650e+000  1.5766e-002 59907 70817,70869,70843
 1.3500e+001 71013  1.2797e+000 -8.4215e-001  6.0209e-001 59907 70791,70765,70987
 1.3500e+001 71036  4.1355e-001 -1.5113e+000  2.0456e-001 59907 70791,70987,70817
 1.3500e+001 71085  1.3392e-001 -1.2436e+000 -2.7595e-002 59907 70817,70987,71059
 1.3500e+001 71108  1.3522e-001 -1.2954e+000 -2.6471e-002 59907 70817,71059,70869
 1.3500e+001 71441 -5.0817e-001 -8.2817e-001  5.9495e-001 59417 71464,71242,71216
 1.3500e+001 71418 -3.0518e-001 -4.6556e-001  8.4179e-001 59417 71464,71216,71320
 1.3500e+001 71395 -5.1046e-001 -3.6174e-001  9.1830e-001 59417 71216,71346,71320
 1.3500e+001 71372 -5.7282e-001 -7.9928e-001  3.4743e-001 59417 71268,71320,71294
 1.3500e+001 71490 -7.3594e-001 -8.7675e-001  2.1055e-001 59417 71268,71242,71464
 1.3500e+001 71513 -6.2886e-001 -3.6462e-001  4.4880e-001 59417 71268,71464,71320
 1.3500e+001 71712  1.5375e+000  1.3796e+000  4.7682e-001 58913 71562,71614,71588
 1.3500e+001 71689  9.2175e-001  1.0127e+000  3.1989e-001 58913 71536,71614,71562
 1.3500e+001 71666  5.2530e-001  2.0036e+000 -1.5951e-001 58913 71536,71640,71614
 1.3500e+001 72171 -9.1921e-001 -2.1285e+000  1.7797e-001 58409 72194,72027,72001
 1.3500e+001 72148 -7.9168e-001 -2.5200e+000 -8.3243e-002 58409 72194,72001,71949
 1.3500e+001 72125 -4.8288e-001 -1.3692e+000 -4.5744e-002 58409 71923,72053,71949
 1.3500e+001 72102 -1.0241e+000 -2.5243e+000 -2.0476e-001 58409 71949,72001,71975
 1.3500e+001 72079 -2.5772e-001 -9.7563e-001  2.8506e-001 58409 71897,72053,71923
 1.3500e+001 72220 -6.7097e-001 -1.9563e+000  3.4040e-001 58409 72053,72027,72194
 1.3500e+001 72243 -5.6473e-001 -2.2343e+000  6.6239e-002 58409 72053,72194,71949
 1.3500e+001 72491  8.6921e-001  1.3268e+000  2.8571e-001 57855 72514,72318,72292
 1.3500e+001 72468  1.3093e+000  1.3217e+000  5.3534e-001 57855 72514,72292,72266
 1.3500e+001 72445  7.5957e-001  1.3105e+000  3.9239e-001 57855 72318,72396,72370
 1.3500e+001 72422  5.8111e-001  1.3385e+000  3.0171e-001 57855 72318,72370,72344
 1.3500e+001 72540  8.2145e-001  1.5019e+000  3.9519e-001 57855 72396,72318,72514
 1.3500e+001 72563  8.6369e-001  1.6420e+000  4.8002e-001 57855 72396,72514,72266
 1.3500e+001 72811 -2.7138e-001 -2.2720e+000  1.1919e+000 57401 72612,72690,72638
 1.3500e+001 72788 -2.2273e+000 -3.0990e+000  1.5849e+000 57401 72586,72690,72612
 1.3500e+001 72765  3.7708e+000 -3.8903e+000  1.4816e-001 57401 72638,72690,72664
 1.3500e+001 72742  2.8029e-001 -1.2806e+000  7.4622e-001 57401 72586,72716,72690
 1.3500e+001 73144 -6.7529e-002 -1.0796e+000 -1.9108e-002 57004 72919,72997,72945
 1.3500e+001 73121 -1.5715e-001 -1.3407e+000  6.0575e-002 57004 72919,73049,72997
 1.3500e+001 73098 -2.0613e-001 -9.7294e-001 -1.1530e-001 57004 72945,72997,72971
 1.3500e+001 73075 -1.3281e-001 -1.3293e+000  9.8129e-002 57004 72997,73049,73023
 1.3500e+001 73650 -3.9039e-001 -3.1876e+000  1.6984e-001 56592 73673,73379,73353
 1.3500e+001 73627 -7.6782e-001 -2.4895e+000  1.2299e+000 56592 73673,73353,73327
 1.3500e+001 73604  7.0158e-001 -1.7465e+000  1.0339e+000 56592 73745,73509,73483
 1.3500e+001 73581  1.2153e+000 -1.7911e+000  6.9461e-001 56592 73379,73457,73405
 1.3500e+001 73558  1.5601e+000 -1.8045e+000  1.0144e+000 56592 73379,73483,73457
 1.3500e+001 73535  2.3841e+000 -1.1597e+000  9.5145e-001 56592 73405,73457,73431
 1.3500e+001 73699  9.3447e-002 -2.4396e+000  6.8221e-001 56592 73483,73379,73673
 1.3500e+001 73722  5.8596e-001 -2.3893e+000  1.2680e+000 56592 73745,73483,73673
 1.3500e+001 73771  3.8949e-001 -4.0211e-001  5.5857e-001 56592 73327,73509,73745
 1.3500e+001 73794 -7.7642e-002 -1.2085e+000  9.5930e-001 56592 73327,73745,73673
 1.3500e+001 74123  3.5639e-001  2.2974e-001 -5.9655e-001 56152 74146,74002,73924
 1.3500e+001 74100  5.7270e-001  1.8768e-001 -4.5214e-001 56152 74146,73924,73898
 1.3500e+001 74077  1.2793e+000  7.3036e-001 -8.4286e-001 56152 73924,74002,73976
 1.3500e+001 74054  6.1956e-001 -7.6623e-001  3.7453e-001 56152 73924,73976,73950
 1.3500e+001 74172  1.7463e-001  5.1297e-001 -4.7077e-001 56152 74028,74002,74146
 1.3500e+001 74195  4.8252e-001  3.6881e-001 -3.2324e-001 56152 74028,74146,73898
 1.3500e+001 74345  1.5793e+000 -2.3538e-001 -6.7612e-001 55634 74218,74270,74244
 1.3500e+001 74322  1.5054e-001 -2.1709e-001 -3.0957e-001 55634 74218,74296,74270
 1.3500e+001 74823 -9.3350e-002 -2.6512e+000  4.4040e-001 55016 74918,74846,74581
 1.3500e+001 74800 -4.1398e-001 -2.7933e+000  1.3795e-001 55016 74846,74477,74633
 1.3500e+001 74777 -7.3528e-001 -3.2376e+000  6.8450e-001 55016 74918,74581,74555
 1.3500e+001 74754 -7.4331e-001 -2.3403e+000  1.8626e-001 55016 74990,74503,74477
 1.3500e+001 74731 -3.3443e-001 -3.2522e+000 -6.1488e-001 55016 74451,74633,74477
 1.3500e+001 74708 -1.4396e+000 -2.3341e+000 -9.0242e-001 55016 74451,74659,74633
 1.3500e+001 74685 -1.7423e+000 -1.4506e+000  1.4593e+000 55016 74503,74555,74529
 1.3500e+001 74872 -4.4062e-001 -3.4921e+000  4.1625e-001 55016 74607,74581,74846
 1.3500e+001 74895 -2.0236e-001 -3.0169e+000  2.3283e-001 55016 74607,74846,74633
 1.3500e+001 74944 -9.4036e-001 -3.0838e+000  2.7947e-001 55016 74477,74846,74918
 1.3500e+001 74967 -7.1903e-001 -2.4729e+000  2.9239e-001 55016 74990,74477,74918
 1.3500e+001 75016 -8.2886e-001 -2.3500e+000  5.8725e-001 55016 74555,74503,74990
 1.3500e+001 75039 -9.2713e-001 -2.7490e+000  6.8574e-001 55016 74555,74990,74918
 1.3500e+001 75287 -8.8959e-001 -6.4945e+000  9.9844e-001 54726 75310,75140,75114
 1.3500e+001 75264 -1.4120e+000 -5.5016e+000  6.9183e-001 54726 75310,75114,75088
 1.3500e+001 75241  1.8293e-001 -4.4551e+000  1.6003e-001 54726 75088,75192,75166
 1.3500e+001 75218 -8.0188e-001 -9.9763e-001  8.9689e-001 54726 75062,75192,75088
 1.3500e+001 75336 -1.5337e-001 -5.8817e+000  4.7169e-001 54726 75166,75140,75310
 1.3500e+001 75359 -1.2023e+000 -5.0000e+000  3.9308e-001 54726 75166,75310,75088
 1.3500e+001 75946 -1.2448e-001 -5.1591e-001 -1.7873e-001 54322 75969,75701,75649
 1.3500e+001 75923  1.5697e-001 -3.7677e-001 -2.3055e-001 54322 75969,75649,75623
 1.3500e+001 75900 -1.5186e-002 -3.6990e-001 -2.4754e-002 54322 76041,75753,75701
 1.3500e+001 75877 -7.0179e-002 -8.4557e-001 -3.6386e-002 54322 75623,75805,75779
 1.3500e+001 75854 -4.7913e-002 -4.6730e-001  1.8780e-001 54322 75701,75753,75727
 1.3500e+001 75831 -3.3049e-003 -1.6490e-001 -6.6266e-002 54322 75649,75701,75675
 1.3500e+001 75995  8.1751e-002 -4.2314e-001 -1.0540e-001 54322 76041,75701,75969
 1.3500e+001 76018  9.4997e-002 -5.5415e-001 -1.2125e-001 54322 75779,75969,75623
 1.3500e+001 76067 -7.5309e-002 -5.1134e-001  1.0927e-002 54322 75779,75753,76041
 1.3500e+001 76090 -6.1378e-003 -6.1337e-001 -6.9276e-002 54322 75779,76041,75969
 1.3500e+001 76468 -1.9978e-002 -5.5278e-001 -7.1136e-002 53868 76491,76272,76220
 1.3500e+001 76445  7.4575e-002 -5.7073e-001 -2.1321e-002 53868 76491,76220,76324
 1.3500e+001 76422 -2.7677e-002 -7.6598e-001 -9.0918e-002 53868 76220,76272,76246
 1.3500e+001 76399  1.2345e-001 -6.2035e-001 -4.5905e-002 53868 76194,76324,76220
 1.3500e+001 76376  5.8970e-001 -4.3343e-001  7.7198e-002 53868 76194,76350,76324
 1.3500e+001 76517  3.3176e-002 -5.1175e-001 -1.7483e-002 53868 76298,76272,76491
 1.3500e+001 76540  1.2751e-001 -5.4205e-001  2.7994e-002 53868 76298,76491,76324
 1.3500e+001 76690  1.0814e-002 -7.3565e-001  7.5273e-002 53356 76589,76641,76615
 1.3500e+001 76667 -2.0829e-001 -9.4562e-001 -1.9826e-002 53356 76563,76641,76589
 1.3500e+001 76938  2.0052e-001  3.4012e-001  1.1299e-001 53009 77105,76961,76765
 1.3500e+001 76915 -8.0321e-002 -1.6002e+000 -5.9161e-001 53009 76961,76713,76843
 1.3500e+001 76892 -2.4469e-001 -7.5987e-001  7.7582e-002 53009 77033,76817,76791
 1.3500e+001 76869  5.7886e-001  1.7322e+000 -6.7747e-002 53009 77105,76765,76739
 1.3500e+001 76987 -2.6785e-001 -7.2257e-001 -1.6463e-001 53009 76791,76765,76961
 1.3500e+001 77010 -1.9911e-001 -4.6835e-001 -1.9865e-001 53009 77033,76791,76961
 1.3500e+001 77059  2.0387e-001 -5.0937e-001 -1.8182e-001 53009 76843,76817,77033
 1.3500e+001 77082  1.5870e-001 -3.8754e-001 -4.3982e-001 53009 76843,77033,76961
 1.3500e+001 77131  8.1626e-001 -6.3769e-002 -1.0148e+000 53009 76713,76961,77105
 1.3500e+001 77154  1.0036e+000  4.5346e-001 -1.2183e+000 53009 76713,77105,76739
 1.3500e+001 77355  5.5603e-001 -4.2139e+000  4.7983e-001 52390 77378,77257,77231
 1.3500e+001 77332  6.8429e-001 -5.4010e+000  6.5767e-001 52390 77378,77231,77179
 1.3500e+001 77309  1.4075e+000 -3.9376e+000  4.1564e-001 52390 77179,77231,77205
 1.3500e+001 77404  8.6288e-001 -5.1718e+000  1.0796e+000 52390 77283,77257,77378
 1.3500e+001 77427  7.5948e-001 -6.7666e+000  1.1617e+000 52390 77283,77378,77179
 1.3500e+001 77677 -1.1486e+000  1.2404e+000 -1.4908e+000 51986 77700,77504,77478
 1.3500e+001 77654 -2.2870e-001  1.2061e+000 -1.3267e+000 51986 77700,77478,77452
 1.3500e+001 77631  3.9989e-001  1.1573e+000 -1.3987e+000 51986 77772,77556,77530
 1.3500e+001 77608  3.5509e+000  2.1740e+000 -2.2873e+000 51986 77452,77582,77556
 1.3500e+001 77726 -3.7400e-001  1.5638e+000 -9.6744e-001 51986 77530,77504,77700
 1.3500e+001 77749  3.6116e-001  1.1444e+000 -1.1230e+000 51986 77772,77530,77700
 1.3500e+001 77798  8.3016e-002  1.0031e+000 -1.3145e+000 51986 77452,77556,77772
 1.3500e+001 77821 -8.4585e-002  9.9432e-001 -1.0781e+000 51986 77452,77772,77700
 1.3500e+001 78282 -7.9692e-001 -2.8556e+000  1.8961e-001 51738 78008,78138,78060
 1.3500e+001 78259 -1.0596e+000 -3.6686e+000  2.1331e+000 51738 78008,78164,78138
 1.3500e+001 78236 -8.2988e-001 -1.9699e+000  6.8271e-001 51738 78086,78138,78112
 1.3500e+001 78213 -8.0485e-001 -1.6473e+000  5.8232e-001 51738 78060,78138,78086
 1.3500e+001 78190  2.9268e-001 -3.3451e+000 -4.2863e-001 51738 78008,78060,78034
 1.3500e+001 78432  2.4742e-001 -4.4615e-001  2.3902e-002 51148 78305,78357,78331
 1.3500e+001 78409  1.5935e-001 -3.2466e-001  3.0865e-002 51148 78305,78383,78357
 1.3500e+001 78891 -1.0729e-001 -6.0530e-001 -7.6334e-002 50808 78914,78695,78669
 1.3500e+001 78868 -3.7617e-002 -4.2616e-001 -3.9789e-002 50808 78914,78669,78643
 1.3500e+001 78845 -6.5851e-002 -5.6514e-001 -3.1764e-001 50808 78643,78773,78747
 1.3500e+001 78822 -4.8503e-002 -6.0545e-001 -3.0817e-001 50808 78617,78773,78643
 1.3500e+001 78799 -2.9955e-001 -6.3387e-001 -1.3630e-001 50808 78695,78747,78721
 1.3500e+001 78940 -2.0234e-001 -4.8817e-001 -2.0064e-001 50808 78747,78695,78914
 1.3500e+001 78963 -1.2023e-001 -3.8394e-001 -1.6151e-001 50808 78747,78914,78643
 1.3500e+001 79260  9.4595e-002 -5.9857e-001 -2.9735e-002 50468 79283,79090,79012
 1.3500e+001 79237  2.8164e-001 -5.6374e-001  2.5880e-002 50468 79283,79012,78986
 1.3500e+001 79214 -9.6262e-002 -6.8254e-001 -5.5425e-002 50468 79012,79090,79038
 1.3500e+001 79191  1.3387e-001 -4.9821e-001  1.2477e-001 50468 78986,79142,79116
 1.3500e+001 79168 -3.7974e-004 -6.8031e-001 -9.1287e-002 50468 79038,79090,79064
 1.3500e+001 79309 -1.0919e-001 -5.4152e-001 -5.1581e-002 50468 79116,79090,79283
 1.3500e+001 79332  1.2576e-001 -4.5881e-001  2.1560e-002 50468 79116,79283,78986
 1.3500e+001 79889  7.9749e-001  1.1048e+000 -4.8763e-001 50064 79569,79725,79699
 1.3500e+001 79866  9.4787e-001  1.1767e+000 -3.8522e-001 50064 79543,79725,79569
 1.3500e+001 79843  8.3607e-001  6.9697e-001 -5.3313e-001 50064 79621,79699,79673
 1.3500e+001 79820  1.0699e+000  1.2190e+000 -8.4315e-001 50064 79595,79699,79621
 1.3500e+001 79797  1.6060e+000  1.3316e+000 -6.3335e-001 50064 79569,79699,79595
 1.3500e+001 79774  4.3095e-001  1.1877e+000 -2.1927e-001 50064 79517,79725,79543
 1.3500e+001 79751  4.8976e-001  6.9467e-001 -5.7281e-001 50064 79621,79673,79647
 1.3500e+001 80169  1.0434e+000  1.5239e+000 -6.8009e-001 49724 80019,80097,80071
 1.3500e+001 80146  9.5530e-001  1.9058e+000 -7.7480e-001 49724 79993,80097,80019
 1.3500e+001 80123  6.9028e-001  1.4215e+000 -7.9492e-001 49724 80019,80071,80045
 1.3500e+001 80626  1.5569e-001  3.2549e-001  2.5579e-001 49277 80352,80482,80378
 1.3500e+001 80603 -2.2373e-001  2.1255e-001 -3.1323e-002 49277 80352,80508,80482
 1.3500e+001 80580 -1.2324e-001 -4.3252e-001  5.9577e-002 49277 80378,80482,80456
 1.3500e+001 80557 -9.8243e-002 -7.6073e-001  3.7289e-001 49277 80378,80430,80404
 1.3500e+001 80534  1.4458e-002 -3.2638e-001  2.7685e-001 49277 80378,80456,80430
 1.3500e+001 81230  7.2871e-001 -4.1932e-001  1.7946e-001 48716 81253,80835,80809
 1.3500e+001 81207  6.7517e-001 -3.4228e-001  5.3053e-001 48716 81397,81253,80809
 1.3500e+001 81184  7.3342e-002  2.8307e-001 -5.2325e-002 48716 81325,80913,80887
 1.3500e+001 81161 -5.2402e-002 -4.2150e-001  6.9930e-001 48716 81397,80809,81017
 1.3500e+001 81138 -1.5344e-001  4.0494e-001 -9.5705e-002 48716 81469,80965,80913
 1.3500e+001 81115 -1.3215e-001 -7.0000e-001  2.5729e-001 48716 80835,80887,80861
 1.3500e+001 81092  1.0463e+000 -3.9823e-001  1.3661e+000 48716 80809,81043,81017
 1.3500e+001 81069  4.9609e-002  1.8546e-001 -2.8228e-001 48716 80913,80965,80939
 1.3500e+001 81279  3.4582e-001 -3.6715e-001 -2.1390e-002 48716 80887,80835,81253
 1.3500e+001 81302  1.1793e-001  2.9534e-001 -7.0268e-002 48716 81325,80887,81253
 1.3500e+001 81351  1.1995e-001  3.4922e-001  1.0266e-002 48716 81469,80913,81325
 1.3500e+001 81374  9.2601e-003  5.3902e-001  1.1056e-001 48716 80991,81325,81253
 1.3500e+001 81423 -3.9413e-001  7.0977e-002  6.1823e-001 48716 80991,81253,81397
 1.3500e+001 81446 -1.2221e+000 -1.2991e-001  8.5714e-001 48716 80991,81397,81017
 1.3500e+001 81495 -5.9425e-001  4.0155e-001 -9.3272e-002 48716 80991,80965,81469
 1.3500e+001 81518 -3.7653e-001  3.0187e-001  9.2033e-003 48716 80991,81469,81325
 1.3500e+001 81717 -3.3379e-002 -6.2180e-001  7.8703e-002 48262 81740,81567,81541
 1.3500e+001 81694 -1.7735e-001 -6.2566e-001  2.2477e-002 48262 81740,81541,81645
 1.3500e+001 81671 -1.1896e-001 -6.6512e-001 -1.9298e-002 48262 81567,81619,81593
 1.3500e+001 81766 -1.2364e-001 -6.2895e-001 -5.9193e-003 48262 81619,81567,81740
 1.3500e+001 81789 -2.7937e-001 -6.6431e-001 -7.2373e-002 48262 81619,81740,81645
 1.3500e+001 81939  9.4785e-001  1.1000e+000 -4.7803e-001 47957 82034,81962,81864
 1.3500e+001 81916  7.2028e-001  8.2040e-001 -1.3463e-001 47957 82166,81962,81838
 1.3500e+001 81988 -5.1814e-001  1.0218e+000 -5.2876e-001 47957 82294,81962,81890
 1.3500e+001 82011  6.4402e-001  1.7382e+000  2.9338e-001 47957 81890,81962,81812
 1.3500e+001 82060  8.5347e-001  1.6169e+000  9.1981e-003 47957 81838,81962,82034
 1.3500e+001 82192  9.3486e-001  9.5425e-001  3.0547e-001 47957 81812,81962,82166
 1.3500e+001 82320 -3.1950e-003  1.0642e+000 -6.4692e-001 47957 81864,81962,82294
 1.3500e+001 82549  4.2516e-002 -6.8779e-001 -1.7471e-001 47617 82448,82500,82474
 1.3500e+001 82526  3.4052e-001 -9.0093e-001  5.5439e-003 47617 82422,82500,82448
 1.3500e+001 82902 -8.7665e-001 -1.1900e+000  1.4767e-001 47255 82729,82807,82755
 1.3500e+001 82879 -5.2280e-001 -1.8009e+000  4.3658e-001 47255 82703,82807,82729
 1.3500e+001 82856 -1.2477e+000 -1.3341e+000  5.2112e-001 47255 82755,82807,82781
 1.3500e+001 82833  7.7808e-001 -1.2435e+000  5.6753e-001 47255 82677,82807,82703
 1.3500e+001 83182  3.4006e-001 -9.7107e-001  1.8688e-001 46680 83032,83084,83058
 1.3500e+001 83159  4.7079e-001 -3.8499e-001  1.8204e-001 46680 83205,83084,83032
 1.3500e+001 83136  7.4799e-001 -1.5912e-001 -4.5180e-002 46680 83006,83110,83084
 1.3500e+001 83231  2.5968e-001 -5.1536e-001  1.2650e-001 46680 83006,83084,83205
 1.3500e+001 83737 -7.3688e-001 -3.3385e-001  1.9004e-002 46290 83832,83760,83492
 1.3500e+001 83714 -5.7515e-001 -3.0749e-002 -1.2470e-001 46290 83760,83440,83414
 1.3500e+001 83691 -4.5916e-001 -5.0945e-001 -3.1462e-002 46290 83832,83492,83466
 1.3500e+001 83668 -6.2198e-001 -1.0845e+000  2.0723e-001 46290 83492,83570,83544
 1.3500e+001 83645 -5.2238e-001 -2.1348e-001 -2.8316e-001 46290 83414,83596,83570
 1.3500e+001 83622 -7.6724e-001 -8.3916e-001  4.1600e-001 46290 83492,83544,83518
 1.3500e+001 83786 -7.5936e-001 -3.2354e-001  4.7066e-002 46290 83570,83492,83760
 1.3500e+001 83809 -7.1047e-001 -4.5569e-001 -1.5197e-001 46290 83570,83760,83414
 1.3500e+001 83858 -3.7949e-001 -1.4247e-001  1.1422e-001 46290 83440,83760,83832
 1.3500e+001 83881  1.2413e-001 -2.5841e-001 -1.5928e-004 46290 83440,83832,83466
 1.3500e+001 84161 -1.8893e-001 -8.7329e-001  3.8483e-001 45829 84011,84063,84037
 1.3500e+001 84138  4.2164e-002 -5.2019e-001  1.2676e-001 45829 84011,84089,84063
 1.3500e+001 84115  1.1120e-002 -5.3156e-001  1.6463e-001 45829 83985,84089,84011
 1.3500e+001 84311  2.1652e-001 -3.7962e-002  2.8057e-002 45631 84184,84236,84210
 1.3500e+001 84288 -1.5959e-001 -9.4371e-001  6.0984e-002 45631 84184,84262,84236
 1.3500e+001 84657 -6.1316e-002 -5.3618e-001 -1.4613e-002 45155 84680,84490,84412
 1.3500e+001 84634 -1.3297e-001 -4.9170e-001  8.1585e-004 45155 84680,84412,84360
 1.3500e+001 84611 -1.0959e-001 -5.6700e-001  1.5622e-002 45155 84412,84490,84438
 1.3500e+001 84588  5.0956e-002 -3.8596e-001 -3.4084e-002 45155 84334,84516,84360
 1.3500e+001 84565 -1.7444e-001 -5.7886e-001 -1.1412e-001 45155 84360,84412,84386
 1.3500e+001 84542 -8.4822e-002 -4.5437e-001  8.0158e-002 45155 84438,84490,84464
 1.3500e+001 84706 -3.0346e-002 -5.0020e-001 -2.8136e-002 45155 84516,84490,84680
 1.3500e+001 84729 -8.4231e-002 -4.4127e-001 -1.9880e-002 45155 84516,84680,84360
 1.3500e+001 85077  2.0507e-001 -2.1564e-001  7.2733e-002 44508 85100,84754,84910
 1.3500e+001 85054  2.1109e-001  1.0984e-001  1.2681e-001 44508 84754,84936,84910
 1.3500e+001 85031  7.1301e-002 -3.5873e-001  2.1323e-001 44508 85100,84910,84884
 1.3500e+001 85008 -1.4092e-001 -4.6109e-001  1.3763e-001 44508 84780,84884,84832
 1.3500e+001 84985  1.2533e-001  2.4102e-002 -9.0205e-002 44508 84780,84832,84806
 1.3500e+001 84962  7.4673e-001  1.8202e-001 -1.4768e-001 44508 84832,84884,84858
 1.3500e+001 85126  9.5473e-002  5.3976e-003 -3.1792e-002 44508 84780,84754,85100
 1.3500e+001 85149 -5.0171e-003 -1.3995e-001  9.6659e-002 44508 84780,85100,84884
 1.3500e+001 85482 -4.4546e-001 -7.4798e-001  4.3739e-003 44104 85335,85387,85361
 1.3500e+001 85459 -3.8505e-001 -1.1012e+000  4.5583e-002 44104 85309,85387,85335
 1.3500e+001 85436 -1.7796e-001 -8.9970e-001  1.9095e-001 44104 85257,85387,85309
 1.3500e+001 85413 -2.9160e-001 -1.4899e+000  1.1375e-001 44104 85257,85309,85283
 1.3500e+001 85811 -7.8571e-002 -3.7247e-001 -2.3305e-002 43600 85586,85664,85612
 1.3500e+001 85788 -1.6278e-001 -4.8453e-001  2.3189e-002 43600 85586,85690,85664
 1.3500e+001 85765  6.9217e-002 -3.9322e-001 -1.2088e-002 43600 85586,85716,85690
 1.3500e+001 85742 -7.8352e-003 -3.5598e-001 -4.2763e-003 43600 85612,85664,85638
 1.3500e+001 86010 -4.9140e-003 -4.5310e-001 -6.7541e-002 43224 85886,85938,85912
 1.3500e+001 85987  1.0455e-001 -7.3462e-002 -1.0638e-001 43224 85834,85938,85886
 1.3500e+001 85964 -2.6162e-001 -4.5824e-001  4.9419e-002 43224 85834,85886,85860
 1.3500e+001 86420  1.8240e+000  9.2332e-001 -3.0355e-001 42820 86195,86299,86221
 1.3500e+001 86397  1.3569e+000  8.2660e-001 -9.4111e-001 42820 86195,86325,86299
 1.3500e+001 86374  1.1859e+000  1.1075e+000 -7.3604e-003 42820 86221,86299,86273
 1.3500e+001 86351  1.0758e+000  6.2694e-001  1.0305e-001 42820 86221,86273,86247
 1.3500e+001 86749  3.5732e-001 -3.3314e-001 -1.0937e-001 42223 86550,86602,86576
 1.3500e+001 86726  1.0846e+000 -6.2778e-001  2.7095e-002 42223 86550,86628,86602
 1.3500e+001 86703  5.6425e-002 -9.8668e-001  3.0579e-001 42223 86524,86628,86550
 1.3500e+001 86680  6.2152e-001 -5.1060e-002  6.1427e-002 42223 86524,86654,86628
 1.3500e+001 87078  5.8258e-001 -3.2219e-001  2.4465e-001 41883 87173,87101,86905
 1.3500e+001 87055  4.4097e-001  3.2048e-001 -9.7518e-003 41883 87101,86879,86853
 1.3500e+001 87032  6.3459e-002 -5.9362e-002  2.9360e-002 41883 86853,86983,86931
 1.3500e+001 87009 -4.4503e-002 -5.2174e-001  1.7204e-001 41883 86931,86983,86957
 1.3500e+001 87127  6.9518e-001 -2.0234e-001  2.7994e-002 41883 86931,86905,87101
 1.3500e+001 87150  1.6716e-001 -3.1797e-001 -1.6606e-002 41883 86931,87101,86853
 1.3500e+001 87199  1.1231e-001 -2.9223e-001  2.1942e-001 41883 86879,87101,87173
 1.3500e+001 87558  3.5537e-002  5.1701e-001 -1.3325e-001 41471 87382,87460,87408
 1.3500e+001 87535 -7.4306e-001 -7.5081e-003 -3.6163e-001 41471 87382,87486,87460
 1.3500e+001 87512 -2.5759e-001  3.0596e-001 -2.6637e-001 41471 87408,87460,87434
 1.3500e+001 87806  1.4518e-001 -3.2835e-001  8.7869e-002 41017 87829,87607,87581
 1.3500e+001 87783  1.0105e-001 -4.4473e-001  1.0153e-001 41017 87829,87581,87685
 1.3500e+001 87760  2.7971e-001 -1.9846e-001  1.9524e-002 41017 87581,87711,87685
 1.3500e+001 87737  3.1918e-001 -8.3483e-001  4.1704e-002 41017 87633,87685,87659
 1.3500e+001 87855  1.5262e-001 -3.6348e-001  1.7743e-001 41017 87633,87607,87829
 1.3500e+001 87878  1.0334e-001 -4.8505e-001  1.9313e-001 41017 87633,87829,87685
 1.3500e+001 88258 -2.1313e-002 -2.8558e-002  7.7288e-003 40613 88281,88036,88010
 1.3500e+001 88235 -7.2442e-003 -3.3345e-002  2.1066e-003 40613 88281,88010,88088
 1.3500e+001 88212  5.3696e-003 -3.0785e-002  2.5907e-003 40613 87984,88088,88010
 1.3500e+001 88189  1.8758e-002  4.2828e-003 -1.0066e-002 40613 87984,88114,88088
 1.3500e+001 88166  1.2797e-002 -2.9807e-002  1.5942e-003 40613 87984,88140,88114
 1.3500e+001 88307 -9.7670e-003 -2.5756e-002  7.4714e-003 40613 88062,88036,88281
 1.3500e+001 88330  8.4976e-003 -2.7423e-002  8.1165e-004 40613 88062,88281,88088
 1.3500e+001 88649 -7.7847e-004 -5.5746e-002  1.9728e-003 40095 88375,88505,88401
 1.3500e+001 88626 -8.6913e-004 -4.1717e-002 -5.1818e-003 40095 88375,88531,88505
 1.3500e+001 88603 -3.5671e-003 -7.6049e-002 -8.9184e-003 40095 88401,88505,88479
 1.3500e+001 88580  4.6086e-002 -6.0728e-001 -2.5686e-001 40095 88427,88479,88453
 1.3500e+001 88557 -1.1492e-002 -1.2188e-001 -1.9463e-003 40095 88401,88479,88427
 1.3500e+001 89078  1.1227e+000 -1.0703e-001 -7.1213e-002 39897 89101,88833,88807
 1.3500e+001 89055  6.9721e-001 -5.4118e-001 -2.8309e-001 39897 89101,88807,88911
 1.3500e+001 89032  8.0665e-001 -1.9278e-002 -2.8703e-001 39897 88781,88911,88807
 1.3500e+001 89009  1.4329e-002 -6.2794e-001 -7.1409e-001 39897 88781,88937,88911
 1.3500e+001 88986  2.1045e+000  3.4019e-001 -3.3433e-001 39897 88833,88885,88859
 1.3500e+001 88963  5.9999e-001  1.7649e-002 -4.3853e-001 39897 88755,88937,88781
 1.3500e+001 89127  1.5564e+000 -6.4183e-001 -5.6713e-001 39897 88885,88833,89101
 1.3500e+001 89150  7.8653e-001 -1.3213e+000 -8.7019e-001 39897 88885,89101,88911
 1.3500e+001 89300 -7.2863e-001 -1.0135e+000  1.6037e-001 39607 89453,89323,89199
 1.3500e+001 89277 -1.1589e+000 -8.6899e-001  6.2508e-002 39607 89525,89453,89199
 1.3500e+001 89349 -7.1987e-001 -1.0353e+000 -6.8628e-002 39607 89225,89199,89323
 1.3500e+001 89479 -8.3846e-001 -6.5139e-001  1.7849e-001 39607 89251,89323,89453
 1.3500e+001 89502 -4.5164e-001 -2.8651e-001  4.3921e-001 39607 89251,89453,89173
 1.3500e+001 89551 -1.4500e-001 -4.9158e-001  4.2170e-002 39607 89173,89453,89525
 1.3500e+001 90264 -6.5146e-001 -1.7675e+000 -1.1075e-001 39039 89996,90074,90048
 1.3500e+001 90241 -3.8821e-001 -8.0379e-001 -9.0920e-002 39039 89918,90074,89996
 1.3500e+001 90218 -5.4350e-001 -9.8892e-001 -1.9371e-002 39039 89918,89996,89944
 1.3500e+001 90195 -4.1969e-001 -8.0679e-001 -7.5907e-002 39039 89892,90074,89918
 1.3500e+001 90172  9.4982e-002 -1.7934e+000 -2.0147e-001 39039 89996,90048,90022
 1.3500e+001 90149 -1.0483e+000  2.6662e-001 -8.5789e-002 39039 89892,90100,90074
 1.3500e+001 90126 -8.6698e-001 -1.1332e+000  8.9013e-002 39039 89944,89996,89970
 1.3500e+001 90770 -8.2640e-002 -4.4259e-001  2.0503e-002 38635 90473,90603,90577
 1.3500e+001 90747  1.4367e-002 -3.8227e-001 -2.4134e-002 38635 90447,90603,90473
 1.3500e+001 90724  1.2013e-002 -4.5081e-001 -5.1591e-002 38635 90499,90577,90551
 1.3500e+001 90701 -1.4377e-001 -5.7369e-001  5.1466e-002 38635 90473,90577,90499
 1.3500e+001 90678 -6.2796e-002 -6.5277e-001 -7.7553e-003 38635 90499,90551,90525
 1.3500e+001 90655 -1.8327e-001 -4.4664e-001  5.1263e-002 38635 90447,90629,90603
 1.3500e+001 90871 -1.6904e-003 -4.0585e-001 -9.3575e-002 38231 90793,90845,90819
 1.3500e+001 91458 -3.5054e-002 -2.4143e-001 -3.8917e-003 37534 91161,91317,91291
 1.3500e+001 91435 -2.1877e-001 -1.7325e-001  6.2306e-002 37534 91135,91317,91161
 1.3500e+001 91412 -3.3804e-001 -1.1547e+000 -2.1737e-001 37534 91187,91291,91239
 1.3500e+001 91389 -1.0908e-001 -1.1421e+000  1.3219e-001 37534 91161,91291,91187
 1.3500e+001 91366 -9.1786e-002 -8.8134e-001 -1.0824e-001 37534 91239,91291,91265
 1.3500e+001 91343  3.8953e-001 -1.2517e+000 -5.2939e-001 37534 91187,91239,91213
 1.3500e+001 91915 -2.8237e-001 -8.9351e-001  1.5313e-001 37080 91938,91745,91667
 1.3500e+001 91892  3.6561e-002 -8.4871e-001  4.0411e-002 37080 91938,91667,91797
 1.3500e+001 91869  2.6480e-001 -3.6206e-001  1.1691e-001 37080 91641,91797,91667
 1.3500e+001 91846 -2.5136e-001 -9.9285e-001  2.6902e-002 37080 91667,91719,91693
 1.3500e+001 91823 -1.5641e-001 -7.4339e-001  8.9093e-002 37080 91667,91745,91719
 1.3500e+001 91964 -4.5002e-001 -1.0432e+000  4.3435e-001 37080 91771,91745,91938
 1.3500e+001 91987 -1.2798e-001 -8.7361e-001  2.8333e-001 37080 91771,91938,91797
 1.3500e+001 92235 -1.4333e-001 -4.1637e-001 -2.3685e-002 36397 92036,92088,92062
 1.3500e+001 92212 -8.5662e-002 -4.0557e-001 -4.6159e-002 36397 92036,92114,92088
 1.3500e+001 92189  1.1569e-002 -3.2778e-001  1.3155e-002 36397 92036,92140,92114
 1.3500e+001 92166  3.3313e-002 -4.5829e-001 -1.7642e-002 36397 92010,92140,92036
 1.3500e+001 92694  1.3604e-001  4.9130e-003 -2.6873e-002 36057 92446,92498,92472
 1.3500e+001 92671  1.7483e-001 -2.1378e-002  6.3781e-002 36057 92446,92550,92498
 1.3500e+001 92648 -4.8118e-002 -3.9328e-001  1.6976e-001 36057 92446,92576,92550
 1.3500e+001 92625  1.3984e-001 -1.1886e-002 -2.9820e-001 36057 92420,92576,92446
 1.3500e+001 92602  2.6521e-002  1.0825e-002  1.5924e-001 36057 92498,92550,92524
 1.3500e+001 93023 -1.3393e-001 -3.7011e-001 -3.1220e-002 35717 92876,92928,92902
 1.3500e+001 93000 -1.0312e-001 -4.1069e-001 -4.7139e-002 35717 92824,92928,92876
 1.3500e+001 92977  8.2191e-003 -4.0612e-001 -1.4411e-002 35717 92798,92928,92824
 1.3500e+001 92954 -1.5553e-001 -5.6386e-001 -8.7657e-002 35717 92824,92876,92850
 1.3500e+001 93499  3.6239e-001 -4.7673e-001  2.4202e-001 35405 93522,93309,93257
 1.3500e+001 93476  3.8866e-001 -4.3037e-001  2.3038e-001 35405 93666,93522,93257
 1.3500e+001 93453  3.9021e-001 -1.1539e+000  2.6614e-001 35405 93594,93127,93335
 1.3500e+001 93430  2.9123e-001 -4.5135e-001  2.1867e-001 35405 93666,93257,93231
 1.3500e+001 93407  8.6301e-002 -1.5005e+000  9.6646e-002 35405 93127,93179,93153
 1.3500e+001 93384 -4.1123e-001 -4.1966e-001  4.9163e-001 35405 93179,93231,93205
 1.3500e+001 93361  4.3833e-001  2.7615e-001  3.0826e-003 35405 93257,93309,93283
 1.3500e+001 93548  5.6724e-001 -3.1344e-001  4.4731e-001 35405 93335,93309,93522
 1.3500e+001 93571  3.9519e-001 -6.6592e-001  3.3621e-001 35405 93594,93335,93522
 1.3500e+001 93620  4.7207e-001 -6.4425e-001  1.8769e-001 35405 93179,93127,93594
 1.3500e+001 93643  2.7748e-001 -4.2772e-001  2.0070e-001 35405 93738,93594,93522
 1.3500e+001 93692  2.8388e-001 -4.3216e-001  1.9071e-001 35405 93738,93522,93666
 1.3500e+001 93715  2.3933e-001 -4.4261e-001  1.6634e-001 35405 93179,93666,93231
 1.3500e+001 93764  2.7107e-001 -4.4209e-001  2.0263e-001 35405 93179,93594,93738
 1.3500e+001 93787  2.7536e-001 -4.4727e-001  1.9410e-001 35405 93179,93738,93666
 1.3500e+001 94372  8.2992e-001 -1.1606e-001  9.8978e-002 34951 94395,94127,94075
 1.3500e+001 94349  1.0963e+000 -1.6984e-001  2.0559e-001 34951 94395,94075,94231
 1.3500e+001 94326  1.3007e+000 -4.3363e-001 -3.1045e-001 34951 94049,94231,94075
 1.3500e+001 94303  7.3055e-001  3.2064e-001  2.5794e-001 34951 94075,94127,94101
 1.3500e+001 94280  1.6480e+000  7.6907e-001  7.1963e-001 34951 94127,94205,94153
 1.3500e+001 94257  1.2237e+000 -3.7137e-001  7.2069e-001 34951 94153,94205,94179
 1.3500e+001 94421  1.0398e+000 -1.5500e-001  2.5115e-001 34951 94205,94127,94395
 1.3500e+001 94444  1.5167e+000 -7.3267e-002  3.4977e-001 34951 94205,94395,94231
 1.3500e+001 94692 -1.2637e-002 -1.2173e-001 -1.1810e-002 34397 94715,94519,94467
 1.3500e+001 94669 -1.2496e-002 -9.4084e-002 -7.6295e-003 34397 94715,94467,94597
 1.3500e+001 94646 -3.0205e-002 -1.5768e-001 -3.6747e-002 34397 94545,94597,94571
 1.3500e+001 94623 -1.6298e-002 -1.3579e-001  7.8839e-004 34397 94467,94519,94493
 1.3500e+001 94741 -2.8882e-002 -2.1277e-001 -2.4228e-002 34397 94545,94519,94715
 1.3500e+001 94764  8.2772e-003 -1.2405e-001 -1.8764e-002 34397 94545,94715,94597
 1.3500e+001 94985 -3.4568e-003 -3.0095e-001  2.2402e-002 33985 94835,94913,94887
 1.3500e+001 94962 -2.7690e-001 -9.6967e-001  6.0605e-002 33985 94809,94913,94835
 1.3500e+001 94939 -4.3759e-002 -2.7893e-001  1.7968e-002 33985 94835,94887,94861
 1.3500e+001 95186 -4.5342e-002 -6.5102e-001 -1.8853e-001 33645 95281,95209,95036
 1.3500e+001 95163  3.9350e-001 -6.4671e-001  3.0906e-002 33645 95209,95010,95088
 1.3500e+001 95140  3.6779e-001 -3.5296e-001 -1.6687e-003 33645 95010,95114,95088
 1.3500e+001 95235 -2.3495e-001 -8.0899e-001 -3.2707e-001 33645 95062,95036,95209
 1.3500e+001 95258 -1.8465e-001 -8.7491e-001  2.6109e-001 33645 95413,95209,95088
 1.3500e+001 95307  3.1793e-001 -2.3256e-002 -4.1103e-001 33645 95010,95209,95281
 1.3500e+001 95439  1.9338e-001 -4.6198e-001  9.8772e-002 33645 95062,95209,95413
 1.3500e+001 95766 -1.4811e-001 -1.8463e-001 -2.6470e-001 33141 95789,95593,95567
 1.3500e+001 95743  3.8313e-002 -3.0700e-001 -8.5195e-002 33141 95861,95789,95567
 1.3500e+001 95720  2.8238e-002 -2.8045e-001 -3.6375e-002 33141 95861,95567,95671
 1.3500e+001 95697  3.1968e-002 -3.0806e-001 -4.4977e-002 33141 95541,95671,95567
 1.3500e+001 95815  6.8103e-004  1.6527e-001 -2.2611e-001 33141 95619,95593,95789
 1.3500e+001 95838  6.0192e-002 -1.4944e-001 -7.4620e-002 33141 95619,95789,95645
 1.3500e+001 95887  7.4992e-002 -2.2076e-001 -8.7795e-002 33141 95645,95789,95861
 1.3500e+001 95910  6.5665e-002 -1.9397e-001 -3.2209e-002 33141 95645,95861,95671
 1.3500e+001 96060 -1.2337e-001 -3.8364e-001 -1.0834e-001 32487 95959,96011,95985
 1.3500e+001 96037  2.7406e-002 -3.9047e-001 -1.0739e-002 32487 95933,96011,95959
 1.3500e+001 96570 -2.1469e-001 -4.8795e-001  2.7282e-001 32033 96665,96593,96377
 1.3500e+001 96547 -1.6895e-001 -5.0130e-001 -8.1392e-002 32033 96737,96593,96325
 1.3500e+001 96524 -2.7877e-001 -6.2805e-001  1.7532e-001 32033 96665,96377,96351
 1.3500e+001 96501 -2.8131e-001 -7.3268e-001 -4.5789e-002 32033 96737,96325,96299
 1.3500e+001 96478 -3.1111e-001 -2.2007e-001 -3.0144e-002 32033 96247,96429,96299
 1.3500e+001 96455 -7.2886e-001 -1.3452e+000  3.3360e-003 32033 96247,96299,96273
 1.3500e+001 96619  9.4259e-002 -2.4510e-001  3.4254e-001 32033 96809,96593,96403
 1.3500e+001 96642  3.0473e-001  3.1605e-001 -2.6888e-001 32033 96403,96593,96429
 1.3500e+001 96691  4.5417e-002 -8.2677e-001  9.4821e-002 32033 96325,96593,96665
 1.3500e+001 96714 -1.7771e-001 -1.0874e+000 -4.1273e-002 32033 96325,96665,96351
 1.3500e+001 96763 -2.9610e-001 -4.1933e-001  2.8230e-002 32033 96429,96593,96737
 1.3500e+001 96786 -3.3884e-001 -5.2315e-001  3.1730e-002 32033 96429,96737,96299
 1.3500e+001 96835 -4.7196e-002 -4.1562e-001  2.6360e-001 32033 96377,96593,96809
 1.3500e+001 97064 -4.9600e-002 -1.0987e-001  1.7274e-002 31671 97087,96989,96963
 1.3500e+001 97041 -7.8973e-002 -1.2343e-001  2.1013e-002 31671 97087,96963,96937
 1.3500e+001 97113 -5.3876e-002 -9.2681e-002 -3.1475e-003 31671 97159,97087,97015
 1.3500e+001 97136 -5.8929e-002 -6.9584e-002  1.1674e-002 31671 97015,97087,96937
 1.3500e+001 97185 -6.6299e-002 -1.3547e-001  6.4447e-003 31671 96989,97087,97159
 1.3500e+001 97563  5.4966e-003 -4.8176e-002  1.1974e-002 31117 97586,97367,97341
 1.3500e+001 97540 -2.9698e-002 -5.1719e-002  1.7265e-002 31117 97658,97586,97341
 1.3500e+001 97517 -4.9257e-002 -8.0256e-002  8.6969e-003 31117 97658,97341,97315
 1.3500e+001 97494  8.7830e-002 -1.4766e-001 -1.3366e-002 31117 97289,97445,97315
 1.3500e+001 97471  3.8393e-002  7.5148e-003 -8.8155e-003 31117 97367,97419,97393
 1.3500e+001 97612  3.6737e-002 -1.9574e-002 -3.2607e-004 31117 97419,97367,97586
 1.3500e+001 97635  4.5182e-002 -5.5291e-002  4.9910e-002 31117 97419,97586,97445
 1.3500e+001 97684  2.4378e-002 -1.0221e-001  3.6590e-002 31117 97445,97586,97658
 1.3500e+001 97707 -6.4775e-004 -1.3738e-001  2.5611e-002 31117 97445,97658,97315
 1.3500e+001 98215  1.0639e-001 -1.0503e-001 -1.4622e-001 30563 98238,97996,97944
 1.3500e+001 98192 -9.3003e-002 -9.8532e-002 -1.6049e-001 30563 98310,98238,97944
 1.3500e+001 98169 -2.8557e-001 -2.7067e-001 -3.0317e-001 30563 98310,97944,97918
 1.3500e+001 98146  2.6899e-001 -9.8077e-002 -7.6034e-002 30563 97892,98074,97918
 1.3500e+001 98123  2.2143e-001 -2.2276e-001  1.0749e-001 30563 97996,98048,98022
 1.3500e+001 98100 -1.9038e-001 -2.1482e-001 -1.5308e-001 30563 97944,97996,97970
 1.3500e+001 98264  3.0993e-002 -4.5620e-002 -9.9020e-002 30563 98048,97996,98238
 1.3500e+001 98287  2.2171e-001  2.4957e-001  1.1531e-001 30563 98048,98238,98074
 1.3500e+001 98336  1.2845e-001 -1.1581e-001 -1.4884e-002 30563 98074,98238,98310
 1.3500e+001 98359 -1.7378e-002 -1.3526e-001 -1.1921e-001 30563 98074,98310,97918
 1.3500e+001 98607 -2.1300e-001 -1.2357e-001  1.5663e-002 30073 98630,98460,98408
 1.3500e+001 98584 -3.6851e-001 -2.1092e-001 -2.9006e-002 30073 98630,98408,98382
 1.3500e+001 98561 -6.3467e-002 -2.1865e-001 -1.9586e-002 30073 98382,98512,98486
 1.3500e+001 98538 -8.6767e-002 -1.6502e-001  1.0449e-001 30073 98408,98460,98434
 1.3500e+001 98656 -1.2204e-001 -2.4045e-001 -1.8079e-002 30073 98486,98460,98630
 1.3500e+001 98679 -2.2241e-001 -2.8601e-001 -5.0554e-002 30073 98486,98630,98382
 1.3500e+001 99157  1.0438e+000 -2.5437e-001  2.1398e-001 29669 99180,98837,98811
 1.3500e+001 99134  8.9947e-001 -2.0322e-001  4.0381e-001 29669 99324,99180,98811
 1.3500e+001 99111  7.5854e-001 -1.4593e-002  6.0756e-002 29669 99252,98863,98837
 1.3500e+001 99088  8.7532e-001 -3.3001e-001  4.4186e-001 29669 99324,98811,98993
 1.3500e+001 99065  7.5112e-001  2.5198e-001  1.3410e-001 29669 98863,98941,98915
 1.3500e+001 99042 -4.3447e-001  5.8382e-002  6.5046e-002 29669 98863,98915,98889
 1.3500e+001 99019  3.7139e-001 -5.0974e-001  6.2868e-001 29669 98785,98993,98811
 1.3500e+001 99206  7.9269e-001 -3.5954e-001  1.7316e-001 29669 99252,98837,99180
 1.3500e+001 99229  4.2480e-001 -2.7257e-001  4.9129e-001 29669 98941,99180,98967
 1.3500e+001 99278  7.0055e-001  2.2437e-001  1.1680e-001 29669 98941,98863,99252
 1.3500e+001 99301  8.8599e-001  7.9521e-002  2.5993e-001 29669 98941,99252,99180
 1.3500e+001 99350  8.5792e-001 -4.5902e-002  3.8990e-001 29669 98967,99180,99324
 1.3500e+001 99373  8.6566e-001 -1.4699e-001  4.0866e-001 29669 98967,99324,98993
 1.3500e+001 99958  4.5195e-001  5.7666e-001  2.4052e-001 29051 99981,99765,99739
 1.3500e+001 99935  5.8484e-002 -1.3743e-002  7.0153e-002 29051 99981,99739,99661
 1.3500e+001 99912  1.5750e-001 -1.3129e+000  7.9992e-002 29051 99765,99817,99791
 1.3500e+001 99889  9.7420e-002 -5.2887e-001  4.7805e-002 29051 99635,99817,99661
 1.3500e+001 99866 -3.1684e-001 -4.9232e-002  3.4153e-001 29051 99661,99739,99687
 1.3500e+001 99843 -5.1866e-001  2.5995e-002  2.2151e-001 29051 99687,99739,99713
 1.3500e+001 100007  6.7234e-001  1.2763e-003  2.9666e-001 29051 99817,99765,99981
 1.3500e+001 100030  4.9831e-001 -2.7169e-001  2.1941e-001 29051 99817,99981,99661
 1.3500e+001 100278  3.6977e-001 -3.3213e-001  1.7653e-001 28525 100445,100301,100131
 1.3500e+001 100255  1.8999e-001  3.3602e-002  1.1298e-001 28525 100373,100301,100079
 1.3500e+001 100232  1.7114e-001 -2.8664e-001  1.5978e-001 28525 100373,100079,100053
 1.3500e+001 100209  1.8186e-001 -2.0590e-001  4.2570e-002 28525 100445,100131,100105
 1.3500e+001 100327  4.6279e-001 -2.8141e-001  3.1596e-001 28525 100517,100301,100157
 1.3500e+001 100350  4.5989e-001  4.8123e-001  3.8535e-001 28525 100157,100301,100183
 1.3500e+001 100399  1.6669e-001 -2.9893e-001  2.7616e-001 28525 100183,100301,100373
 1.3500e+001 100422  2.2138e-001 -5.2662e-001  3.1923e-001 28525 100183,100373,100053
 1.3500e+001 100471  1.2005e-001 -3.5295e-001 -1.3147e-001 28525 100079,100301,100445
 1.3500e+001 100494 -4.1787e-001 -4.7244e-001 -2.7451e-001 28525 100079,100445,100105
 1.3500e+001 100543  6.9013e-001  5.6301e-003  3.9536e-002 28525 100131,100301,100517
 1.3500e+001 101209 -5.7507e-001 -1.8489e-001 -5.0284e-002 28185 100938,101016,100990
 1.3500e+001 101186 -7.3626e-001 -6.1561e-002  5.0995e-002 28185 100912,101016,100938
 1.3500e+001 101163 -2.1505e-001  8.0261e-002  1.4789e-001 28185 100912,101068,101016
 1.3500e+001 101140 -6.7148e-001  1.7497e-001  1.2897e-001 28185 100886,101068,100912
 1.3500e+001 101117 -1.9130e-001  3.8610e-001  1.9484e-001 28185 101016,101068,101042
 1.3500e+001 101094 -1.6708e+000 -4.6699e-001 -1.0465e-001 28185 100938,100990,100964
 1.3500e+001 101408  1.6633e-001 -2.1357e-001 -1.0514e-001 27781 101503,101431,101310
 1.3500e+001 101385 -1.1144e-001 -4.5991e-002 -3.5265e-001 27781 101431,101258,101232
 1.3500e+001 101362  1.9147e-001 -2.2963e-001 -1.2036e-001 27781 101503,101310,101284
 1.3500e+001 101457  7.2750e-001  2.6410e-002 -1.5842e-001 27781 101336,101310,101431
 1.3500e+001 101480  1.7012e-001  7.3671e-002 -3.6032e-001 27781 101575,101431,101232
 1.3500e+001 101529  3.3052e-001 -1.9730e-001 -2.9245e-001 27781 101258,101431,101503
 1.3500e+001 101552  2.3112e-001 -2.0769e-001 -1.4254e-001 27781 101705,101503,101284
 1.3500e+001 101601  3.8305e-001  4.3353e-001 -4.5095e-001 27781 101336,101431,101575
 1.3500e+001 101731 -9.1396e-002 -3.6760e-001 -3.0866e-001 27781 101258,101503,101705
 1.3500e+001 102237 -2.0139e-001 -1.7995e-001  3.6332e-002 27419 102476,102260,101992
 1.3500e+001 102214 -7.7234e-002 -3.0819e-001  3.8005e-003 27419 102260,101940,101914
 1.3500e+001 102191 -2.8568e-001 -3.8501e-001  2.6715e-002 27419 102404,102332,102096
 1.3500e+001 102168 -2.4376e-001 -3.8476e-001 -1.8330e-002 27419 102404,102096,102044
 1.3500e+001 102145 -1.7840e-001 -1.9936e-001  5.0960e-002 27419 102476,101992,101966
 1.3500e+001 102122 -1.7575e-001 -4.2508e-001 -1.7428e-002 27419 102044,102096,102070
 1.3500e+001 102286 -2.7111e-001 -2.8995e-001  6.6348e-002 27419 102018,101992,102260
 1.3500e+001 102309 -2.3151e-001 -2.6513e-001  5.1274e-003 27419 102332,102018,102260
 1.3500e+001 102358 -2.6563e-001 -5.3680e-001  1.2851e-001 27419 101914,102096,102332
 1.3500e+001 102381 -1.6664e-001 -4.1363e-001  4.3961e-002 27419 101914,102332,102260
 1.3500e+001 102430 -1.9311e-001 -3.5657e-001  9.7937e-003 27419 102018,102332,102404
 1.3500e+001 102453 -1.6831e-001 -3.5740e-001 -3.9846e-002 27419 102018,102404,102044
 1.3500e+001 102502 -1.1527e-001 -2.8197e-001  5.4897e-002 27419 101940,102260,102476
 1.3500e+001 102525  2.7421e-001 -8.1957e-002 -1.7881e-002 27419 101940,102476,101966
 1.3500e+001 103031 -8.2595e-001 -7.9266e-001  7.3555e-001 26715 102708,102786,102760
 1.3500e+001 103008  5.3842e-002 -5.5089e-001  2.6644e-001 26715 102708,102890,102786
 1.3500e+001 102985  4.9790e-001 -1.1813e+000  3.1592e-001 26715 102838,102890,102864
 1.3500e+001 102962  1.6767e-001 -3.3811e-001  3.1171e-001 26715 102786,102890,102838
 1.3500e+001 102939  1.0314e+000  6.0702e-002  5.5216e-001 26715 102786,102838,102812
 1.3500e+001 102916 -8.2242e-001 -2.8476e-002  1.4637e-001 26715 102708,102760,102734
 1.3500e+001 103279 -7.6832e-003 -2.9958e-002  4.8098e-002 26303 103302,103158,103080
 1.3500e+001 103256 -7.9185e-002  2.2252e-002  4.8995e-002 26303 103302,103080,103054
 1.3500e+001 103233 -1.3656e-001 -9.4284e-002  2.0300e-002 26303 103080,103158,103106
 1.3500e+001 103210  1.9590e-001 -1.2126e-002  2.1007e-002 26303 103106,103158,103132
 1.3500e+001 103328  1.1614e-001  2.1252e-002  2.5082e-002 26303 103184,103158,103302
 1.3500e+001 103351 -2.0956e-002  2.3666e-002  3.6646e-002 26303 103184,103302,103054
 1.3500e+001 103501 -7.1231e-002 -3.9016e-001 -1.5327e-002 25849 103374,103426,103400
 1.3500e+001 103478 -1.7168e-001 -3.4288e-001  3.1256e-002 25849 103374,103452,103426
 1.3500e+001 104090  1.0995e-001 -4.7972e-002  1.3703e-001 25445 103793,103871,103819
 1.3500e+001 104067  2.9052e-001  2.7884e-002  5.9573e-002 25445 103793,103949,103871
 1.3500e+001 104044  3.3423e-001 -1.4231e-002  1.5574e-001 25445 103871,103949,103923
 1.3500e+001 104021  6.8057e-003  6.2182e-003 -3.4421e-002 25445 103819,103871,103845
 1.3500e+001 103998  3.9117e-001  1.1985e-001  1.5717e-001 25445 103767,103949,103793
 1.3500e+001 103975  3.6641e-001  4.4626e-002  1.7684e-001 25445 103871,103923,103897
 1.3500e+001 104419 -8.2251e-002 -1.2358e-001 -6.1289e-002 25083 104220,104298,104272
 1.3500e+001 104396 -1.7711e-001 -2.7717e-001 -1.0911e-002 25083 104220,104324,104298
 1.3500e+001 104373 -6.1162e-002 -8.4457e-002 -5.3299e-002 25083 104220,104272,104246
 1.3500e+001 104350 -1.4350e-001 -3.0537e-001 -1.5805e-002 25083 104194,104324,104220
 1.3500e+001 105102  8.4286e-002 -1.9796e-001  6.8693e-002 24793 104785,104863,104837
 1.3500e+001 105079  1.1147e-001 -2.6926e-001 -9.7864e-002 24793 104759,104863,104785
 1.3500e+001 105056  9.6938e-002 -3.8388e-002 -9.4277e-002 24793 104759,104915,104863
 1.3500e+001 105033  1.3286e-001 -1.5912e-001 -1.4918e-001 24793 104733,104915,104759
 1.3500e+001 105010  4.2224e-001  1.1420e-001 -1.6519e-001 24793 104863,104915,104889
 1.3500e+001 104987 -3.3943e-002  1.5960e-002 -2.7822e-001 24793 104681,104915,104733
 1.3500e+001 104964 -4.9591e-003 -2.7641e-001  2.1834e-002 24793 104785,104837,104811
 1.3500e+001 104941 -1.9385e-002  2.4219e-001 -2.3244e-001 24793 104681,104733,104707
 1.3500e+001 105252  1.1245e+000  4.5763e-001  3.0048e-002 24389 105477,105275,105177
 1.3500e+001 105229  3.7639e-001  6.3043e-002  3.0454e-001 24389 105347,105275,105151
 1.3500e+001 105301  1.0972e+000  2.3861e-001  3.5704e-002 24389 105203,105177,105275
 1.3500e+001 105324  1.4325e+000  9.3653e-001  3.7618e-001 24389 105203,105275,105125
 1.3500e+001 105373  1.1451e+000  5.2741e-001  5.6642e-002 24389 105125,105275,105347
 1.3500e+001 105503  7.8477e-001 -2.1281e-001 -8.9104e-002 24389 105151,105275,105477
 1.3500e+001 106088 -2.4966e-001  2.4191e-001  2.8857e-001 23735 105791,105921,105895
 1.3500e+001 106065 -7.3735e-001  1.3402e-001  4.3769e-001 23735 105765,105921,105791
 1.3500e+001 106042 -9.4140e-002  4.9879e-001  2.7422e-001 23735 105765,105947,105921
 1.3500e+001 106019 -9.5733e-001 -3.6477e-002  3.5674e-001 23735 105817,105895,105869
 1.3500e+001 105996 -6.0846e-001  9.4812e-002  3.6238e-001 23735 105791,105895,105817
 1.3500e+001 105973 -5.6073e-001 -3.3697e-001  4.0829e-001 23735 105817,105869,105843
 1.3500e+001 106417  4.1677e-001  7.2166e-001 -8.6485e-002 23295 106218,106296,106270
 1.3500e+001 106394  4.0415e-001  3.4770e-001 -1.1874e-001 23295 106218,106322,106296
 1.3500e+001 106371  1.9252e-001  2.3579e-001 -1.7328e-001 23295 106218,106270,106244
 1.3500e+001 106348  5.3015e-001  4.0154e-001 -4.6375e-002 23295 106192,106322,106218
 1.3500e+001 106746 -3.2275e-001  2.0463e-001  2.8662e-001 23005 106521,106599,106547
 1.3500e+001 106723  2.3503e-001  7.3787e-001  6.8083e-002 23005 106521,106651,106599
 1.3500e+001 106700  3.9003e-001  8.4750e-002 -1.2938e-001 23005 106547,106599,106573
 1.3500e+001 106677  3.1317e-001  6.2199e-001  3.5353e-001 23005 106599,106651,106625
 1.3500e+001 107331 -1.3711e-001  3.3366e-001 -3.4796e-001 22601 107060,107190,107138
 1.3500e+001 107308 -1.1598e+000  1.0757e+000 -6.6205e-001 22601 107034,107190,107060
 1.3500e+001 107285 -2.3981e+000 -6.4287e-001 -4.2990e-001 22601 107060,107138,107112
 1.3500e+001 107262 -1.5657e+000  1.7581e+000  1.0285e+000 22601 107008,107190,107034
 1.3500e+001 107239  2.1957e-001 -3.3968e+000  1.1719e-001 22601 107060,107112,107086
 1.3500e+001 107216 -1.2283e+000  2.9412e+000  6.7047e-001 22601 107138,107190,107164
 1.3500e+001 107807 -1.1577e-001  6.9696e-002 -2.0675e-002 22031 107974,107902,107617
 1.3500e+001 107784 -1.1627e-001  2.0776e-001 -8.2091e-002 22031 107830,107565,107513
 1.3500e+001 107761 -2.7772e-003  2.7087e-002 -1.0474e-001 22031 108046,107830,107513
 1.3500e+001 107738 -6.6652e-002  1.6508e-001  1.0739e-002 22031 107974,107617,107591
 1.3500e+001 107715 -2.2407e-002 -5.5222e-003 -1.1943e-001 22031 108046,107513,107461
 1.3500e+001 107692 -3.4428e-001  2.6035e-001 -1.3084e-001 22031 107513,107565,107539
 1.3500e+001 107669  1.1333e-001  2.0353e-001 -1.8451e-001 22031 107461,107513,107487
 1.3500e+001 107856 -1.7932e-001  1.2148e-001 -4.6818e-002 22031 107902,107565,107830
 1.3500e+001 107879 -4.5277e-002 -8.3182e-002 -5.1345e-003 22031 107643,107830,107435
 1.3500e+001 107928 -3.1965e-001  9.9385e-002 -1.5121e-001 22031 107643,107617,107902
 1.3500e+001 107951 -1.7231e-001  1.1199e-001  2.2717e-002 22031 107643,107902,107830
 1.3500e+001 108000 -1.4194e-001  2.0609e-001 -4.0530e-002 22031 107565,107902,107974
 1.3500e+001 108023 -1.4168e-001  1.8384e-001 -3.6519e-002 22031 107565,107974,107591
 1.3500e+001 108072  4.7204e-002 -9.1293e-003 -5.2272e-002 22031 107435,107830,108046
 1.3500e+001 108095  2.2553e-002 -6.1280e-002 -6.9177e-002 22031 107435,108046,107461
 1.3500e+001 108196  7.3729e-002 -1.0460e-001  1.7819e-002 21783 108118,108170,108144
 1.3500e+001 108655  1.5299e-001  8.6747e-001  5.1202e-001 21379 108407,108485,108459
 1.3500e+001 108632  1.7960e+000  3.8690e-001  5.6703e-001 21379 108407,108511,108485
 1.3500e+001 108609  1.7265e+000  8.6554e-001  1.1505e+000 21379 108381,108511,108407
 1.3500e+001 108586  7.5125e-001  1.7211e+000  7.1883e-003 21379 108381,108537,108511
 1.3500e+001 108563  4.6115e-001  1.1556e-001  2.3378e-001 21379 108407,108459,108433
 1.3500e+001 109082  1.8632e-001 -6.5840e-001 -4.5748e-002 20974 109105,108863,108811
 1.3500e+001 109059 -1.7545e-001 -8.1718e-001 -1.6871e-002 20974 109105,108811,108759
 1.3500e+001 109036  2.1578e-002 -1.8390e+000  2.3833e-001 20974 109177,108889,108863
 1.3500e+001 109013 -1.1298e-001 -6.3286e-001  4.2844e-002 20974 108811,108863,108837
 1.3500e+001 108990  1.7638e-001 -7.5658e-002 -7.6364e-003 20974 108759,108941,108915
 1.3500e+001 108967  8.6136e-002 -5.5643e-002 -5.4084e-003 20974 108759,108811,108785
 1.3500e+001 109131 -1.6959e-001 -1.4320e+000  6.7810e-002 20974 109177,108863,109105
 1.3500e+001 109154  1.8716e-002 -3.8882e-002 -4.6275e-002 20974 108915,109105,108759
 1.3500e+001 109203 -1.1664e-001 -1.5224e+000 -2.8219e-001 20974 108915,108889,109177
 1.3500e+001 109226  4.1329e-002 -4.9239e-001 -3.8047e-001 20974 108915,109177,109105
 1.3500e+001 109496 -2.7120e-001  3.2982e-002 -3.8975e-002 20470 109271,109375,109297
 1.3500e+001 109473 -2.3331e-001  6.0331e-002 -5.1025e-002 20470 109271,109401,109375
 1.3500e+001 109450 -3.2616e-001 -9.1288e-003 -5.8066e-002 20470 109297,109375,109349
 1.3500e+001 109427 -4.8053e-001 -2.9941e-001  9.9835e-002 20470 109297,109349,109323
 1.3500e+001 109955  1.0154e-001  3.6572e-001  2.8694e-001 20123 110050,109733,109707
 1.3500e+001 109932 -1.5667e-001  2.8116e-001  2.6650e-001 20123 110050,109707,109681
 1.3500e+001 109909  1.6331e-001  1.4515e-001  2.2380e-001 20123 109978,109759,109733
 1.3500e+001 109886  7.7429e-002  1.3980e-001  2.2335e-001 20123 110122,109978,109733
 1.3500e+001 109863  1.7321e-001  5.8774e-002  2.1130e-001 20123 109785,109837,109811
 1.3500e+001 110004  1.6929e-001  1.7203e-001  1.9399e-001 20123 109785,109759,109978
 1.3500e+001 110027  1.5944e-001  1.6409e-001  1.8633e-001 20123 109785,109978,109837
 1.3500e+001 110076  1.8287e-002  2.1103e-001  1.8745e-001 20123 110122,109733,110050
 1.3500e+001 110099 -2.5420e-003  3.4455e-001  1.5082e-001 20123 109837,110050,109681
 1.3500e+001 110148  1.8989e-001  2.3866e-001  1.8149e-001 20123 109837,109978,110122
 1.3500e+001 110171  1.3884e-001  3.0391e-001  1.4590e-001 20123 109837,110122,110050
 1.3500e+001 110500  3.5234e-001 -4.5751e-002  2.8066e-002 19511 110301,110379,110353
 1.3500e+001 110477  8.9772e-001  3.8399e-001 -1.9881e-001 19511 110301,110405,110379
 1.3500e+001 110454  3.8623e-001  8.1188e-002  1.4876e-002 19511 110275,110405,110301
 1.3500e+001 110431  3.1490e-001 -1.3246e-001  3.1468e-002 19511 110301,110353,110327
 1.3500e+001 110957  3.1027e-001  1.3428e+000  3.2318e-001 19107 110683,110735,110709
 1.3500e+001 110934  5.8969e-001  9.9085e-001 -2.9188e-002 19107 110683,110813,110735
 1.3500e+001 110911  1.0887e+000  1.2769e+000  2.6301e-001 19107 110735,110813,110761
 1.3500e+001 110888  1.4505e+000  9.4759e-001  6.2481e-001 19107 110683,110839,110813
 1.3500e+001 110865  1.1465e+000  1.1822e+000 -1.0040e-001 19107 110761,110813,110787
 1.3500e+001 111335  9.1869e-001 -1.0900e+000  5.2884e-001 18653 111087,111165,111139
 1.3500e+001 111312  8.2379e-001 -2.4665e-002  2.3963e-001 18653 111087,111217,111165
 1.3500e+001 111289  1.6299e-001 -4.2987e-001  1.0760e+000 18653 111061,111217,111087
 1.3500e+001 111266  1.6033e+000 -1.2943e+000  1.6913e+000 18653 111087,111139,111113
 1.3500e+001 111243  7.1060e-001 -2.8384e-002 -1.2916e-001 18653 111165,111217,111191
 1.3500e+001 111735 -3.6458e-001 -2.9041e-001  1.2114e-001 18213 111461,111513,111487
 1.3500e+001 111712 -1.9259e-001 -2.9200e-001  5.2329e-002 18213 111461,111617,111513
 1.3500e+001 111689 -1.0729e-001 -8.4408e-002  8.6331e-002 18213 111513,111617,111591
 1.3500e+001 111666 -1.4917e-002 -1.5188e-001  1.0608e-001 18213 111513,111591,111539
 1.3500e+001 111643  1.4600e-001 -3.2172e-002  4.4987e-002 18213 111539,111591,111565
 1.3500e+001 111885 -7.0805e-001 -3.8863e+000 -1.2515e-001 17659 111784,111836,111810
 1.3500e+001 111862 -5.3151e-001 -2.7643e+000  3.3738e-001 17659 111758,111836,111784
 1.3500e+001 112287 -5.6428e-001 -3.0242e+000 -1.0272e+000 17411 112065,112169,112143
 1.3500e+001 112264 -1.7707e+000 -1.3228e+000 -9.1457e-001 17411 112039,112169,112065
 1.3500e+001 112241 -1.4624e+000 -8.6926e-001 -6.2555e-001 17411 112013,112169,112039
 1.3500e+001 112218  3.2971e+000 -2.2811e+000 -1.0031e+000 17411 112091,112143,112117
 1.3500e+001 112195 -7.0699e-002 -2.6463e+000 -2.3494e-001 17411 112065,112143,112091
 1.3500e+001 112508 -2.4866e-001  2.4612e-001  3.8712e-002 17007 112384,112436,112410
 1.3500e+001 112485 -1.5576e-001  3.3533e-001  7.7193e-002 17007 112332,112436,112384
 1.3500e+001 112462 -2.3896e-001  1.7432e-001  4.7414e-002 17007 112332,112384,112358
 1.3500e+001 112658 -6.2006e-001 -5.0406e-001  3.7173e-001 16553 112557,112609,112583
 1.3500e+001 112635 -1.2182e+000 -3.9537e-003  5.2066e-001 16553 112531,112609,112557
 1.3500e+001 112761  2.1059e-001 -1.0201e+000  4.9435e-002 16355 112683,112735,112709
 1.3500e+001 112913 -4.4069e-001  3.1137e-001  3.1842e-002 15949 112786,112838,112812
 1.3500e+001 112890 -1.7209e-001  7.7998e-001 -9.2131e-002 15949 112786,112864,112838
 1.3500e+001 113065  1.1772e-001 -4.7774e-001 -9.7825e-003 15609 112938,112990,112964
 1.3500e+001 113042 -1.1517e-001 -1.1308e+000 -3.2516e-001 15609 112938,113016,112990
 1.3500e+001 113420  4.5353e-001  3.0043e-001  1.0752e-001 15284 113247,113325,113299
 1.3500e+001 113397  4.3927e-001  2.6330e-001  3.3364e-002 15284 113195,113325,113247
 1.3500e+001 113374  2.8970e-001  2.0151e-001  3.6835e-002 15284 113195,113247,113221
 1.3500e+001 113351  3.5240e-001  4.2765e-001  9.0209e-002 15284 113247,113299,113273
 1.3500e+001 113521  1.1931e-001 -1.3270e-001  7.5206e-002 202 113443,113495,113469
 1.4000e+001 65564  5.5218e-002  1.2590e-003 -2.1831e-002 65155 65414,65466,65440
 1.4000e+001 65541  8.1716e-002 -3.0070e-003 -4.4593e-002 65155 65414,65492,65466
 1.4000e+001 65518  2.6419e-002 -4.9412e-002  9.0984e-003 65155 65388,65492,65414
 1.4000e+001 65883  1.4084e-001 -7.1695e-001 -1.3302e-002 64957 65635,65739,65713
 1.4000e+001 65860  1.2173e-001 -1.0548e+000 -5.2995e-002 64957 65635,65765,65739
 1.4000e+001 65837 -8.0183e-002 -1.1621e+000 -3.3852e-003 64957 65609,65765,65635
 1.4000e+001 65814  1.2668e-001 -8.6154e-001  2.3508e-001 64957 65635,65713,65687
 1.4000e+001 65791  6.0838e-003 -1.0126e+000  1.5800e-001 64957 65635,65687,65661
 1.4000e+001 65984 -3.6542e-002  4.8570e-002  2.2058e-002 64781 65906,65958,65932
 1.4000e+001 66232 -3.2132e-001 -4.0339e-001  3.5925e-001 64469 66007,66059,66033
 1.4000e+001 66209  5.7507e-002 -4.4015e-001  4.0534e-001 64469 66007,66085,66059
 1.4000e+001 66186 -2.3847e-001 -1.1023e+000  5.3584e-001 64469 66007,66137,66085
 1.4000e+001 66163 -1.2721e-001 -1.4228e+000  1.1464e+000 64469 66085,66137,66111
 1.4000e+001 66504  1.0866e-002 -1.0189e+000  2.2659e-002 64271 66279,66383,66305
 1.4000e+001 66481  1.1027e-001 -1.0153e+000 -3.1087e-002 64271 66279,66409,66383
 1.4000e+001 66458  1.9330e-001 -1.2851e+000  2.5389e-002 64271 66305,66357,66331
 1.4000e+001 66435 -7.5410e-002 -1.1578e+000  6.0265e-002 64271 66305,66383,66357
 1.4000e+001 66705  3.8309e-001 -2.7641e+000  2.2129e-001 64073 66728,66581,66555
 1.4000e+001 66682  3.7498e-001 -1.9766e+000  4.1822e-001 64073 66728,66555,66529
 1.4000e+001 66659  2.2883e-001 -1.7245e+000 -3.3440e-001 64073 66581,66633,66607
 1.4000e+001 66754 -1.0998e-001 -2.0231e+000 -6.5696e-002 64073 66633,66581,66728
 1.4000e+001 66777  8.4855e-002 -9.8662e-001  1.4534e-002 64073 66633,66728,66529
 1.4000e+001 66951 -1.2700e-001 -3.9123e-001 -6.7382e-002 63783 66824,66876,66850
 1.4000e+001 66928  4.7534e-001 -3.3362e-001  1.7404e-001 63783 66824,66902,66876
 1.4000e+001 67201 -5.9252e-001 -1.3434e+000 -1.4068e-001 63585 66976,67080,67054
 1.4000e+001 67178 -9.7843e-002 -1.1542e+000  7.0762e-002 63585 66976,67106,67080
 1.4000e+001 67155  1.9638e-001 -1.6252e+000 -5.7165e-001 63585 66976,67054,67028
 1.4000e+001 67132 -7.7063e-003 -2.1255e+000 -5.1115e-001 63585 66976,67028,67002
 1.4000e+001 67654  7.7220e-002 -7.8904e-001 -1.6320e-002 63295 67357,67487,67383
 1.4000e+001 67631  8.2419e-002 -9.7554e-001  1.1401e-001 63295 67331,67487,67357
 1.4000e+001 67608 -5.9202e-002 -1.1456e+000 -1.7720e-002 63295 67331,67513,67487
 1.4000e+001 67585  7.9861e-004 -1.1630e+000  2.6806e-003 63295 67435,67487,67461
 1.4000e+001 67562 -5.7921e-002 -1.1854e+000  4.6509e-003 63295 67383,67487,67435
 1.4000e+001 67539  2.8341e-002 -1.0997e+000  3.9115e-002 63295 67383,67435,67409
 1.4000e+001 67853 -5.5406e-002 -1.0604e+000  5.2833e-003 62891 67876,67703,67677
 1.4000e+001 67830 -3.6686e-002 -1.0920e+000 -1.7175e-002 62891 67876,67677,67781
 1.4000e+001 67807  2.2460e-002 -9.2750e-001 -7.0328e-002 62891 67948,67729,67703
 1.4000e+001 67902 -1.9974e-002 -1.0441e+000  9.3038e-003 62891 67948,67703,67876
 1.4000e+001 67925 -1.5569e-001 -1.0247e+000  4.0595e-002 62891 67755,67876,67781
 1.4000e+001 67974 -6.8633e-002 -7.7153e-001 -7.2657e-002 62891 67755,67729,67948
 1.4000e+001 67997 -4.6998e-002 -8.3152e-001 -9.8324e-003 62891 67755,67948,67876
 1.4000e+001 68218  6.8437e-002 -3.2436e-002 -8.7774e-002 62693 68042,68120,68068
 1.4000e+001 68195 -1.5223e-003 -1.9773e-002  7.0361e-003 62693 68042,68146,68120
 1.4000e+001 68172 -2.3015e-001  1.9824e-001 -4.8468e-002 62693 68068,68120,68094
 1.4000e+001 68468  3.3078e-001 -3.8387e-002  1.9987e-002 62289 68491,68295,68269
 1.4000e+001 68445  7.5041e-002 -7.7206e-002 -1.3518e-001 62289 68563,68491,68269
 1.4000e+001 68422  7.9445e-002  2.8189e-002 -5.7096e-002 62289 68563,68269,68243
 1.4000e+001 68399 -1.6594e-001 -1.9067e-001  1.5774e-002 62289 68295,68347,68321
 1.4000e+001 68517  1.5670e-001 -2.2200e-001 -7.2871e-002 62289 68347,68295,68491
 1.4000e+001 68540 -1.6318e-001 -7.9568e-002 -2.2032e-001 62289 68347,68491,68373
 1.4000e+001 68589  1.2058e-001  1.2947e-001 -1.2390e-001 62289 68373,68491,68563
 1.4000e+001 68612  7.6247e-002  1.6537e-001 -4.5278e-002 62289 68373,68563,68243
 1.4000e+001 68911 -7.4044e-002 -1.0545e+000  1.6374e-003 62091 69222,68934,68741
 1.4000e+001 68888  9.5872e-002 -1.0139e+000 -3.6733e-002 62091 69006,68934,68689
 1.4000e+001 68865  1.2070e-001 -1.0002e+000  4.3383e-004 62091 69006,68689,68663
 1.4000e+001 68842 -1.1790e-001 -1.0585e+000 -1.2268e-001 62091 69078,68793,68767
 1.4000e+001 68819 -1.8541e-001 -1.1211e+000  1.6208e-001 62091 69222,68741,68715
 1.4000e+001 68960 -1.7199e-001 -1.0581e+000  1.1542e-002 62091 68767,68741,68934
 1.4000e+001 68983 -5.3447e-002 -1.1006e+000 -3.2598e-002 62091 69078,68767,68934
 1.4000e+001 69032  8.9231e-002 -1.0215e+000 -2.0767e-002 62091 69150,69006,68637
 1.4000e+001 69055  8.3075e-002 -1.0315e+000 -1.5106e-002 62091 68637,69006,68663
 1.4000e+001 69104 -2.6501e-002 -8.4517e-001 -6.2874e-002 62091 68637,68793,69078
 1.4000e+001 69127  6.3348e-002 -9.8739e-001 -6.0308e-003 62091 69150,68637,69078
 1.4000e+001 69176  3.3059e-002 -1.0338e+000 -3.9702e-002 62091 68934,69006,69150
 1.4000e+001 69199 -1.9551e-002 -1.0169e+000 -1.7238e-002 62091 68934,69150,69078
 1.4000e+001 69248  2.3148e-003 -8.9073e-001 -2.1738e-002 62091 68689,68934,69222
 1.4000e+001 69271 -2.3355e-002 -8.4013e-001  9.1185e-002 62091 68689,69222,68715
 1.4000e+001 69521 -2.7614e-001  1.1343e-001 -6.6606e-004 61893 69544,69348,69296
 1.4000e+001 69498 -7.1128e-002  1.4873e-001  3.8515e-002 61893 69544,69296,69400
 1.4000e+001 69475  6.3353e-002  1.6995e-001  2.6904e-002 61893 69296,69426,69400
 1.4000e+001 69452 -1.9307e-001 -4.4484e-001 -1.3355e-001 61893 69296,69348,69322
 1.4000e+001 69570 -1.6794e-001  2.5252e-002  1.5745e-001 61893 69374,69348,69544
 1.4000e+001 69593  1.9287e-001  1.4865e-001  1.8693e-001 61893 69374,69544,69400
 1.4000e+001 70046  6.2446e-002 -8.4440e-001 -9.7582e-003 61467 69749,69905,69879
 1.4000e+001 70023  1.3121e-001 -6.6285e-001  1.8938e-001 61467 69723,69905,69749
 1.4000e+001 70000  4.7005e-002 -9.0357e-001 -2.8091e-002 61467 70069,69827,69775
 1.4000e+001 69977 -1.0014e-001 -1.2837e+000  1.0110e-001 61467 70069,69775,69749
 1.4000e+001 69954 -3.6734e-002 -6.6374e-001 -2.9327e-002 61467 70141,69853,69827
 1.4000e+001 69931  7.9825e-002 -1.1807e+000 -3.5128e-001 61467 69775,69827,69801
 1.4000e+001 70095  8.0074e-003 -7.2746e-001 -7.0597e-002 61467 70141,69827,70069
 1.4000e+001 70118  5.1919e-002 -8.8975e-001  3.7315e-005 61467 69879,70069,69749
 1.4000e+001 70167  9.2130e-003 -7.6105e-001 -2.5693e-002 61467 69879,69853,70141
 1.4000e+001 70190 -1.3425e-002 -9.1201e-001 -6.8024e-002 61467 69879,70141,70069
 1.4000e+001 70291 -9.6285e-002 -1.5000e+000 -1.7299e-001 61013 70213,70265,70239
 1.4000e+001 70441  2.1649e-001  2.9120e-002 -3.1156e-002 60651 70340,70392,70366
 1.4000e+001 70418  1.9382e-001 -6.0328e-002 -2.7098e-002 60651 70314,70392,70340
 1.4000e+001 70642  8.1483e-002 -6.5508e-001 -1.8646e-001 60311 70665,70492,70466
 1.4000e+001 70619 -1.3565e-001 -1.2081e+000 -2.6363e-001 60311 70665,70466,70570
 1.4000e+001 70596 -3.2665e+000 -1.5273e-001  3.0724e-001 60311 70492,70544,70518
 1.4000e+001 70691  5.2010e-002 -9.7500e-002  3.8423e-001 60311 70544,70492,70665
 1.4000e+001 70714 -2.9753e-001 -9.4094e-001  3.1996e-001 60311 70544,70665,70570
 1.4000e+001 70964  3.0466e-001 -1.2137e+000  1.3526e-001 59907 70987,70765,70739
 1.4000e+001 70941  2.9874e-001 -1.2492e+000 -4.5418e-002 59907 71059,70987,70739
 1.4000e+001 70918  1.7450e-001 -1.4179e+000  8.8592e-003 59907 71059,70739,70869
 1.4000e+001 70895  1.6813e-001 -1.0509e+000  1.1366e-002 59907 70817,70869,70843
 1.4000e+001 71013  1.2177e+000 -7.6684e-001  5.5676e-001 59907 70791,70765,70987
 1.4000e+001 71036  4.0551e-001 -1.4075e+000  1.8447e-001 59907 70791,70987,70817
 1.4000e+001 71085  1.4763e-001 -1.1502e+000 -3.6789e-002 59907 70817,70987,71059
 1.4000e+001 71108  1.4176e-001 -1.1840e+000 -3.3411e-002 59907 70817,71059,70869
 1.4000e+001 71441 -5.4083e-001 -7.6676e-001  5.6103e-001 59417 71464,71242,71216
 1.4000e+001 71418 -3.6717e-001 -4.6548e-001  7.9136e-001 59417 71464,71216,71320
 1.4000e+001 71395 -5.2462e-001 -3.8807e-001  8.5011e-001 59417 71216,71346,71320
 1.4000e+001 71372 -5.7173e-001 -7.9260e-001  3.8701e-001 59417 71268,71320,71294
 1.4000e+001 71490 -7.4528e-001 -8.1414e-001  2.4582e-001 59417 71268,71242,71464
 1.4000e+001 71513 -6.7268e-001 -3.9973e-001  4.7111e-001 59417 71268,71464,71320
 1.4000e+001 71712  1.4266e+000  1.3190e+000  4.1939e-001 58913 71562,71614,71588
 1.4000e+001 71689  8.7731e-001  1.0005e+000  2.8735e-001 58913 71536,71614,71562
 1.4000e+001 71666  5.1601e-001  1.9720e+000 -1.8195e-001 58913 71536,71640,71614
 1.4000e+001 72171 -9.8574e-001 -2.1566e+000  1.9129e-001 58409 72194,72027,72001
 1.4000e+001 72148 -8.6163e-001 -2.5283e+000 -5.9766e-002 58409 72194,72001,71949
 1.4000e+001 72125 -5.2296e-001 -1.4191e+000  1.7342e-003 58409 71923,72053,71949
 1.4000e+001 72102 -9.7356e-001 -2.4781e+000 -1.9358e-001 58409 71949,72001,71975
 1.4000e+001 72079 -2.2091e-001 -1.0080e+000  3.2341e-001 58409 71897,72053,71923
 1.4000e+001 72220 -7.4301e-001 -1.9912e+000  3.4342e-001 58409 72053,72027,72194
 1.4000e+001 72243 -6.4157e-001 -2.2583e+000  8.0817e-002 58409 72053,72194,71949
 1.4000e+001 72491  8.1525e-001  1.2767e+000  2.7168e-001 57855 72514,72318,72292
 1.4000e+001 72468  1.1811e+000  1.2513e+000  5.0980e-001 57855 72514,72292,72266
 1.4000e+001 72445  7.3171e-001  1.2632e+000  3.7645e-001 57855 72318,72396,72370
 1.4000e+001 72422  5.4540e-001  1.2602e+000  2.8323e-001 57855 72318,72370,72344
 1.4000e+001 72540  7.7481e-001  1.4353e+000  3.6795e-001 57855 72396,72318,72514
 1.4000e+001 72563  8.0957e-001  1.5673e+000  4.4851e-001 57855 72396,72514,72266
 1.4000e+001 72811 -2.9664e-001 -2.1618e+000  1.1126e+000 57401 72612,72690,72638
 1.4000e+001 72788 -2.1222e+000 -2.9331e+000  1.5010e+000 57401 72586,72690,72612
 1.4000e+001 72765  3.6054e+000 -3.7493e+000  9.2215e-002 57401 72638,72690,72664
 1.4000e+001 72742  2.8999e-001 -1.1612e+000  6.8867e-001 57401 72586,72716,72690
 1.4000e+001 73144 -4.9995e-002 -9.9318e-001 -2.8235e-002 57004 72919,72997,72945
 1.4000e+001 73121 -1.3139e-001 -1.2129e+000  3.9721e-002 57004 72919,73049,72997
 1.4000e+001 73098 -1.8125e-001 -8.7530e-001 -1.3093e-001 57004 72945,72997,72971
 1.4000e+001 73075 -1.0179e-001 -1.1798e+000  7.0723e-002 57004 72997,73049,73023
 1.4000e+001 73650 -2.4058e-001 -3.1956e+000  2.9150e-001 56592 73673,73379,73353
 1.4000e+001 73627 -7.0618e-001 -2.5497e+000  1.3265e+000 56592 73673,73353,73327
 1.4000e+001 73604  6.5486e-001 -1.7745e+000  1.0444e+000 56592 73745,73509,73483
 1.4000e+001 73581  1.0646e+000 -1.8884e+000  4.8232e-001 56592 73379,73457,73405
 1.4000e+001 73558  1.5384e+000 -1.9528e+000  1.0177e+000 56592 73379,73483,73457
 1.4000e+001 73535  2.2847e+000 -1.0734e+000  8.3568e-001 56592 73405,73457,73431
 1.4000e+001 73699  2.0133e-001 -2.4880e+000  7.2913e-001 56592 73483,73379,73673
 1.4000e+001 73722  5.9590e-001 -2.4735e+000  1.2948e+000 56592 73745,73483,73673
 1.4000e+001 73771  4.0439e-001 -4.0554e-001  6.0927e-001 56592 73327,73509,73745
 1.4000e+001 73794  3.1437e-002 -1.2371e+000  1.0300e+000 56592 73327,73745,73673
 1.4000e+001 74123  2.9451e-001  2.2277e-001 -5.8332e-001 56152 74146,74002,73924
 1.4000e+001 74100  4.9861e-001  1.9354e-001 -4.5960e-001 56152 74146,73924,73898
 1.4000e+001 74077  1.1902e+000  7.0142e-001 -8.2013e-001 56152 73924,74002,73976
 1.4000e+001 74054  5.8672e-001 -6.6669e-001  3.2055e-001 56152 73924,73976,73950
 1.4000e+001 74172  1.1171e-001  4.6571e-001 -4.6036e-001 56152 74028,74002,74146
 1.4000e+001 74195  4.0750e-001  3.5253e-001 -3.3591e-001 56152 74028,74146,73898
 1.4000e+001 74345  1.3752e+000 -3.2618e-001 -6.5050e-001 55634 74218,74270,74244
 1.4000e+001 74322 -1.3527e-001 -2.5053e-001 -2.7109e-001 55634 74218,74296,74270
 1.4000e+001 74823 -1.2666e-001 -2.5895e+000  4.4187e-001 55016 74918,74846,74581
 1.4000e+001 74800 -4.7533e-001 -2.6792e+000  1.3169e-001 55016 74846,74477,74633
 1.4000e+001 74777 -7.8456e-001 -3.2244e+000  7.0106e-001 55016 74918,74581,74555
 1.4000e+001 74754 -8.0833e-001 -2.2832e+000  2.1535e-001 55016 74990,74503,74477
 1.4000e+001 74731 -3.7446e-001 -3.1137e+000 -5.9621e-001 55016 74451,74633,74477
 1.4000e+001 74708 -1.3538e+000 -2.2287e+000 -8.7760e-001 55016 74451,74659,74633
 1.4000e+001 74685 -1.7930e+000 -1.5079e+000  1.4977e+000 55016 74503,74555,74529
 1.4000e+001 74872 -4.6156e-001 -3.4161e+000  3.9470e-001 55016 74607,74581,74846
 1.4000e+001 74895 -2.8665e-001 -2.9450e+000  2.1662e-001 55016 74607,74846,74633
 1.4000e+001 74944 -1.0127e+000 -3.0182e+000  2.8945e-001 55016 74477,74846,74918
 1.4000e+001 74967 -7.9559e-001 -2.4145e+000  3.0443e-001 55016 74990,74477,74918
 1.4000e+001 75016 -8.5335e-001 -2.2745e+000  6.3266e-001 55016 74555,74503,74990
 1.4000e+001 75039 -9.6704e-001 -2.6824e+000  7.1121e-001 55016 74555,74990,74918
 1.4000e+001 75287 -8.6418e-001 -6.2206e+000  9.3359e-001 54726 75310,75140,75114
 1.4000e+001 75264 -1.3795e+000 -5.2498e+000  6.3150e-001 54726 75310,75114,75088
 1.4000e+001 75241  2.1517e-001 -4.2139e+000  1.2232e-001 54726 75088,75192,75166
 1.4000e+001 75218 -7.3574e-001 -9.1701e-001  8.2323e-001 54726 75062,75192,75088
 1.4000e+001 75336 -1.3521e-001 -5.6195e+000  4.2125e-001 54726 75166,75140,75310
 1.4000e+001 75359 -1.1705e+000 -4.7616e+000  3.4147e-001 54726 75166,75310,75088
 1.4000e+001 75946 -1.2217e-001 -4.8481e-001 -1.6048e-001 54322 75969,75701,75649
 1.4000e+001 75923  1.2807e-001 -3.6586e-001 -2.0358e-001 54322 75969,75649,75623
 1.4000e+001 75900 -2.5294e-002 -3.4918e-001 -2.1236e-002 54322 76041,75753,75701
 1.4000e+001 75877 -7.2507e-002 -7.8067e-001 -3.2047e-002 54322 75623,75805,75779
 1.4000e+001 75854 -5.4430e-002 -4.4113e-001  1.8128e-001 54322 75701,75753,75727
 1.4000e+001 75831 -5.0980e-003 -1.4837e-001 -5.6509e-002 54322 75649,75701,75675
 1.4000e+001 75995  6.1934e-002 -3.9795e-001 -9.4618e-002 54322 76041,75701,75969
 1.4000e+001 76018  7.4397e-002 -5.1983e-001 -1.0777e-001 54322 75779,75969,75623
 1.4000e+001 76067 -7.7394e-002 -4.7876e-001  1.0672e-002 54322 75779,75753,76041
 1.4000e+001 76090 -1.6359e-002 -5.7249e-001 -6.2611e-002 54322 75779,76041,75969
 1.4000e+001 76468 -1.6623e-002 -5.1694e-001 -6.6189e-002 53868 76491,76272,76220
 1.4000e+001 76445  7.3190e-002 -5.3304e-001 -1.9826e-002 53868 76491,76220,76324
 1.4000e+001 76422 -2.1244e-002 -7.1985e-001 -8.6663e-002 53868 76220,76272,76246
 1.4000e+001 76399  1.2012e-001 -5.6998e-001 -3.8389e-002 53868 76194,76324,76220
 1.4000e+001 76376  5.4565e-001 -3.9949e-001  7.4951e-002 53868 76194,76350,76324
 1.4000e+001 76517  3.3625e-002 -4.7941e-001 -1.4785e-002 53868 76298,76272,76491
 1.4000e+001 76540  1.2344e-001 -5.0693e-001  2.7453e-002 53868 76298,76491,76324
 1.4000e+001 76690  1.3045e-002 -6.9033e-001  7.1042e-002 53356 76589,76641,76615
 1.4000e+001 76667 -1.9082e-001 -8.7297e-001 -1.7370e-002 53356 76563,76641,76589
 1.4000e+001 76938  1.7551e-001  3.8913e-001  8.6540e-002 53009 77105,76961,76765
 1.4000e+001 76915 -6.4015e-002 -1.4870e+000 -5.9627e-001 53009 76961,76713,76843
 1.4000e+001 76892 -2.4370e-001 -6.9204e-001  7.3958e-002 53009 77033,76817,76791
 1.4000e+001 76869  5.1650e-001  1.7395e+000 -1.2265e-001 53009 77105,76765,76739
 1.4000e+001 76987 -2.5772e-001 -6.2393e-001 -1.7477e-001 53009 76791,76765,76961
 1.4000e+001 77010 -1.9676e-001 -3.9548e-001 -2.0502e-001 53009 77033,76791,76961
 1.4000e+001 77059  2.0954e-001 -4.3850e-001 -1.8996e-001 53009 76843,76817,77033
 1.4000e+001 77082  1.6430e-001 -3.1457e-001 -4.5055e-001 53009 76843,77033,76961
 1.4000e+001 77131  8.1628e-001  1.2502e-002 -1.0111e+000 53009 76713,76961,77105
 1.4000e+001 77154  9.9562e-001  5.1980e-001 -1.2376e+000 53009 76713,77105,76739
 1.4000e+001 77355  5.5891e-001 -4.0229e+000  4.5536e-001 52390 77378,77257,77231
 1.4000e+001 77332  6.9477e-001 -5.1583e+000  6.3294e-001 52390 77378,77231,77179
 1.4000e+001 77309  1.3696e+000 -3.7855e+000  4.1169e-001 52390 77179,77231,77205
 1.4000e+001 77404  8.3203e-001 -4.9350e+000  1.0245e+000 52390 77283,77257,77378
 1.4000e+001 77427  7.5040e-001 -6.4551e+000  1.1123e+000 52390 77283,77378,77179
 1.4000e+001 77677 -1.1642e+000  1.2956e+000 -1.4884e+000 51986 77700,77504,77478
 1.4000e+001 77654 -2.3405e-001  1.2529e+000 -1.3170e+000 51986 77700,77478,77452
 1.4000e+001 77631  3.8427e-001  1.2132e+000 -1.3792e+000 51986 77772,77556,77530
 1.4000e+001 77608  3.4289e+000  2.2366e+000 -2.2410e+000 51986 77452,77582,77556
 1.4000e+001 77726 -3.8268e-001  1.6381e+000 -9.6366e-001 51986 77530,77504,77700
 1.4000e+001 77749  3.4442e-001  1.1947e+000 -1.1140e+000 51986 77772,77530,77700
 1.4000e+001 77798  7.8173e-002  1.0632e+000 -1.2935e+000 51986 77452,77556,77772
 1.4000e+001 77821 -8.3532e-002  1.0534e+000 -1.0661e+000 51986 77452,77772,77700
 1.4000e+001 78282 -1.0352e+000 -3.0735e+000  6.2819e-002 51738 78008,78138,78060
 1.4000e+001 78259 -1.3736e+000 -3.9611e+000  2.1250e+000 51738 78008,78164,78138
 1.4000e+001 78236 -6.0007e-001 -1.7286e+000  7.1746e-001 51738 78086,78138,78112
 1.4000e+001 78213 -5.6793e-001 -1.4345e+000  6.3651e-001 51738 78060,78138,78086
 1.4000e+001 78190 -8.7398e-002 -4.4406e+000 -5.3941e-001 51738 78008,78060,78034
 1.4000e+001 78432  2.3978e-001 -4.2673e-001  2.3678e-002 51148 78305,78357,78331
 1.4000e+001 78409  1.5488e-001 -3.0250e-001  2.9419e-002 51148 78305,78383,78357
 1.4000e+001 78891 -1.0797e-001 -5.8076e-001 -5.2614e-002 50808 78914,78695,78669
 1.4000e+001 78868 -3.4827e-002 -3.9552e-001 -2.0965e-002 50808 78914,78669,78643
 1.4000e+001 78845 -5.6198e-002 -5.2860e-001 -2.9770e-001 50808 78643,78773,78747
 1.4000e+001 78822 -2.6635e-002 -5.5684e-001 -2.8276e-001 50808 78617,78773,78643
 1.4000e+001 78799 -2.8713e-001 -5.9675e-001 -1.1682e-001 50808 78695,78747,78721
 1.4000e+001 78940 -1.9329e-001 -4.5742e-001 -1.7974e-001 50808 78747,78695,78914
 1.4000e+001 78963 -1.1593e-001 -3.5193e-001 -1.4398e-001 50808 78747,78914,78643
 1.4000e+001 79260  8.9165e-002 -5.7642e-001 -2.9294e-002 50468 79283,79090,79012
 1.4000e+001 79237  2.6629e-001 -5.3756e-001  2.4139e-002 50468 79283,79012,78986
 1.4000e+001 79214 -9.5886e-002 -6.5780e-001 -5.3928e-002 50468 79012,79090,79038
 1.4000e+001 79191  1.2938e-001 -4.6690e-001  1.1325e-001 50468 78986,79142,79116
 1.4000e+001 79168  4.1313e-003 -6.5477e-001 -9.0533e-002 50468 79038,79090,79064
 1.4000e+001 79309 -1.0638e-001 -5.1840e-001 -5.1636e-002 50468 79116,79090,79283
 1.4000e+001 79332  1.1712e-001 -4.3288e-001  1.8906e-002 50468 79116,79283,78986
 1.4000e+001 79889  7.9917e-001  1.1271e+000 -5.0401e-001 50064 79569,79725,79699
 1.4000e+001 79866  9.0971e-001  1.1942e+000 -4.3186e-001 50064 79543,79725,79569
 1.4000e+001 79843  8.5083e-001  6.9521e-001 -5.5075e-001 50064 79621,79699,79673
 1.4000e+001 79820  1.0826e+000  1.2136e+000 -8.4661e-001 50064 79595,79699,79621
 1.4000e+001 79797  1.5897e+000  1.3485e+000 -6.4704e-001 50064 79569,79699,79595
 1.4000e+001 79774  3.7846e-001  1.2111e+000 -2.5611e-001 50064 79517,79725,79543
 1.4000e+001 79751  4.9133e-001  7.0350e-001 -5.8881e-001 50064 79621,79673,79647
 1.4000e+001 80169  1.0440e+000  1.5483e+000 -6.8663e-001 49724 80019,80097,80071
 1.4000e+001 80146  9.6813e-001  1.9544e+000 -7.7668e-001 49724 79993,80097,80019
 1.4000e+001 80123  7.0521e-001  1.4572e+000 -8.1558e-001 49724 80019,80071,80045
 1.4000e+001 80626  1.0497e-001  3.0660e-001  2.3870e-001 49277 80352,80482,80378
 1.4000e+001 80603 -2.4718e-001  2.0141e-001 -2.5645e-002 49277 80352,80508,80482
 1.4000e+001 80580 -1.5159e-001 -4.1560e-001  5.3813e-002 49277 80378,80482,80456
 1.4000e+001 80557 -1.4028e-001 -7.4816e-001  3.5377e-001 49277 80378,80430,80404
 1.4000e+001 80534 -3.7726e-002 -3.2168e-001  2.6144e-001 49277 80378,80456,80430
 1.4000e+001 81230  7.2104e-001 -3.8729e-001  1.7294e-001 48716 81253,80835,80809
 1.4000e+001 81207  6.4690e-001 -3.4159e-001  5.5391e-001 48716 81397,81253,80809
 1.4000e+001 81184  5.7669e-002  2.6890e-001 -5.6255e-002 48716 81325,80913,80887
 1.4000e+001 81161 -1.0173e-001 -4.1625e-001  7.2627e-001 48716 81397,80809,81017
 1.4000e+001 81138 -1.7449e-001  4.3510e-001 -1.1106e-001 48716 81469,80965,80913
 1.4000e+001 81115 -1.3968e-001 -5.7178e-001  2.4161e-001 48716 80835,80887,80861
 1.4000e+001 81092  9.2347e-001 -4.3115e-001  1.4085e+000 48716 80809,81043,81017
 1.4000e+001 81069 -1.1531e-002  2.0068e-001 -3.0131e-001 48716 80913,80965,80939
 1.4000e+001 81279  2.7587e-001 -3.6829e-001 -1.5383e-002 48716 80887,80835,81253
 1.4000e+001 81302  8.1400e-002  2.8002e-001 -5.2755e-002 48716 81325,80887,81253
 1.4000e+001 81351  1.1455e-001  3.6367e-001  5.8775e-004 48716 81469,80913,81325
 1.4000e+001 81374 -1.0597e-002  5.5749e-001  1.2262e-001 48716 80991,81325,81253
 1.4000e+001 81423 -4.4457e-001  7.1411e-002  6.4023e-001 48716 80991,81253,81397
 1.4000e+001 81446 -1.2943e+000 -1.2571e-001  8.8405e-001 48716 80991,81397,81017
 1.4000e+001 81495 -6.3859e-001  4.1133e-001 -9.9754e-002 48716 80991,80965,81469
 1.4000e+001 81518 -4.0780e-001  2.9497e-001  9.0783e-003 48716 80991,81469,81325
 1.4000e+001 81717 -2.3944e-002 -5.8800e-001  7.6527e-002 48262 81740,81567,81541
 1.4000e+001 81694 -1.5985e-001 -5.8922e-001  2.0600e-002 48262 81740,81541,81645
 1.4000e+001 81671 -1.0722e-001 -6.3998e-001 -1.8860e-002 48262 81567,81619,81593
 1.4000e+001 81766 -1.0943e-001 -5.9715e-001 -2.8683e-003 48262 81619,81567,81740
 1.4000e+001 81789 -2.5716e-001 -6.2955e-001 -6.8593e-002 48262 81619,81740,81645
 1.4000e+001 81939  1.0030e+000  1.1332e+000 -4.4162e-001 47957 82034,81962,81864
 1.4000e+001 81916  7.3910e-001  8.4274e-001 -1.1815e-001 47957 82166,81962,81838
 1.4000e+001 81988 -4.3928e-001  1.0529e+000 -4.8300e-001 47957 82294,81962,81890
 1.4000e+001 82011  6.9856e-001  1.7904e+000  3.1236e-001 47957 81890,81962,81812
 1.4000e+001 82060  9.0118e-001  1.6050e+000  2.8754e-002 47957 81838,81962,82034
 1.4000e+001 82192  9.6957e-001  9.8444e-001  3.3278e-001 47957 81812,81962,82166
 1.4000e+001 82320  1.0397e-001  1.1021e+000 -6.0335e-001 47957 81864,81962,82294
 1.4000e+001 82549  4.3805e-002 -6.5867e-001 -1.7141e-001 47617 82448,82500,82474
 1.4000e+001 82526  3.3831e-001 -8.4035e-001  4.4788e-003 47617 82422,82500,82448
 1.4000e+001 82902 -4.1948e-001 -1.2272e+000  2.7190e-002 47255 82729,82807,82755
 1.4000e+001 82879 -1.2498e-001 -2.1882e+000  3.2091e-001 47255 82703,82807,82729
 1.4000e+001 82856 -1.0783e+000 -1.4038e+000  7.2472e-001 47255 82755,82807,82781
 1.4000e+001 82833  1.0889e+000 -1.6681e+000  4.4310e-001 47255 82677,82807,82703
 1.4000e+001 83182  3.5056e-001 -9.5673e-001  2.0253e-001 46680 83032,83084,83058
 1.4000e+001 83159  4.8684e-001 -3.7895e-001  2.0282e-001 46680 83205,83084,83032
 1.4000e+001 83136  7.3317e-001 -1.2850e-001 -1.8694e-002 46680 83006,83110,83084
 1.4000e+001 83231  3.0909e-001 -4.7969e-001  1.6254e-001 46680 83006,83084,83205
 1.4000e+001 83737 -7.8481e-001 -3.3870e-001  2.8266e-002 46290 83832,83760,83492
 1.4000e+001 83714 -6.2933e-001 -3.8552e-002 -1.0932e-001 46290 83760,83440,83414
 1.4000e+001 83691 -4.9988e-001 -5.1876e-001 -2.3522e-002 46290 83832,83492,83466
 1.4000e+001 83668 -6.6139e-001 -1.0964e+000  2.1824e-001 46290 83492,83570,83544
 1.4000e+001 83645 -6.0829e-001 -2.3045e-001 -2.6913e-001 46290 83414,83596,83570
 1.4000e+001 83622 -7.9212e-001 -8.3998e-001  4.3238e-001 46290 83492,83544,83518
 1.4000e+001 83786 -8.0425e-001 -3.2619e-001  5.3868e-002 46290 83570,83492,83760
 1.4000e+001 83809 -7.5766e-001 -4.5721e-001 -1.4254e-001 46290 83570,83760,83414
 1.4000e+001 83858 -4.1826e-001 -1.4185e-001  1.2610e-001 46290 83440,83760,83832
 1.4000e+001 83881  9.7880e-002 -2.6149e-001  8.9908e-003 46290 83440,83832,83466
 1.4000e+001 84161 -1.7816e-001 -8.4719e-001  3.7226e-001 45829 84011,84063,84037
 1.4000e+001 84138  3.4900e-002 -5.0645e-001  1.2031e-001 45829 84011,84089,84063
 1.4000e+001 84115  1.6034e-002 -5.1234e-001  1.6332e-001 45829 83985,84089,84011
 1.4000e+001 84311  3.8190e-001  1.4285e-001  1.1789e-002 45631 84184,84236,84210
 1.4000e+001 84288 -6.2048e-002 -1.1374e+000 -9.1885e-002 45631 84184,84262,84236
 1.4000e+001 84657 -5.2240e-002 -5.1634e-001 -1.4837e-002 45155 84680,84490,84412
 1.4000e+001 84634 -1.2338e-001 -4.6964e-001  1.4853e-003 45155 84680,84412,84360
 1.4000e+001 84611 -1.0117e-001 -5.4816e-001  1.7428e-002 45155 84412,84490,84438
 1.4000e+001 84588  5.9543e-002 -3.6145e-001 -3.3707e-002 45155 84334,84516,84360
 1.4000e+001 84565 -1.6107e-001 -5.4778e-001 -1.1603e-001 45155 84360,84412,84386
 1.4000e+001 84542 -7.6992e-002 -4.4042e-001  7.9108e-002 45155 84438,84490,84464
 1.4000e+001 84706 -2.2496e-002 -4.7801e-001 -2.8670e-002 45155 84516,84490,84680
 1.4000e+001 84729 -7.6123e-002 -4.1702e-001 -1.9831e-002 45155 84516,84680,84360
 1.4000e+001 85077  2.0066e-001 -2.1908e-001  6.8565e-002 44508 85100,84754,84910
 1.4000e+001 85054  2.0842e-001  1.1344e-001  1.2266e-001 44508 84754,84936,84910
 1.4000e+001 85031  5.7533e-002 -3.6733e-001  2.1144e-001 44508 85100,84910,84884
 1.4000e+001 85008 -1.5014e-001 -4.4402e-001  1.2587e-001 44508 84780,84884,84832
 1.4000e+001 84985  1.0668e-001  2.2029e-002 -9.6918e-002 44508 84780,84832,84806
 1.4000e+001 84962  6.9035e-001  1.6053e-001 -1.4183e-001 44508 84832,84884,84858
 1.4000e+001 85126  8.3432e-002  7.6341e-003 -4.1828e-002 44508 84780,84754,85100
 1.4000e+001 85149 -2.4311e-002 -1.4208e-001  8.8696e-002 44508 84780,85100,84884
 1.4000e+001 85482 -4.0722e-001 -7.0204e-001  6.7568e-003 44104 85335,85387,85361
 1.4000e+001 85459 -3.5343e-001 -1.0555e+000  4.9607e-002 44104 85309,85387,85335
 1.4000e+001 85436 -1.5545e-001 -8.4417e-001  1.8187e-001 44104 85257,85387,85309
 1.4000e+001 85413 -2.8082e-001 -1.4476e+000  1.1180e-001 44104 85257,85309,85283
 1.4000e+001 85811 -7.1052e-002 -3.6157e-001 -2.1416e-002 43600 85586,85664,85612
 1.4000e+001 85788 -1.5113e-001 -4.6090e-001  2.5163e-002 43600 85586,85690,85664
 1.4000e+001 85765  7.4833e-002 -3.6332e-001 -1.3520e-002 43600 85586,85716,85690
 1.4000e+001 85742 -3.8222e-003 -3.4271e-001 -8.6639e-003 43600 85612,85664,85638
 1.4000e+001 86010  1.4686e-002 -4.2351e-001 -6.1907e-002 43224 85886,85938,85912
 1.4000e+001 85987  1.1674e-001 -6.5708e-002 -9.9925e-002 43224 85834,85938,85886
 1.4000e+001 85964 -2.3467e-001 -4.5570e-001  5.0367e-002 43224 85834,85886,85860
 1.4000e+001 86420  1.8910e+000  9.6838e-001 -2.7632e-001 42820 86195,86299,86221
 1.4000e+001 86397  1.4333e+000  8.9989e-001 -9.1605e-001 42820 86195,86325,86299
 1.4000e+001 86374  1.2534e+000  1.1680e+000  1.9876e-002 42820 86221,86299,86273
 1.4000e+001 86351  1.1147e+000  6.6869e-001  9.8478e-002 42820 86221,86273,86247
 1.4000e+001 86749  4.1485e-001 -2.9276e-001 -9.3048e-002 42223 86550,86602,86576
 1.4000e+001 86726  1.1517e+000 -5.9629e-001  4.7451e-002 42223 86550,86628,86602
 1.4000e+001 86703  9.4878e-002 -9.6467e-001  3.3580e-001 42223 86524,86628,86550
 1.4000e+001 86680  6.5879e-001 -2.8419e-003  9.9558e-002 42223 86524,86654,86628
 1.4000e+001 87078  5.6524e-001 -3.1654e-001  2.3677e-001 41883 87173,87101,86905
 1.4000e+001 87055  4.5042e-001  3.7735e-001 -1.4217e-002 41883 87101,86879,86853
 1.4000e+001 87032  7.0931e-002 -3.4616e-002  3.2472e-002 41883 86853,86983,86931
 1.4000e+001 87009 -3.0873e-002 -4.8287e-001  1.7609e-001 41883 86931,86983,86957
 1.4000e+001 87127  6.8019e-001 -1.7938e-001  3.7295e-002 41883 86931,86905,87101
 1.4000e+001 87150  1.6525e-001 -2.8864e-001 -9.3671e-003 41883 86931,87101,86853
 1.4000e+001 87199  1.1801e-001 -2.5832e-001  2.2284e-001 41883 86879,87101,87173
 1.4000e+001 87558  2.9658e-002  5.6157e-001 -2.5381e-002 41471 87382,87460,87408
 1.4000e+001 87535 -7.8715e-001  5.5993e-003 -2.6818e-001 41471 87382,87486,87460
 1.4000e+001 87512 -2.1433e-001  3.4340e-001 -1.3512e-001 41471 87408,87460,87434
 1.4000e+001 87806  1.5191e-001 -3.0515e-001  7.1456e-002 41017 87829,87607,87581
 1.4000e+001 87783  1.0994e-001 -4.2599e-001  9.7340e-002 41017 87829,87581,87685
 1.4000e+001 87760  2.9242e-001 -1.8694e-001  1.5463e-002 41017 87581,87711,87685
 1.4000e+001 87737  3.2594e-001 -8.1971e-001  4.1090e-002 41017 87633,87685,87659
 1.4000e+001 87855  1.5078e-001 -3.4483e-001  1.6341e-001 41017 87633,87607,87829
 1.4000e+001 87878  1.0108e-001 -4.7205e-001  1.9157e-001 41017 87633,87829,87685
 1.4000e+001 88258 -3.5628e-002 -4.7055e-002  1.2249e-002 40613 88281,88036,88010
 1.4000e+001 88235 -1.1180e-002 -4.5874e-002  2.2745e-003 40613 88281,88010,88088
 1.4000e+001 88212 -3.8879e-004 -7.6140e-002  2.6415e-002 40613 87984,88088,88010
 1.4000e+001 88189  1.4590e-002 -3.9278e-002  2.0709e-002 40613 87984,88114,88088
 1.4000e+001 88166 -3.5281e-003 -3.4182e-002  2.0106e-002 40613 87984,88140,88114
 1.4000e+001 88307 -1.2646e-002 -5.1711e-002  3.6865e-003 40613 88062,88036,88281
 1.4000e+001 88330  2.3765e-002 -3.6598e-002 -1.0525e-002 40613 88062,88281,88088
 1.4000e+001 88649  2.9223e-002 -7.6892e-002 -8.4818e-003 40095 88375,88505,88401
 1.4000e+001 88626  4.8131e-003 -3.8983e-002 -2.8762e-002 40095 88375,88531,88505
 1.4000e+001 88603  5.5278e-002 -7.0842e-002 -7.1450e-003 40095 88401,88505,88479
 1.4000e+001 88580 -2.3830e-002 -2.0933e-001 -6.2369e-003 40095 88427,88479,88453
 1.4000e+001 88557 -1.3949e-002 -1.1194e-001  1.8294e-002 40095 88401,88479,88427
 1.4000e+001 89078  1.1697e+000 -1.0735e-001 -7.4352e-002 39897 89101,88833,88807
 1.4000e+001 89055  7.4481e-001 -5.4175e-001 -2.8642e-001 39897 89101,88807,88911
 1.4000e+001 89032  8.3421e-001 -1.6581e-002 -3.0405e-001 39897 88781,88911,88807
 1.4000e+001 89009  4.2109e-002 -6.0787e-001 -7.0726e-001 39897 88781,88937,88911
 1.4000e+001 88986  2.1633e+000  3.6971e-001 -3.3552e-001 39897 88833,88885,88859
 1.4000e+001 88963  5.5842e-001  1.2652e-002 -4.6901e-001 39897 88755,88937,88781
 1.4000e+001 89127  1.6029e+000 -6.4237e-001 -5.6990e-001 39897 88885,88833,89101
 1.4000e+001 89150  8.3376e-001 -1.3221e+000 -8.7310e-001 39897 88885,89101,88911
 1.4000e+001 89300 -7.5547e-001 -1.0019e+000  1.8958e-001 39607 89453,89323,89199
 1.4000e+001 89277 -1.1993e+000 -8.3902e-001  9.0463e-002 39607 89525,89453,89199
 1.4000e+001 89349 -7.3478e-001 -1.0199e+000 -5.1126e-002 39607 89225,89199,89323
 1.4000e+001 89479 -8.5046e-001 -6.1441e-001  2.0089e-001 39607 89251,89323,89453
 1.4000e+001 89502 -4.7358e-001 -2.4323e-001  4.7289e-001 39607 89251,89453,89173
 1.4000e+001 89551 -1.6195e-001 -4.5241e-001  6.9103e-002 39607 89173,89453,89525
 1.4000e+001 90264 -6.4075e-001 -1.7179e+000 -9.5448e-002 39039 89996,90074,90048
 1.4000e+001 90241 -3.8824e-001 -7.7060e-001 -8.0349e-002 39039 89918,90074,89996
 1.4000e+001 90218 -5.6196e-001 -9.7397e-001  1.6751e-005 39039 89918,89996,89944
 1.4000e+001 90195 -4.5508e-001 -7.8326e-001 -5.8639e-002 39039 89892,90074,89918
 1.4000e+001 90172  1.0329e-001 -1.7525e+000 -1.9105e-001 39039 89996,90048,90022
 1.4000e+001 90149 -1.0673e+000  3.3215e-001 -7.9052e-002 39039 89892,90100,90074
 1.4000e+001 90126 -8.9377e-001 -1.1206e+000  8.4295e-002 39039 89944,89996,89970
 1.4000e+001 90770 -7.4540e-002 -4.2825e-001  1.9391e-002 38635 90473,90603,90577
 1.4000e+001 90747  2.2763e-002 -3.6956e-001 -2.1519e-002 38635 90447,90603,90473
 1.4000e+001 90724  1.7554e-002 -4.3974e-001 -5.1671e-002 38635 90499,90577,90551
 1.4000e+001 90701 -1.3472e-001 -5.6049e-001  5.0135e-002 38635 90473,90577,90499
 1.4000e+001 90678 -5.5585e-002 -6.3830e-001 -8.6977e-003 38635 90499,90551,90525
 1.4000e+001 90655 -1.7330e-001 -4.2811e-001  5.2987e-002 38635 90447,90629,90603
 1.4000e+001 90871  8.7623e-003 -3.8877e-001 -9.4773e-002 38231 90793,90845,90819
 1.4000e+001 91458 -2.1040e-002 -2.2076e-001  1.7918e-003 37534 91161,91317,91291
 1.4000e+001 91435 -1.9960e-001 -1.4658e-001  7.1103e-002 37534 91135,91317,91161
 1.4000e+001 91412 -3.2549e-001 -1.1193e+000 -2.0924e-001 37534 91187,91291,91239
 1.4000e+001 91389 -9.3491e-002 -1.1043e+000  1.3524e-001 37534 91161,91291,91187
 1.4000e+001 91366 -7.9130e-002 -8.5935e-001 -1.0425e-001 37534 91239,91291,91265
 1.4000e+001 91343  3.8132e-001 -1.2224e+000 -5.1231e-001 37534 91187,91239,91213
 1.4000e+001 91915 -2.7798e-001 -8.6534e-001  1.5662e-001 37080 91938,91745,91667
 1.4000e+001 91892  3.0342e-002 -8.1800e-001  5.3525e-002 37080 91938,91667,91797
 1.4000e+001 91869  2.4164e-001 -3.2578e-001  1.1699e-001 37080 91641,91797,91667
 1.4000e+001 91846 -2.5307e-001 -9.7265e-001  3.8072e-002 37080 91667,91719,91693
 1.4000e+001 91823 -1.5756e-001 -7.2363e-001  9.6138e-002 37080 91667,91745,91719
 1.4000e+001 91964 -4.3571e-001 -1.0003e+000  4.2769e-001 37080 91771,91745,91938
 1.4000e+001 91987 -1.2721e-001 -8.3889e-001  2.8792e-001 37080 91771,91938,91797
 1.4000e+001 92235 -1.3453e-001 -4.0383e-001 -2.3901e-002 36397 92036,92088,92062
 1.4000e+001 92212 -7.6308e-002 -3.8960e-001 -4.6726e-002 36397 92036,92114,92088
 1.4000e+001 92189  2.0864e-002 -3.1128e-001  1.3389e-002 36397 92036,92140,92114
 1.4000e+001 92166  4.1403e-002 -4.3471e-001 -1.5738e-002 36397 92010,92140,92036
 1.4000e+001 92694  1.3714e-001  4.9240e-003 -2.5970e-002 36057 92446,92498,92472
 1.4000e+001 92671  1.7696e-001 -1.9831e-002  6.5449e-002 36057 92446,92550,92498
 1.4000e+001 92648 -4.7100e-002 -3.9493e-001  1.7209e-001 36057 92446,92576,92550
 1.4000e+001 92625  1.4153e-001 -1.3589e-002 -2.9540e-001 36057 92420,92576,92446
 1.4000e+001 92602  2.7488e-002  1.2420e-002  1.6142e-001 36057 92498,92550,92524
 1.4000e+001 93023 -1.2483e-001 -3.5681e-001 -3.2068e-002 35717 92876,92928,92902
 1.4000e+001 93000 -9.5056e-002 -3.9700e-001 -4.7847e-002 35717 92824,92928,92876
 1.4000e+001 92977  1.8471e-002 -3.9203e-001 -1.4787e-002 35717 92798,92928,92824
 1.4000e+001 92954 -1.4490e-001 -5.4771e-001 -9.3571e-002 35717 92824,92876,92850
 1.4000e+001 93499  3.7924e-001 -4.5762e-001  2.6200e-001 35405 93522,93309,93257
 1.4000e+001 93476  4.1604e-001 -4.1428e-001  2.4605e-001 35405 93666,93522,93257
 1.4000e+001 93453  4.2208e-001 -1.1694e+000  2.8781e-001 35405 93594,93127,93335
 1.4000e+001 93430  3.1374e-001 -4.3380e-001  2.3123e-001 35405 93666,93257,93231
 1.4000e+001 93407  1.2272e-001 -1.5039e+000  1.0059e-001 35405 93127,93179,93153
 1.4000e+001 93384 -3.8808e-001 -4.1298e-001  4.9176e-001 35405 93179,93231,93205
 1.4000e+001 93361  4.8485e-001  3.5948e-001  3.0775e-002 35405 93257,93309,93283
 1.4000e+001 93548  6.0979e-001 -2.7737e-001  4.8382e-001 35405 93335,93309,93522
 1.4000e+001 93571  4.2477e-001 -6.5487e-001  3.6102e-001 35405 93594,93335,93522
 1.4000e+001 93620  5.1667e-001 -6.3579e-001  2.0299e-001 35405 93179,93127,93594
 1.4000e+001 93643  3.0485e-001 -4.0426e-001  2.1871e-001 35405 93738,93594,93522
 1.4000e+001 93692  3.0607e-001 -4.1358e-001  2.0453e-001 35405 93738,93522,93666
 1.4000e+001 93715  2.5245e-001 -4.3079e-001  1.7169e-001 35405 93179,93666,93231
 1.4000e+001 93764  2.9546e-001 -4.2715e-001  2.1615e-001 35405 93179,93594,93738
 1.4000e+001 93787  3.0032e-001 -4.3441e-001  2.0473e-001 35405 93179,93738,93666
 1.4000e+001 94372  8.6385e-001 -1.0885e-001  8.9429e-002 34951 94395,94127,94075
 1.4000e+001 94349  1.1370e+000 -1.6638e-001  2.0069e-001 34951 94395,94075,94231
 1.4000e+001 94326  1.3520e+000 -4.3210e-001 -3.2439e-001 34951 94049,94231,94075
 1.4000e+001 94303  7.7096e-001  3.3382e-001  2.4474e-001 34951 94075,94127,94101
 1.4000e+001 94280  1.6801e+000  7.8706e-001  7.1788e-001 34951 94127,94205,94153
 1.4000e+001 94257  1.2522e+000 -3.6529e-001  7.1994e-001 34951 94153,94205,94179
 1.4000e+001 94421  1.0785e+000 -1.4480e-001  2.4444e-001 34951 94205,94127,94395
 1.4000e+001 94444  1.5661e+000 -6.3829e-002  3.4821e-001 34951 94205,94395,94231
 1.4000e+001 94692  6.1797e-003 -5.3535e-002 -3.4325e-002 34397 94715,94519,94467
 1.4000e+001 94669  4.2058e-004 -5.5816e-002 -3.0821e-002 34397 94715,94467,94597
 1.4000e+001 94646  3.1712e-002  2.3378e-002 -1.2884e-002 34397 94545,94597,94571
 1.4000e+001 94623 -3.9918e-002 -1.6969e-001 -1.6527e-002 34397 94467,94519,94493
 1.4000e+001 94741 -1.4981e-003 -4.0408e-002 -3.5773e-002 34397 94545,94519,94715
 1.4000e+001 94764 -6.1731e-003 -4.9129e-002 -2.8443e-002 34397 94545,94715,94597
 1.4000e+001 94985 -5.2003e-002 -3.6941e-001  1.2175e-002 33985 94835,94913,94887
 1.4000e+001 94962  2.4929e-002 -1.9986e-001  4.0718e-002 33985 94809,94913,94835
 1.4000e+001 94939 -1.2228e-001 -4.1060e-001  3.1412e-002 33985 94835,94887,94861
 1.4000e+001 95186 -3.4588e-002 -6.2672e-001 -1.8366e-001 33645 95281,95209,95036
 1.4000e+001 95163  3.9268e-001 -6.2563e-001  3.5186e-002 33645 95209,95010,95088
 1.4000e+001 95140  3.7432e-001 -3.2809e-001  1.2192e-004 33645 95010,95114,95088
 1.4000e+001 95235 -2.2834e-001 -7.8399e-001 -3.1833e-001 33645 95062,95036,95209
 1.4000e+001 95258 -1.7167e-001 -8.4829e-001  2.6102e-001 33645 95413,95209,95088
 1.4000e+001 95307  3.1696e-001 -1.4622e-002 -4.0029e-001 33645 95010,95209,95281
 1.4000e+001 95439  1.9336e-001 -4.4737e-001  1.0369e-001 33645 95062,95209,95413
 1.4000e+001 95766 -1.3814e-001 -1.6110e-001 -2.6553e-001 33141 95789,95593,95567
 1.4000e+001 95743  4.9051e-002 -2.8464e-001 -8.4640e-002 33141 95861,95789,95567
 1.4000e+001 95720  3.8618e-002 -2.5756e-001 -3.4757e-002 33141 95861,95567,95671
 1.4000e+001 95697  4.1078e-002 -2.8552e-001 -4.3584e-002 33141 95541,95671,95567
 1.4000e+001 95815  1.1687e-002  1.8995e-001 -2.2636e-001 33141 95619,95593,95789
 1.4000e+001 95838  7.3525e-002 -1.2550e-001 -7.4449e-002 33141 95619,95789,95645
 1.4000e+001 95887  8.6751e-002 -1.9648e-001 -8.7827e-002 33141 95645,95789,95861
 1.4000e+001 95910  7.6574e-002 -1.6938e-001 -3.1062e-002 33141 95645,95861,95671
 1.4000e+001 96060 -1.1527e-001 -3.6683e-001 -1.1216e-001 32487 95959,96011,95985
 1.4000e+001 96037  3.9310e-002 -3.7215e-001 -1.2319e-002 32487 95933,96011,95959
 1.4000e+001 96570 -2.0286e-001 -4.6353e-001  2.8088e-001 32033 96665,96593,96377
 1.4000e+001 96547 -1.6022e-001 -4.8231e-001 -7.2484e-002 32033 96737,96593,96325
 1.4000e+001 96524 -2.6640e-001 -6.0308e-001  1.8370e-001 32033 96665,96377,96351
 1.4000e+001 96501 -2.7841e-001 -7.2257e-001 -3.4077e-002 32033 96737,96325,96299
 1.4000e+001 96478 -3.0012e-001 -1.7800e-001 -1.1749e-002 32033 96247,96429,96299
 1.4000e+001 96455 -7.3457e-001 -1.3379e+000  2.6773e-002 32033 96247,96299,96273
 1.4000e+001 96619  9.9278e-002 -2.2354e-001  3.5336e-001 32033 96809,96593,96403
 1.4000e+001 96642  3.0781e-001  3.3266e-001 -2.5420e-001 32033 96403,96593,96429
 1.4000e+001 96691  5.5744e-002 -8.0094e-001  1.0386e-001 32033 96325,96593,96665
 1.4000e+001 96714 -1.6607e-001 -1.0605e+000 -3.1711e-002 32033 96325,96665,96351
 1.4000e+001 96763 -2.9461e-001 -3.9794e-001  4.1336e-002 32033 96429,96593,96737
 1.4000e+001 96786 -3.3957e-001 -5.0507e-001  4.6330e-002 32033 96429,96737,96299
 1.4000e+001 96835 -2.5464e-002 -3.8934e-001  2.7603e-001 32033 96377,96593,96809
 1.4000e+001 97064 -1.3913e-002 -4.9893e-002 -5.9755e-003 31671 97087,96989,96963
 1.4000e+001 97041  2.2207e-004 -4.8968e-002  7.8274e-003 31671 97087,96963,96937
 1.4000e+001 97113 -3.6398e-002 -7.5695e-002  1.6751e-002 31671 97159,97087,97015
 1.4000e+001 97136 -1.7099e-002 -8.8963e-002  6.2849e-003 31671 97015,97087,96937
 1.4000e+001 97185  1.0860e-002  1.9228e-002 -9.7004e-003 31671 96989,97087,97159
 1.4000e+001 97563  2.2370e-002 -9.5916e-002 -8.3420e-003 31117 97586,97367,97341
 1.4000e+001 97540 -2.5207e-003 -7.5576e-002  1.3928e-002 31117 97658,97586,97341
 1.4000e+001 97517 -2.9558e-002 -7.1901e-002  2.8010e-003 31117 97658,97341,97315
 1.4000e+001 97494  6.9574e-002 -1.7916e-002  5.1745e-002 31117 97289,97445,97315
 1.4000e+001 97471  2.2873e-002 -3.7649e-002  1.2887e-002 31117 97367,97419,97393
 1.4000e+001 97612  3.5643e-003 -2.8325e-002 -1.1817e-002 31117 97419,97367,97586
 1.4000e+001 97635  6.0869e-002 -5.2189e-002  4.6457e-002 31117 97419,97586,97445
 1.4000e+001 97684  4.5956e-002 -8.3208e-002  1.5956e-002 31117 97445,97586,97658
 1.4000e+001 97707  1.4590e-002 -8.3472e-002  3.9957e-003 31117 97445,97658,97315
 1.4000e+001 98215  1.1720e-001 -8.5703e-002 -1.4010e-001 30563 98238,97996,97944
 1.4000e+001 98192 -7.7156e-002 -7.3769e-002 -1.5216e-001 30563 98310,98238,97944
 1.4000e+001 98169 -2.6501e-001 -2.4562e-001 -2.8989e-001 30563 98310,97944,97918
 1.4000e+001 98146  2.7950e-001 -7.2800e-002 -6.3960e-002 30563 97892,98074,97918
 1.4000e+001 98123  2.2928e-001 -1.8760e-001  1.0562e-001 30563 97996,98048,98022
 1.4000e+001 98100 -1.7084e-001 -1.9117e-001 -1.4841e-001 30563 97944,97996,97970
 1.4000e+001 98264  4.3828e-002 -2.2181e-002 -9.3685e-002 30563 98048,97996,98238
 1.4000e+001 98287  2.2980e-001  2.7137e-001  1.2052e-001 30563 98048,98238,98074
 1.4000e+001 98336  1.3590e-001 -9.3458e-002 -7.6859e-003 30563 98074,98238,98310
 1.4000e+001 98359 -4.8532e-003 -1.1389e-001 -1.0806e-001 30563 98074,98310,97918
 1.4000e+001 98607 -2.0567e-001 -1.0314e-001  1.5702e-002 30073 98630,98460,98408
 1.4000e+001 98584 -3.6444e-001 -1.8836e-001 -2.8856e-002 30073 98630,98408,98382
 1.4000e+001 98561 -5.2447e-002 -1.9219e-001 -2.2557e-002 30073 98382,98512,98486
 1.4000e+001 98538 -7.9114e-002 -1.4485e-001  1.0492e-001 30073 98408,98460,98434
 1.4000e+001 98656 -1.1340e-001 -2.1901e-001 -1.8594e-002 30073 98486,98460,98630
 1.4000e+001 98679 -2.1607e-001 -2.6161e-001 -5.1239e-002 30073 98486,98630,98382
 1.4000e+001 99157  1.0690e+000 -2.4181e-001  2.0846e-001 29669 99180,98837,98811
 1.4000e+001 99134  9.1323e-001 -2.0085e-001  4.0739e-001 29669 99324,99180,98811
 1.4000e+001 99111  7.2268e-001 -2.0803e-002  6.3834e-002 29669 99252,98863,98837
 1.4000e+001 99088  8.9583e-001 -3.2425e-001  4.4364e-001 29669 99324,98811,98993
 1.4000e+001 99065  7.9838e-001  2.5777e-001  1.3808e-001 29669 98863,98941,98915
 1.4000e+001 99042 -3.9400e-001  5.4056e-002  7.4993e-002 29669 98863,98915,98889
 1.4000e+001 99019  4.0909e-001 -4.9663e-001  6.3069e-001 29669 98785,98993,98811
 1.4000e+001 99206  7.8317e-001 -3.6216e-001  1.7296e-001 29669 99252,98837,99180
 1.4000e+001 99229  4.5520e-001 -2.7016e-001  4.9568e-001 29669 98941,99180,98967
 1.4000e+001 99278  6.9759e-001  2.0992e-001  1.2215e-001 29669 98941,98863,99252
 1.4000e+001 99301  9.0932e-001  6.9321e-002  2.6720e-001 29669 98941,99252,99180
 1.4000e+001 99350  8.7980e-001 -4.8172e-002  3.9670e-001 29669 98967,99180,99324
 1.4000e+001 99373  8.9092e-001 -1.4839e-001  4.1462e-001 29669 98967,99324,98993
 1.4000e+001 99958  4.8408e-001  5.5286e-001  2.2582e-001 29051 99981,99765,99739
 1.4000e+001 99935  9.8559e-002 -1.9721e-002  5.8592e-002 29051 99981,99739,99661
 1.4000e+001 99912  1.8765e-001 -1.3188e+000  5.8775e-002 29051 99765,99817,99791
 1.4000e+001 99889  1.2969e-001 -5.2704e-001  3.1063e-002 29051 99635,99817,99661
 1.4000e+001 99866 -2.9034e-001 -4.9639e-002  3.4111e-001 29051 99661,99739,99687
 1.4000e+001 99843 -5.0694e-001  2.1754e-002  2.2049e-001 29051 99687,99739,99713
 1.4000e+001 100007  7.0098e-001 -6.1810e-003  2.7977e-001 29051 99817,99765,99981
 1.4000e+001 100030  5.2888e-001 -2.7001e-001  2.0358e-001 29051 99817,99981,99661
 1.4000e+001 100278  3.7874e-001 -3.3549e-001  1.8647e-001 28525 100445,100301,100131
 1.4000e+001 100255  2.0538e-001  4.0390e-002  1.2450e-001 28525 100373,100301,100079
 1.4000e+001 100232  1.9008e-001 -2.8140e-001  1.7421e-001 28525 100373,100079,100053
 1.4000e+001 100209  1.9188e-001 -2.1237e-001  5.5083e-002 28525 100445,100131,100105
 1.4000e+001 100327  4.5170e-001 -2.8133e-001  3.2716e-001 28525 100517,100301,100157
 1.4000e+001 100350  4.7065e-001  4.9806e-001  4.0504e-001 28525 100157,100301,100183
 1.4000e+001 100399  1.7543e-001 -2.9287e-001  2.8779e-001 28525 100183,100301,100373
 1.4000e+001 100422  2.3445e-001 -5.2191e-001  3.3323e-001 28525 100183,100373,100053
 1.4000e+001 100471  1.3045e-001 -3.5081e-001 -1.2229e-001 28525 100079,100301,100445
 1.4000e+001 100494 -4.0646e-001 -4.7212e-001 -2.6181e-001 28525 100079,100445,100105
 1.4000e+001 100543  7.0381e-001  1.7668e-002  4.7149e-002 28525 100131,100301,100517
 1.4000e+001 101209 -5.5235e-001 -1.8105e-001 -4.5643e-002 28185 100938,101016,100990
 1.4000e+001 101186 -7.1242e-001 -4.8829e-002  6.1205e-002 28185 100912,101016,100938
 1.4000e+001 101163 -2.0138e-001  8.9774e-002  1.5693e-001 28185 100912,101068,101016
 1.4000e+001 101140 -6.2947e-001  2.0658e-001  1.4767e-001 28185 100886,101068,100912
 1.4000e+001 101117 -1.7902e-001  4.0022e-001  2.0595e-001 28185 101016,101068,101042
 1.4000e+001 101094 -1.6315e+000 -4.5390e-001 -1.0368e-001 28185 100938,100990,100964
 1.4000e+001 101408  1.7887e-001 -1.9116e-001 -1.0235e-001 27781 101503,101431,101310
 1.4000e+001 101385 -1.0229e-001 -1.8019e-002 -3.4736e-001 27781 101431,101258,101232
 1.4000e+001 101362  2.0635e-001 -2.0737e-001 -1.1807e-001 27781 101503,101310,101284
 1.4000e+001 101457  7.3505e-001  4.8980e-002 -1.5744e-001 27781 101336,101310,101431
 1.4000e+001 101480  1.8554e-001  1.0666e-001 -3.6152e-001 27781 101575,101431,101232
 1.4000e+001 101529  3.4173e-001 -1.7375e-001 -2.8760e-001 27781 101258,101431,101503
 1.4000e+001 101552  2.4318e-001 -1.8869e-001 -1.3888e-001 27781 101705,101503,101284
 1.4000e+001 101601  3.9059e-001  4.5151e-001 -4.4928e-001 27781 101336,101431,101575
 1.4000e+001 101731 -7.5568e-002 -3.4226e-001 -3.0342e-001 27781 101258,101503,101705
 1.4000e+001 102237 -1.9224e-001 -1.6534e-001  3.7567e-002 27419 102476,102260,101992
 1.4000e+001 102214 -6.7966e-002 -2.9173e-001  5.6471e-003 27419 102260,101940,101914
 1.4000e+001 102191 -2.7653e-001 -3.6626e-001  2.9145e-002 27419 102404,102332,102096
 1.4000e+001 102168 -2.3361e-001 -3.6544e-001 -1.6767e-002 27419 102404,102096,102044
 1.4000e+001 102145 -1.6804e-001 -1.8559e-001  5.2854e-002 27419 102476,101992,101966
 1.4000e+001 102122 -1.6471e-001 -4.0199e-001 -1.6977e-002 27419 102044,102096,102070
 1.4000e+001 102286 -2.6334e-001 -2.7439e-001  6.8295e-002 27419 102018,101992,102260
 1.4000e+001 102309 -2.2226e-001 -2.4894e-001  7.0474e-003 27419 102332,102018,102260
 1.4000e+001 102358 -2.5682e-001 -5.1859e-001  1.3076e-001 27419 101914,102096,102332
 1.4000e+001 102381 -1.5723e-001 -3.9484e-001  4.5849e-002 27419 101914,102332,102260
 1.4000e+001 102430 -1.8205e-001 -3.3776e-001  1.0862e-002 27419 102018,102332,102404
 1.4000e+001 102453 -1.5638e-001 -3.3763e-001 -3.9739e-002 27419 102018,102404,102044
 1.4000e+001 102502 -1.0519e-001 -2.6530e-001  5.6612e-002 27419 101940,102260,102476
 1.4000e+001 102525  2.8640e-001 -6.6057e-002 -1.4060e-002 27419 101940,102476,101966
 1.4000e+001 103031 -8.0117e-001 -6.3987e-001  7.2428e-001 26715 102708,102786,102760
 1.4000e+001 103008  6.8050e-002 -5.1959e-001  2.5116e-001 26715 102708,102890,102786
 1.4000e+001 102985  5.7922e-001 -1.1392e+000  3.0778e-001 26715 102838,102890,102864
 1.4000e+001 102962  2.1243e-001 -2.4986e-001  3.0866e-001 26715 102786,102890,102838
 1.4000e+001 102939  1.1452e+000  1.8587e-001  6.0864e-001 26715 102786,102838,102812
 1.4000e+001 102916 -8.5127e-001 -2.6475e-002  1.4878e-001 26715 102708,102760,102734
 1.4000e+001 103279  8.6338e-003 -4.1154e-002  4.7055e-002 26303 103302,103158,103080
 1.4000e+001 103256 -3.9012e-002  2.1466e-003  4.9692e-002 26303 103302,103080,103054
 1.4000e+001 103233 -1.2268e-001 -1.0843e-001  1.4436e-002 26303 103080,103158,103106
 1.4000e+001 103210  1.7381e-001 -2.4161e-002  2.2822e-002 26303 103106,103158,103132
 1.4000e+001 103328  8.8255e-002  2.4097e-003  2.7779e-002 26303 103184,103158,103302
 1.4000e+001 103351 -2.4100e-003  1.2566e-002  4.0093e-002 26303 103184,103302,103054
 1.4000e+001 103501 -7.0084e-002 -3.7336e-001 -1.3416e-002 25849 103374,103426,103400
 1.4000e+001 103478 -1.6378e-001 -3.2070e-001  3.0160e-002 25849 103374,103452,103426
 1.4000e+001 104090  1.2235e-001 -4.0600e-002  1.4309e-001 25445 103793,103871,103819
 1.4000e+001 104067  3.0419e-001  4.1502e-002  6.5045e-002 25445 103793,103949,103871
 1.4000e+001 104044  3.4630e-001 -3.2632e-003  1.6030e-001 25445 103871,103949,103923
 1.4000e+001 104021  1.8807e-002  1.2890e-002 -2.7393e-002 25445 103819,103871,103845
 1.4000e+001 103998  4.0322e-001  1.3223e-001  1.6152e-001 25445 103767,103949,103793
 1.4000e+001 103975  3.8687e-001  5.1397e-002  1.8106e-001 25445 103871,103923,103897
 1.4000e+001 104419 -6.9152e-002 -1.0613e-001 -6.1596e-002 25083 104220,104298,104272
 1.4000e+001 104396 -1.6726e-001 -2.6147e-001 -1.0235e-002 25083 104220,104324,104298
 1.4000e+001 104373 -4.5911e-002 -7.0485e-002 -5.0862e-002 25083 104220,104272,104246
 1.4000e+001 104350 -1.3617e-001 -2.8781e-001 -1.4838e-002 25083 104194,104324,104220
 1.4000e+001 105102  9.5995e-002 -1.8371e-001  7.0483e-002 24793 104785,104863,104837
 1.4000e+001 105079  1.2540e-001 -2.4723e-001 -9.3089e-002 24793 104759,104863,104785
 1.4000e+001 105056  1.0760e-001 -2.5262e-002 -9.1110e-002 24793 104759,104915,104863
 1.4000e+001 105033  1.4100e-001 -1.4995e-001 -1.4490e-001 24793 104733,104915,104759
 1.4000e+001 105010  4.2444e-001  1.2209e-001 -1.5397e-001 24793 104863,104915,104889
 1.4000e+001 104987 -2.2935e-002  2.2623e-002 -2.7179e-001 24793 104681,104915,104733
 1.4000e+001 104964  8.5333e-003 -2.6006e-001  2.4488e-002 24793 104785,104837,104811
 1.4000e+001 104941 -3.0066e-003  2.5021e-001 -2.3026e-001 24793 104681,104733,104707
 1.4000e+001 105252  1.1329e+000  4.5672e-001  3.1476e-002 24389 105477,105275,105177
 1.4000e+001 105229  3.5514e-001  3.4579e-002  3.2151e-001 24389 105347,105275,105151
 1.4000e+001 105301  1.0980e+000  2.2111e-001  4.0275e-002 24389 105203,105177,105275
 1.4000e+001 105324  1.4464e+000  9.3829e-001  3.8993e-001 24389 105203,105275,105125
 1.4000e+001 105373  1.1515e+000  5.1632e-001  6.4566e-002 24389 105125,105275,105347
 1.4000e+001 105503  7.8258e-001 -2.4800e-001 -8.4589e-002 24389 105151,105275,105477
 1.4000e+001 106088 -2.3522e-001  2.5136e-001  2.9230e-001 23735 105791,105921,105895
 1.4000e+001 106065 -7.0943e-001  1.4788e-001  4.3977e-001 23735 105765,105921,105791
 1.4000e+001 106042 -8.0520e-002  5.0857e-001  2.7832e-001 23735 105765,105947,105921
 1.4000e+001 106019 -9.3221e-001 -2.8485e-002  3.5477e-001 23735 105817,105895,105869
 1.4000e+001 105996 -5.8917e-001  1.0495e-001  3.6558e-001 23735 105791,105895,105817
 1.4000e+001 105973 -5.4063e-001 -3.3494e-001  4.0866e-001 23735 105817,105869,105843
 1.4000e+001 106417  4.3355e-001  7.3605e-001 -8.4093e-002 23295 106218,106296,106270
 1.4000e+001 106394  4.1557e-001  3.6017e-001 -1.1338e-001 23295 106218,106322,106296
 1.4000e+001 106371  2.0968e-001  2.5083e-001 -1.7036e-001 23295 106218,106270,106244
 1.4000e+001 106348  5.5145e-001  4.1824e-001 -4.1923e-002 23295 106192,106322,106218
 1.4000e+001 106746 -2.9183e-001  2.1621e-001  2.8746e-001 23005 106521,106599,106547
 1.4000e+001 106723  2.5283e-001  7.5091e-001  7.1428e-002 23005 106521,106651,106599
 1.4000e+001 106700  4.1535e-001  8.8502e-002 -1.3510e-001 23005 106547,106599,106573
 1.4000e+001 106677  3.2932e-001  6.3194e-001  3.5598e-001 23005 106599,106651,106625
 1.4000e+001 107331 -1.4528e-001  3.2742e-001 -3.4546e-001 22601 107060,107190,107138
 1.4000e+001 107308 -1.0978e+000  9.5941e-001 -6.4715e-001 22601 107034,107190,107060
 1.4000e+001 107285 -2.3237e+000 -6.1576e-001 -4.3693e-001 22601 107060,107138,107112
 1.4000e+001 107262 -1.5284e+000  1.5614e+000  8.7344e-001 22601 107008,107190,107034
 1.4000e+001 107239  3.4065e-001 -3.3053e+000  1.0301e-001 22601 107060,107112,107086
 1.4000e+001 107216 -1.1771e+000  2.6984e+000  5.9058e-001 22601 107138,107190,107164
 1.4000e+001 107807 -1.0254e-001  8.7196e-002 -2.0442e-002 22031 107974,107902,107617
 1.4000e+001 107784 -1.0455e-001  2.2171e-001 -8.1868e-002 22031 107830,107565,107513
 1.4000e+001 107761  1.0823e-002  4.5293e-002 -1.0322e-001 22031 108046,107830,107513
 1.4000e+001 107738 -5.2972e-002  1.8331e-001  1.1485e-002 22031 107974,107617,107591
 1.4000e+001 107715 -8.6298e-003  1.2033e-002 -1.1686e-001 22031 108046,107513,107461
 1.4000e+001 107692 -3.3770e-001  2.7767e-001 -1.3295e-001 22031 107513,107565,107539
 1.4000e+001 107669  1.2555e-001  2.0856e-001 -1.8437e-001 22031 107461,107513,107487
 1.4000e+001 107856 -1.6658e-001  1.3996e-001 -4.6040e-002 22031 107902,107565,107830
 1.4000e+001 107879 -3.3725e-002 -6.4018e-002 -2.3508e-003 22031 107643,107830,107435
 1.4000e+001 107928 -3.1181e-001  1.2364e-001 -1.5516e-001 22031 107643,107617,107902
 1.4000e+001 107951 -1.6209e-001  1.2916e-001  2.4804e-002 22031 107643,107902,107830
 1.4000e+001 108000 -1.2945e-001  2.2461e-001 -4.0330e-002 22031 107565,107902,107974
 1.4000e+001 108023 -1.2906e-001  2.0209e-001 -3.6180e-002 22031 107565,107974,107591
 1.4000e+001 108072  5.9532e-002  8.0628e-003 -5.0159e-002 22031 107435,107830,108046
 1.4000e+001 108095  3.4616e-002 -4.5091e-002 -6.5924e-002 22031 107435,108046,107461
 1.4000e+001 108196  6.1779e-002 -1.2828e-001  1.4836e-002 21783 108118,108170,108144
 1.4000e+001 108655  1.5051e-001  8.5848e-001  5.0660e-001 21379 108407,108485,108459
 1.4000e+001 108632  1.7878e+000  3.6439e-001  5.6670e-001 21379 108407,108511,108485
 1.4000e+001 108609  1.7331e+000  8.4121e-001  1.1419e+000 21379 108381,108511,108407
 1.4000e+001 108586  6.9758e-001  1.6304e+000  4.3930e-002 21379 108381,108537,108511
 1.4000e+001 108563  4.5519e-001  1.1626e-001  2.3163e-001 21379 108407,108459,108433
 1.4000e+001 109082  1.9395e-001 -6.2975e-001 -4.3071e-002 20974 109105,108863,108811
 1.4000e+001 109059 -1.7403e-001 -7.9067e-001 -1.7295e-002 20974 109105,108811,108759
 1.4000e+001 109036  1.9848e-002 -1.7205e+000  1.9090e-001 20974 109177,108889,108863
 1.4000e+001 109013 -9.7221e-002 -5.9178e-001  4.1763e-002 20974 108811,108863,108837
 1.4000e+001 108990  1.5223e-001 -8.8372e-002 -1.9246e-002 20974 108759,108941,108915
 1.4000e+001 108967  6.5985e-002 -8.8376e-002 -7.9059e-003 20974 108759,108811,108785
 1.4000e+001 109131 -1.3546e-001 -1.3544e+000  4.7929e-002 20974 109177,108863,109105
 1.4000e+001 109154  2.0601e-002 -5.6794e-002 -5.2024e-002 20974 108915,109105,108759
 1.4000e+001 109203 -1.4605e-001 -1.4381e+000 -2.9615e-001 20974 108915,108889,109177
 1.4000e+001 109226  2.5592e-002 -4.8791e-001 -3.6665e-001 20974 108915,109177,109105
 1.4000e+001 109496 -2.5978e-001  5.1280e-002 -3.8821e-002 20470 109271,109375,109297
 1.4000e+001 109473 -2.2243e-001  7.9957e-002 -5.1613e-002 20470 109271,109401,109375
 1.4000e+001 109450 -3.1617e-001  5.9498e-003 -5.8894e-002 20470 109297,109375,109349
 1.4000e+001 109427 -4.7284e-001 -2.8902e-001  1.0158e-001 20470 109297,109349,109323
 1.4000e+001 109955  1.1673e-001  3.8027e-001  2.8813e-001 20123 110050,109733,109707
 1.4000e+001 109932 -1.4061e-001  2.9720e-001  2.6850e-001 20123 110050,109707,109681
 1.4000e+001 109909  1.7730e-001  1.6043e-001  2.2840e-001 20123 109978,109759,109733
 1.4000e+001 109886  9.1751e-002  1.5160e-001  2.2631e-001 20123 110122,109978,109733
 1.4000e+001 109863  1.8392e-001  6.8816e-002  2.0938e-001 20123 109785,109837,109811
 1.4000e+001 110004  1.8200e-001  1.8499e-001  1.9697e-001 20123 109785,109759,109978
 1.4000e+001 110027  1.6852e-001  1.7328e-001  1.8486e-001 20123 109785,109978,109837
 1.4000e+001 110076  3.3701e-002  2.2521e-001  1.9083e-001 20123 110122,109733,110050
 1.4000e+001 110099  1.3212e-002  3.6749e-001  1.5486e-001 20123 109837,110050,109681
 1.4000e+001 110148  2.0255e-001  2.5458e-001  1.8322e-001 20123 109837,109978,110122
 1.4000e+001 110171  1.5168e-001  3.2081e-001  1.4763e-001 20123 109837,110122,110050
 1.4000e+001 110500  3.6793e-001 -3.9112e-002  3.0648e-002 19511 110301,110379,110353
 1.4000e+001 110477  9.1584e-001  3.9472e-001 -1.9736e-001 19511 110301,110405,110379
 1.4000e+001 110454  4.0315e-001  9.1473e-002  1.6227e-002 19511 110275,110405,110301
 1.4000e+001 110431  3.2850e-001 -1.2871e-001  3.6717e-002 19511 110301,110353,110327
 1.4000e+001 110957  3.4993e-001  1.3326e+000  3.1730e-001 19107 110683,110735,110709
 1.4000e+001 110934  6.2143e-001  9.8660e-001 -2.6207e-002 19107 110683,110813,110735
 1.4000e+001 110911  1.1041e+000  1.2836e+000  2.5324e-001 19107 110735,110813,110761
 1.4000e+001 110888  1.4883e+000  9.3067e-001  6.5352e-001 19107 110683,110839,110813
 1.4000e+001 110865  1.1594e+000  1.1892e+000 -1.0058e-001 19107 110761,110813,110787
 1.4000e+001 111335  9.3021e-001 -1.0792e+000  5.2464e-001 18653 111087,111165,111139
 1.4000e+001 111312  8.4222e-001 -1.4308e-002  2.3473e-001 18653 111087,111217,111165
 1.4000e+001 111289  1.8411e-001 -4.1795e-001  1.0683e+000 18653 111061,111217,111087
 1.4000e+001 111266  1.5993e+000 -1.2942e+000  1.6699e+000 18653 111087,111139,111113
 1.4000e+001 111243  7.2501e-001 -2.9376e-002 -1.3160e-001 18653 111165,111217,111191
 1.4000e+001 111735 -3.4979e-001 -2.8406e-001  1.2282e-001 18213 111461,111513,111487
 1.4000e+001 111712 -1.7814e-001 -2.8045e-001  5.4013e-002 18213 111461,111617,111513
 1.4000e+001 111689 -9.3168e-002 -7.3777e-002  8.7313e-002 18213 111513,111617,111591
 1.4000e+001 111666 -3.0801e-003 -1.4332e-001  1.0616e-001 18213 111513,111591,111539
 1.4000e+001 111643  1.5266e-001 -1.9041e-002  4.6119e-002 18213 111539,111591,111565
 1.4000e+001 111885 -6.5166e-001 -3.8283e+000 -1.1859e-001 17659 111784,111836,111810
 1.4000e+001 111862 -4.9124e-001 -2.7294e+000  3.3415e-001 17659 111758,111836,111784
 1.4000e+001 112287 -5.6762e-001 -2.9930e+000 -1.0245e+000 17411 112065,112169,112143
 1.4000e+001 112264 -1.7607e+000 -1.2772e+000 -9.1739e-001 17411 112039,112169,112065
 1.4000e+001 112241 -1.4161e+000 -8.0011e-001 -5.6499e-001 17411 112013,112169,112039
 1.4000e+001 112218  3.2820e+000 -2.2474e+000 -9.9648e-001 17411 112091,112143,112117
 1.4000e+001 112195 -6.8570e-002 -2.5996e+000 -2.3443e-001 17411 112065,112143,112091
 1.4000e+001 112508 -2.3632e-001  2.6420e-001  3.9449e-002 17007 112384,112436,112410
 1.4000e+001 112485 -1.4175e-001  3.5587e-001  7.8978e-002 17007 112332,112436,112384
 1.4000e+001 112462 -2.2698e-001  1.9053e-001  4.8588e-002 17007 112332,112384,112358
 1.4000e+001 112658 -6.0233e-001 -4.9778e-001  3.7038e-001 16553 112557,112609,112583
 1.4000e+001 112635 -1.1987e+000 -1.8173e-003  5.1790e-001 16553 112531,112609,112557
 1.4000e+001 112761  2.1351e-001 -9.6020e-001  4.7264e-002 16355 112683,112735,112709
 1.4000e+001 112913 -4.3149e-001  3.3038e-001  3.2468e-002 15949 112786,112838,112812
 1.4000e+001 112890 -1.5802e-001  8.0803e-001 -9.3485e-002 15949 112786,112864,112838
 1.4000e+001 113065  1.2955e-001 -4.4000e-001 -9.0702e-003 15609 112938,112990,112964
 1.4000e+001 113042 -9.4736e-002 -1.0650e+000 -3.1084e-001 15609 112938,113016,112990
 1.4000e+001 113420  4.6695e-001  3.1796e-001  1.0794e-001 15284 113247,113325,113299
 1.4000e+001 113397  4.5163e-001  2.7841e-001  3.5125e-002 15284 113195,113325,113247
 1.4000e+001 113374  3.0671e-001  2.1765e-001  4.0160e-002 15284 113195,113247,113221
 1.4000e+001 113351  3.6883e-001  4.4633e-001  9.1652e-002 15284 113247,113299,113273
 1.4000e+001 113521  1.5972e-001 -1.7707e-001  9.7807e-002 202 113443,113495,113469
 1.4500e+001 65564  1.0055e-001 -8.7391e-002  3.7807e-002 65155 65414,65466,65440
 1.4500e+001 65541  1.4729e-001 -3.5647e-002  1.1825e-002 65155 65414,65492,65466
 1.4500e+001 65518  2.2728e-002 -9.4773e-002  2.6635e-002 65155 65388,65492,65414
 1.4500e+001 65883  1.4379e-001 -7.1723e-001 -1.5672e-002 64957 65635,65739,65713
 1.4500e+001 65860  1.2078e-001 -1.0642e+000 -5.4140e-002 64957 65635,65765,65739
 1.4500e+001 65837 -8.6409e-002 -1.1758e+000 -3.1322e-004 64957 65609,65765,65635
 1.4500e+001 65814  1.2582e-001 -8.7295e-001  2.3755e-001 64957 65635,65713,65687
 1.4500e+001 65791  3.1392e-003 -1.0283e+000  1.5813e-001 64957 65635,65687,65661
 1.4500e+001 65984 -4.2930e-002  3.1311e-002  2.6159e-002 64781 65906,65958,65932
 1.4500e+001 66232 -3.0885e-001 -3.9892e-001  3.5481e-001 64469 66007,66059,66033
 1.4500e+001 66209  6.9627e-002 -4.3310e-001  4.0151e-001 64469 66007,66085,66059
 1.4500e+001 66186 -2.3342e-001 -1.1066e+000  5.5473e-001 64469 66007,66137,66085
 1.4500e+001 66163 -1.3777e-001 -1.4469e+000  1.1466e+000 64469 66085,66137,66111
 1.4500e+001 66504  8.3769e-003 -1.0187e+000  2.2481e-002 64271 66279,66383,66305
 1.4500e+001 66481  1.1306e-001 -1.0168e+000 -3.7123e-002 64271 66279,66409,66383
 1.4500e+001 66458  1.8812e-001 -1.2741e+000  2.2617e-002 64271 66305,66357,66331
 1.4500e+001 66435 -7.1674e-002 -1.1483e+000  5.7373e-002 64271 66305,66383,66357
 1.4500e+001 66705  4.0309e-001 -2.7860e+000  2.1875e-001 64073 66728,66581,66555
 1.4500e+001 66682  4.2049e-001 -1.9906e+000  4.2149e-001 64073 66728,66555,66529
 1.4500e+001 66659  2.2621e-001 -1.7396e+000 -3.4027e-001 64073 66581,66633,66607
 1.4500e+001 66754 -1.1112e-001 -2.0348e+000 -7.1856e-002 64073 66633,66581,66728
 1.4500e+001 66777  1.0077e-001 -9.9493e-001  1.5944e-002 64073 66633,66728,66529
 1.4500e+001 66951 -1.2485e-001 -3.8623e-001 -6.4195e-002 63783 66824,66876,66850
 1.4500e+001 66928  4.7143e-001 -3.3219e-001  1.7471e-001 63783 66824,66902,66876
 1.4500e+001 67201 -5.9915e-001 -1.3577e+000 -1.4121e-001 63585 66976,67080,67054
 1.4500e+001 67178 -9.9089e-002 -1.1662e+000  7.1078e-002 63585 66976,67106,67080
 1.4500e+001 67155  1.9816e-001 -1.6522e+000 -5.7737e-001 63585 66976,67054,67028
 1.4500e+001 67132 -8.3555e-003 -2.1581e+000 -5.1729e-001 63585 66976,67028,67002
 1.4500e+001 67654  7.6090e-002 -7.7561e-001 -1.8031e-002 63295 67357,67487,67383
 1.4500e+001 67631  7.9947e-002 -9.6126e-001  1.0951e-001 63295 67331,67487,67357
 1.4500e+001 67608 -5.8270e-002 -1.1264e+000 -1.8077e-002 63295 67331,67513,67487
 1.4500e+001 67585  5.2071e-004 -1.1406e+000  1.8248e-003 63295 67435,67487,67461
 1.4500e+001 67562 -5.8261e-002 -1.1633e+000  4.1444e-003 63295 67383,67487,67435
 1.4500e+001 67539  2.7451e-002 -1.0795e+000  3.8070e-002 63295 67383,67435,67409
 1.4500e+001 67853 -6.2367e-002 -1.0557e+000  3.5574e-003 62891 67876,67703,67677
 1.4500e+001 67830 -4.1374e-002 -1.0881e+000 -2.0918e-002 62891 67876,67677,67781
 1.4500e+001 67807  1.9855e-002 -9.2301e-001 -7.0901e-002 62891 67948,67729,67703
 1.4500e+001 67902 -2.3751e-002 -1.0382e+000  7.4011e-003 62891 67948,67703,67876
 1.4500e+001 67925 -1.5697e-001 -1.0205e+000  3.6588e-002 62891 67755,67876,67781
 1.4500e+001 67974 -7.2513e-002 -7.6928e-001 -7.3880e-002 62891 67755,67729,67948
 1.4500e+001 67997 -5.2250e-002 -8.2832e-001 -1.2360e-002 62891 67755,67948,67876
 1.4500e+001 68218  4.6034e-002  5.0828e-003 -6.9322e-002 62693 68042,68120,68068
 1.4500e+001 68195 -6.4418e-003  1.2816e-002 -1.9679e-003 62693 68042,68146,68120
 1.4500e+001 68172 -2.2961e-001  2.0371e-001 -3.0859e-002 62693 68068,68120,68094
 1.4500e+001 68468  2.3371e-001 -3.5693e-002  1.1103e-002 62289 68491,68295,68269
 1.4500e+001 68445  2.2325e-002 -6.7218e-002 -1.1847e-001 62289 68563,68491,68269
 1.4500e+001 68422  2.7045e-002  3.0684e-002 -4.6066e-002 62289 68563,68269,68243
 1.4500e+001 68399 -1.6075e-001 -1.7596e-001  5.8712e-003 62289 68295,68347,68321
 1.4500e+001 68517  9.3828e-002 -1.9652e-001 -6.1007e-002 62289 68347,68295,68491
 1.4500e+001 68540 -1.6970e-001 -6.6146e-002 -1.9134e-001 62289 68347,68491,68373
 1.4500e+001 68589  6.4104e-002  1.2462e-001 -1.0760e-001 62289 68373,68491,68563
 1.4500e+001 68612  2.3485e-002  1.5806e-001 -3.4773e-002 62289 68373,68563,68243
 1.4500e+001 68911 -7.8216e-002 -1.0395e+000 -1.5248e-003 62091 69222,68934,68741
 1.4500e+001 68888  8.8600e-002 -1.0013e+000 -4.0617e-002 62091 69006,68934,68689
 1.4500e+001 68865  1.1219e-001 -9.8911e-001 -4.6397e-003 62091 69006,68689,68663
 1.4500e+001 68842 -1.1853e-001 -1.0446e+000 -1.2278e-001 62091 69078,68793,68767
 1.4500e+001 68819 -1.9041e-001 -1.1059e+000  1.5500e-001 62091 69222,68741,68715
 1.4500e+001 68960 -1.7271e-001 -1.0439e+000  8.3471e-003 62091 68767,68741,68934
 1.4500e+001 68983 -5.6736e-002 -1.0859e+000 -3.5102e-002 62091 69078,68767,68934
 1.4500e+001 69032  8.1950e-002 -1.0088e+000 -2.4713e-002 62091 69150,69006,68637
 1.4500e+001 69055  7.5882e-002 -1.0187e+000 -1.9206e-002 62091 68637,69006,68663
 1.4500e+001 69104 -2.9322e-002 -8.3633e-001 -6.6022e-002 62091 68637,68793,69078
 1.4500e+001 69127  5.6831e-002 -9.7542e-001 -1.0400e-002 62091 69150,68637,69078
 1.4500e+001 69176  2.7466e-002 -1.0210e+000 -4.3104e-002 62091 68934,69006,69150
 1.4500e+001 69199 -2.3501e-002 -1.0042e+000 -2.1344e-002 62091 68934,69150,69078
 1.4500e+001 69248 -3.5426e-003 -8.8064e-001 -2.6017e-002 62091 68689,68934,69222
 1.4500e+001 69271 -2.8710e-002 -8.3126e-001  8.4279e-002 62091 68689,69222,68715
 1.4500e+001 69521 -2.6736e-001  1.2529e-001 -1.8081e-003 61893 69544,69348,69296
 1.4500e+001 69498 -6.8462e-002  1.5198e-001  4.4436e-002 61893 69544,69296,69400
 1.4500e+001 69475  6.1572e-002  1.6884e-001  3.0409e-002 61893 69296,69426,69400
 1.4500e+001 69452 -1.8997e-001 -4.1711e-001 -1.2874e-001 61893 69296,69348,69322
 1.4500e+001 69570 -1.6132e-001  5.0226e-002  1.4860e-001 61893 69374,69348,69544
 1.4500e+001 69593  1.8668e-001  1.6321e-001  1.8692e-001 61893 69374,69544,69400
 1.4500e+001 70046  5.7972e-002 -8.3071e-001 -1.0071e-002 61467 69749,69905,69879
 1.4500e+001 70023  1.2698e-001 -6.5153e-001  1.8593e-001 61467 69723,69905,69749
 1.4500e+001 70000  3.9930e-002 -8.9090e-001 -2.9512e-002 61467 70069,69827,69775
 1.4500e+001 69977 -1.0204e-001 -1.2637e+000  9.6931e-002 61467 70069,69775,69749
 1.4500e+001 69954 -4.1320e-002 -6.5615e-001 -2.9803e-002 61467 70141,69853,69827
 1.4500e+001 69931  7.2457e-002 -1.1618e+000 -3.4635e-001 61467 69775,69827,69801
 1.4500e+001 70095  3.0244e-003 -7.1867e-001 -7.0344e-002 61467 70141,69827,70069
 1.4500e+001 70118  4.7560e-002 -8.7698e-001 -1.5564e-004 61467 69879,70069,69749
 1.4500e+001 70167  3.1740e-003 -7.5149e-001 -2.6112e-002 61467 69879,69853,70141
 1.4500e+001 70190 -1.8500e-002 -8.9960e-001 -6.7565e-002 61467 69879,70141,70069
 1.4500e+001 70291 -9.4680e-002 -1.4727e+000 -1.7029e-001 61013 70213,70265,70239
 1.4500e+001 70441  2.1727e-001  4.5335e-002 -5.0635e-002 60651 70340,70392,70366
 1.4500e+001 70418  2.5153e-001 -1.5553e-001  3.2147e-002 60651 70314,70392,70340
 1.4500e+001 70642  8.6709e-002 -6.5388e-001 -1.9431e-001 60311 70665,70492,70466
 1.4500e+001 70619 -1.3445e-001 -1.2143e+000 -2.6755e-001 60311 70665,70466,70570
 1.4500e+001 70596 -3.3165e+000 -1.5851e-001  3.1347e-001 60311 70492,70544,70518
 1.4500e+001 70691  5.1120e-002 -8.9443e-002  3.8535e-001 60311 70544,70492,70665
 1.4500e+001 70714 -3.0426e-001 -9.4500e-001  3.2547e-001 60311 70544,70665,70570
 1.4500e+001 70964  3.0032e-001 -1.2093e+000  1.3416e-001 59907 70987,70765,70739
 1.4500e+001 70941  2.9262e-001 -1.2488e+000 -4.4861e-002 59907 71059,70987,70739
 1.4500e+001 70918  1.6380e-001 -1.4212e+000  1.1333e-002 59907 71059,70739,70869
 1.4500e+001 70895  1.5707e-001 -1.0463e+000  1.0300e-002 59907 70817,70869,70843
 1.4500e+001 71013  1.2165e+000 -7.6000e-001  5.6359e-001 59907 70791,70765,70987
 1.4500e+001 71036  3.9796e-001 -1.4096e+000  1.8852e-001 59907 70791,70987,70817
 1.4500e+001 71085  1.3552e-001 -1.1480e+000 -3.6510e-002 59907 70817,70987,71059
 1.4500e+001 71108  1.2880e-001 -1.1817e+000 -3.2799e-002 59907 70817,71059,70869
 1.4500e+001 71441 -4.5596e-001 -7.3176e-001  5.3090e-001 59417 71464,71242,71216
 1.4500e+001 71418 -2.7564e-001 -4.2658e-001  7.8643e-001 59417 71464,71216,71320
 1.4500e+001 71395 -4.9240e-001 -3.5625e-001  8.6857e-001 59417 71216,71346,71320
 1.4500e+001 71372 -5.7789e-001 -7.4963e-001  3.7328e-001 59417 71268,71320,71294
 1.4500e+001 71490 -6.7554e-001 -7.8498e-001  2.1078e-001 59417 71268,71242,71464
 1.4500e+001 71513 -6.1530e-001 -3.7242e-001  4.6291e-001 59417 71268,71464,71320
 1.4500e+001 71712  1.4515e+000  1.3462e+000  4.3541e-001 58913 71562,71614,71588
 1.4500e+001 71689  8.9593e-001  1.0272e+000  3.0456e-001 58913 71536,71614,71562
 1.4500e+001 71666  5.1792e-001  2.0216e+000 -1.7607e-001 58913 71536,71640,71614
 1.4500e+001 72171 -8.3690e-001 -2.0407e+000  1.1906e-001 58409 72194,72027,72001
 1.4500e+001 72148 -7.4212e-001 -2.4208e+000 -1.0521e-001 58409 72194,72001,71949
 1.4500e+001 72125 -4.5451e-001 -1.3635e+000 -4.6485e-002 58409 71923,72053,71949
 1.4500e+001 72102 -8.2633e-001 -2.3364e+000 -2.7300e-001 58409 71949,72001,71975
 1.4500e+001 72079 -2.1530e-001 -9.3238e-001  3.1851e-001 58409 71897,72053,71923
 1.4500e+001 72220 -6.3313e-001 -1.8870e+000  2.8094e-001 58409 72053,72027,72194
 1.4500e+001 72243 -5.4622e-001 -2.1457e+000  4.1430e-002 58409 72053,72194,71949
 1.4500e+001 72491  8.3627e-001  1.3055e+000  2.6809e-001 57855 72514,72318,72292
 1.4500e+001 72468  1.2450e+000  1.3053e+000  4.9353e-001 57855 72514,72292,72266
 1.4500e+001 72445  7.5590e-001  1.2941e+000  3.8339e-001 57855 72318,72396,72370
 1.4500e+001 72422  5.5693e-001  1.2840e+000  2.8415e-001 57855 72318,72370,72344
 1.4500e+001 72540  7.9199e-001  1.4658e+000  3.6886e-001 57855 72396,72318,72514
 1.4500e+001 72563  8.3078e-001  1.5924e+000  4.4541e-001 57855 72396,72514,72266
 1.4500e+001 72811 -2.9640e-001 -2.1731e+000  1.1322e+000 57401 72612,72690,72638
 1.4500e+001 72788 -2.1516e+000 -2.9570e+000  1.5262e+000 57401 72586,72690,72612
 1.4500e+001 72765  3.6267e+000 -3.7716e+000  1.0508e-001 57401 72638,72690,72664
 1.4500e+001 72742  2.8532e-001 -1.1631e+000  7.0460e-001 57401 72586,72716,72690
 1.4500e+001 73144 -5.2149e-002 -9.8307e-001 -3.2467e-002 57004 72919,72997,72945
 1.4500e+001 73121 -1.3687e-001 -1.2028e+000  3.5974e-002 57004 72919,73049,72997
 1.4500e+001 73098 -1.8202e-001 -8.6734e-001 -1.3345e-001 57004 72945,72997,72971
 1.4500e+001 73075 -1.0740e-001 -1.1639e+000  6.2323e-002 57004 72997,73049,73023
 1.4500e+001 73650 -2.8230e-001 -2.8715e+000  3.1748e-001 56592 73673,73379,73353
 1.4500e+001 73627 -8.5121e-001 -2.3549e+000  1.2371e+000 56592 73673,73353,73327
 1.4500e+001 73604  6.7060e-001 -1.6898e+000  1.0147e+000 56592 73745,73509,73483
 1.4500e+001 73581  1.1916e+000 -1.6357e+000  4.8160e-001 56592 73379,73457,73405
 1.4500e+001 73558  1.5399e+000 -1.7441e+000  1.0023e+000 56592 73379,73483,73457
 1.4500e+001 73535  2.3394e+000 -9.4060e-001  7.7490e-001 56592 73405,73457,73431
 1.4500e+001 73699  8.5154e-002 -2.2966e+000  6.9803e-001 56592 73483,73379,73673
 1.4500e+001 73722  5.3753e-001 -2.2459e+000  1.2193e+000 56592 73745,73483,73673
 1.4500e+001 73771  3.5790e-001 -4.8519e-001  5.6478e-001 56592 73327,73509,73745
 1.4500e+001 73794 -1.1151e-001 -1.2042e+000  9.1843e-001 56592 73327,73745,73673
 1.4500e+001 74123  3.2840e-001  2.4174e-001 -5.8373e-001 56152 74146,74002,73924
 1.4500e+001 74100  5.3604e-001  2.2434e-001 -4.7268e-001 56152 74146,73924,73898
 1.4500e+001 74077  1.2272e+000  7.1215e-001 -8.1829e-001 56152 73924,74002,73976
 1.4500e+001 74054  6.2699e-001 -6.4815e-001  3.2263e-001 56152 73924,73976,73950
 1.4500e+001 74172  1.2970e-001  4.6101e-001 -4.5387e-001 56152 74028,74002,74146
 1.4500e+001 74195  4.3670e-001  3.7272e-001 -3.4460e-001 56152 74028,74146,73898
 1.4500e+001 74345  1.3990e+000 -2.0737e-001 -5.5361e-001 55634 74218,74270,74244
 1.4500e+001 74322  1.5191e-001 -2.5457e-001 -2.2455e-001 55634 74218,74296,74270
 1.4500e+001 74823 -1.0402e-001 -2.5645e+000  4.6324e-001 55016 74918,74846,74581
 1.4500e+001 74800 -4.5202e-001 -2.6789e+000  1.4985e-001 55016 74846,74477,74633
 1.4500e+001 74777 -7.7558e-001 -3.2160e+000  7.2874e-001 55016 74918,74581,74555
 1.4500e+001 74754 -8.1361e-001 -2.2710e+000  2.6449e-001 55016 74990,74503,74477
 1.4500e+001 74731 -4.0003e-001 -3.1237e+000 -5.6482e-001 55016 74451,74633,74477
 1.4500e+001 74708 -1.3386e+000 -2.1658e+000 -8.7532e-001 55016 74451,74659,74633
 1.4500e+001 74685 -1.7747e+000 -1.5518e+000  1.5564e+000 55016 74503,74555,74529
 1.4500e+001 74872 -4.3122e-001 -3.3787e+000  4.0712e-001 55016 74607,74581,74846
 1.4500e+001 74895 -2.5355e-001 -2.9364e+000  2.3908e-001 55016 74607,74846,74633
 1.4500e+001 74944 -1.0242e+000 -3.0062e+000  3.0729e-001 55016 74477,74846,74918
 1.4500e+001 74967 -8.1370e-001 -2.3987e+000  3.3338e-001 55016 74990,74477,74918
 1.4500e+001 75016 -8.1383e-001 -2.2425e+000  6.9069e-001 55016 74555,74503,74990
 1.4500e+001 75039 -9.4191e-001 -2.6519e+000  7.4613e-001 55016 74555,74990,74918
 1.4500e+001 75287 -8.7120e-001 -6.2827e+000  9.5472e-001 54726 75310,75140,75114
 1.4500e+001 75264 -1.3879e+000 -5.3010e+000  6.5148e-001 54726 75310,75114,75088
 1.4500e+001 75241  2.0970e-001 -4.2583e+000  1.2349e-001 54726 75088,75192,75166
 1.4500e+001 75218 -7.4275e-001 -9.3043e-001  8.3206e-001 54726 75062,75192,75088
 1.4500e+001 75336 -1.4291e-001 -5.6768e+000  4.3417e-001 54726 75166,75140,75310
 1.4500e+001 75359 -1.1804e+000 -4.8053e+000  3.5630e-001 54726 75166,75310,75088
 1.4500e+001 75946 -1.3055e-001 -4.8410e-001 -1.6179e-001 54322 75969,75701,75649
 1.4500e+001 75923  1.1520e-001 -3.6758e-001 -2.0393e-001 54322 75969,75649,75623
 1.4500e+001 75900 -3.6314e-002 -3.5143e-001 -2.4826e-002 54322 76041,75753,75701
 1.4500e+001 75877 -7.7765e-002 -7.7053e-001 -3.5768e-002 54322 75623,75805,75779
 1.4500e+001 75854 -6.7644e-002 -4.4198e-001  1.7187e-001 54322 75701,75753,75727
 1.4500e+001 75831 -1.2571e-002 -1.4659e-001 -5.9680e-002 54322 75649,75701,75675
 1.4500e+001 75995  5.0335e-002 -3.9924e-001 -9.7129e-002 54322 76041,75701,75969
 1.4500e+001 76018  6.3072e-002 -5.1774e-001 -1.0876e-001 54322 75779,75969,75623
 1.4500e+001 76067 -8.9582e-002 -4.7842e-001  7.0234e-003 54322 75779,75753,76041
 1.4500e+001 76090 -2.8045e-002 -5.7011e-001 -6.4954e-002 54322 75779,76041,75969
 1.4500e+001 76468 -2.6759e-002 -5.1367e-001 -6.7837e-002 53868 76491,76272,76220
 1.4500e+001 76445  6.1932e-002 -5.2905e-001 -2.2573e-002 53868 76491,76220,76324
 1.4500e+001 76422 -2.6770e-002 -7.0795e-001 -9.0123e-002 53868 76220,76272,76246
 1.4500e+001 76399  1.0765e-001 -5.6526e-001 -4.0761e-002 53868 76194,76324,76220
 1.4500e+001 76376  5.2545e-001 -3.9772e-001  6.9068e-002 53868 76194,76350,76324
 1.4500e+001 76517  2.2721e-002 -4.7738e-001 -1.6860e-002 53868 76298,76272,76491
 1.4500e+001 76540  1.1153e-001 -5.0387e-001  2.4330e-002 53868 76298,76491,76324
 1.4500e+001 76690  5.1419e-003 -6.8147e-001  6.8574e-002 53356 76589,76641,76615
 1.4500e+001 76667 -1.9545e-001 -8.6245e-001 -1.8427e-002 53356 76563,76641,76589
 1.4500e+001 76938  1.7534e-001  3.9053e-001  9.0467e-002 53009 77105,76961,76765
 1.4500e+001 76915 -7.3373e-002 -1.4893e+000 -5.9655e-001 53009 76961,76713,76843
 1.4500e+001 76892 -2.5182e-001 -6.9261e-001  7.1919e-002 53009 77033,76817,76791
 1.4500e+001 76869  5.2281e-001  1.7488e+000 -1.1413e-001 53009 77105,76765,76739
 1.4500e+001 76987 -2.6441e-001 -6.3419e-001 -1.7424e-001 53009 76791,76765,76961
 1.4500e+001 77010 -2.0389e-001 -3.9534e-001 -2.0457e-001 53009 77033,76791,76961
 1.4500e+001 77059  1.9781e-001 -4.4036e-001 -1.9303e-001 53009 76843,76817,77033
 1.4500e+001 77082  1.5343e-001 -3.1636e-001 -4.5135e-001 53009 76843,77033,76961
 1.4500e+001 77131  8.1254e-001  9.0752e-003 -1.0131e+000 53009 76713,76961,77105
 1.4500e+001 77154  9.9332e-001  5.1831e-001 -1.2360e+000 53009 76713,77105,76739
 1.4500e+001 77355  5.7149e-001 -4.0638e+000  4.6435e-001 52390 77378,77257,77231
 1.4500e+001 77332  6.9582e-001 -5.1999e+000  6.3548e-001 52390 77378,77231,77179
 1.4500e+001 77309  1.3667e+000 -3.8415e+000  4.1150e-001 52390 77179,77231,77205
 1.4500e+001 77404  8.6270e-001 -4.9793e+000  1.0374e+000 52390 77283,77257,77378
 1.4500e+001 77427  7.6597e-001 -6.5047e+000  1.1171e+000 52390 77283,77378,77179
 1.4500e+001 77677 -1.1675e+000  1.2856e+000 -1.4886e+000 51986 77700,77504,77478
 1.4500e+001 77654 -2.3592e-001  1.2491e+000 -1.3212e+000 51986 77700,77478,77452
 1.4500e+001 77631  3.8368e-001  1.2025e+000 -1.3799e+000 51986 77772,77556,77530
 1.4500e+001 77608  3.4456e+000  2.2333e+000 -2.2476e+000 51986 77452,77582,77556
 1.4500e+001 77726 -3.8598e-001  1.6177e+000 -9.6167e-001 51986 77530,77504,77700
 1.4500e+001 77749  3.4408e-001  1.1847e+000 -1.1141e+000 51986 77772,77530,77700
 1.4500e+001 77798  7.7177e-002  1.0525e+000 -1.2949e+000 51986 77452,77556,77772
 1.4500e+001 77821 -8.4915e-002  1.0427e+000 -1.0669e+000 51986 77452,77772,77700
 1.4500e+001 78282 -8.2175e-001 -2.6467e+000  2.1369e-001 51738 78008,78138,78060
 1.4500e+001 78259 -1.0517e+000 -3.4526e+000  2.1747e+000 51738 78008,78164,78138
 1.4500e+001 78236 -7.2834e-001 -1.6459e+000  7.6210e-001 51738 78086,78138,78112
 1.4500e+001 78213 -8.6979e-001 -1.5536e+000  5.6552e-001 51738 78060,78138,78086
 1.4500e+001 78190  7.0275e-002 -3.6018e+000 -3.3068e-001 51738 78008,78060,78034
 1.4500e+001 78432  2.2121e-001 -4.2654e-001  2.2491e-002 51148 78305,78357,78331
 1.4500e+001 78409  1.3987e-001 -3.0436e-001  2.7561e-002 51148 78305,78383,78357
 1.4500e+001 78891 -1.2680e-001 -5.8587e-001 -5.0476e-002 50808 78914,78695,78669
 1.4500e+001 78868 -5.0727e-002 -3.9626e-001 -2.4794e-002 50808 78914,78669,78643
 1.4500e+001 78845 -6.1399e-002 -5.2838e-001 -3.0313e-001 50808 78643,78773,78747
 1.4500e+001 78822 -2.8735e-002 -5.6020e-001 -2.8659e-001 50808 78617,78773,78643
 1.4500e+001 78799 -2.9294e-001 -5.9301e-001 -1.1508e-001 50808 78695,78747,78721
 1.4500e+001 78940 -1.9975e-001 -4.5709e-001 -1.7908e-001 50808 78747,78695,78914
 1.4500e+001 78963 -1.2879e-001 -3.5160e-001 -1.4760e-001 50808 78747,78914,78643
 1.4500e+001 79260  7.4532e-002 -5.7098e-001 -3.3000e-002 50468 79283,79090,79012
 1.4500e+001 79237  2.4904e-001 -5.3391e-001  1.9486e-002 50468 79283,79012,78986
 1.4500e+001 79214 -1.1167e-001 -6.5266e-001 -5.5397e-002 50468 79012,79090,79038
 1.4500e+001 79191  1.1599e-001 -4.6292e-001  1.0311e-001 50468 78986,79142,79116
 1.4500e+001 79168 -1.2565e-002 -6.4967e-001 -9.1687e-002 50468 79038,79090,79064
 1.4500e+001 79309 -1.1757e-001 -5.1462e-001 -5.4682e-002 50468 79116,79090,79283
 1.4500e+001 79332  1.0241e-001 -4.3184e-001  1.4556e-002 50468 79116,79283,78986
 1.4500e+001 79889  7.9769e-001  1.1258e+000 -4.9591e-001 50064 79569,79725,79699
 1.4500e+001 79866  9.3635e-001  1.1973e+000 -4.0261e-001 50064 79543,79725,79569
 1.4500e+001 79843  8.4856e-001  6.9832e-001 -5.4227e-001 50064 79621,79699,79673
 1.4500e+001 79820  1.0782e+000  1.2114e+000 -8.4249e-001 50064 79595,79699,79621
 1.4500e+001 79797  1.5969e+000  1.3510e+000 -6.3831e-001 50064 79569,79699,79595
 1.4500e+001 79774  3.6180e-001  1.1846e+000 -2.4158e-001 50064 79517,79725,79543
 1.4500e+001 79751  4.9250e-001  6.9807e-001 -5.8245e-001 50064 79621,79673,79647
 1.4500e+001 80169  1.0485e+000  1.5410e+000 -6.8656e-001 49724 80019,80097,80071
 1.4500e+001 80146  9.6441e-001  1.9425e+000 -7.8100e-001 49724 79993,80097,80019
 1.4500e+001 80123  7.0172e-001  1.4446e+000 -8.1015e-001 49724 80019,80071,80045
 1.4500e+001 80626  1.0324e-001  3.1406e-001  2.4147e-001 49277 80352,80482,80378
 1.4500e+001 80603 -2.5490e-001  2.0681e-001 -2.5767e-002 49277 80352,80508,80482
 1.4500e+001 80580 -1.6092e-001 -4.1137e-001  5.4310e-002 49277 80378,80482,80456
 1.4500e+001 80557 -1.4272e-001 -7.5044e-001  3.5083e-001 49277 80378,80430,80404
 1.4500e+001 80534 -5.0116e-002 -3.1914e-001  2.6016e-001 49277 80378,80456,80430
 1.4500e+001 81230  7.9763e-001 -4.0641e-001  1.5974e-001 48716 81253,80835,80809
 1.4500e+001 81207  7.1655e-001 -3.4765e-001  5.9149e-001 48716 81397,81253,80809
 1.4500e+001 81184  6.2007e-002  2.2528e-001 -7.7150e-002 48716 81325,80913,80887
 1.4500e+001 81161 -9.1807e-002 -3.9345e-001  7.7104e-001 48716 81397,80809,81017
 1.4500e+001 81138 -1.6119e-001  4.2185e-001 -1.1462e-001 48716 81469,80965,80913
 1.4500e+001 81115 -1.4216e-001 -8.0615e-001  2.0124e-001 48716 80835,80887,80861
 1.4500e+001 81092  8.6056e-001 -4.2642e-001  1.4361e+000 48716 80809,81043,81017
 1.4500e+001 81069 -6.9480e-003  1.7643e-001 -3.1106e-001 48716 80913,80965,80939
 1.4500e+001 81279  2.8594e-001 -4.0811e-001 -3.1187e-002 48716 80887,80835,81253
 1.4500e+001 81302  1.1556e-001  2.5396e-001 -5.9004e-002 48716 81325,80887,81253
 1.4500e+001 81351  1.3510e-001  3.4434e-001 -3.0287e-004 48716 81469,80913,81325
 1.4500e+001 81374  1.0808e-002  5.4855e-001  1.3400e-001 48716 80991,81325,81253
 1.4500e+001 81423 -4.4170e-001  4.5844e-002  6.6695e-001 48716 80991,81253,81397
 1.4500e+001 81446 -1.3511e+000 -1.2170e-001  9.2141e-001 48716 80991,81397,81017
 1.4500e+001 81495 -6.3409e-001  3.9058e-001 -1.0004e-001 48716 80991,80965,81469
 1.4500e+001 81518 -3.9717e-001  2.6767e-001  1.1740e-002 48716 80991,81469,81325
 1.4500e+001 81717 -3.7125e-002 -5.8179e-001  7.3004e-002 48262 81740,81567,81541
 1.4500e+001 81694 -1.6817e-001 -5.8143e-001  1.7273e-002 48262 81740,81541,81645
 1.4500e+001 81671 -1.1773e-001 -6.3568e-001 -1.9517e-002 48262 81567,81619,81593
 1.4500e+001 81766 -1.1973e-001 -5.9214e-001 -3.2453e-003 48262 81619,81567,81740
 1.4500e+001 81789 -2.6264e-001 -6.2275e-001 -6.8514e-002 48262 81619,81740,81645
 1.4500e+001 81939  9.8134e-001  1.1310e+000 -4.4876e-001 47957 82034,81962,81864
 1.4500e+001 81916  7.6001e-001  8.2845e-001 -1.2199e-001 47957 82166,81962,81838
 1.4500e+001 81988 -4.8667e-001  1.0434e+000 -5.0170e-001 47957 82294,81962,81890
 1.4500e+001 82011  6.8463e-001  1.7897e+000  3.2048e-001 47957 81890,81962,81812
 1.4500e+001 82060  8.8496e-001  1.6106e+000  1.7673e-002 47957 81838,81962,82034
 1.4500e+001 82192  9.9722e-001  9.7316e-001  3.3034e-001 47957 81812,81962,82166
 1.4500e+001 82320  4.7991e-002  1.0969e+000 -6.1530e-001 47957 81864,81962,82294
 1.4500e+001 82549  2.8105e-002 -6.5169e-001 -1.6982e-001 47617 82448,82500,82474
 1.4500e+001 82526  3.1899e-001 -8.2492e-001  3.4270e-003 47617 82422,82500,82448
 1.4500e+001 82902 -6.1477e-001 -1.2924e+000 -9.4298e-003 47255 82729,82807,82755
 1.4500e+001 82879 -4.9097e-004 -1.7721e+000  4.2368e-001 47255 82703,82807,82729
 1.4500e+001 82856 -1.1545e+000 -1.4984e+000  5.3584e-001 47255 82755,82807,82781
 1.4500e+001 82833  9.1812e-001 -1.3786e+000  5.1614e-001 47255 82677,82807,82703
 1.4500e+001 83182  3.4516e-001 -9.5596e-001  1.9804e-001 46680 83032,83084,83058
 1.4500e+001 83159  4.8064e-001 -3.7860e-001  1.9786e-001 46680 83205,83084,83032
 1.4500e+001 83136  7.3547e-001 -1.3192e-001 -2.4557e-002 46680 83006,83110,83084
 1.4500e+001 83231  2.9792e-001 -4.8440e-001  1.5485e-001 46680 83006,83084,83205
 1.4500e+001 83737 -7.8084e-001 -3.3864e-001  2.4098e-002 46290 83832,83760,83492
 1.4500e+001 83714 -6.2369e-001 -3.5294e-002 -1.1400e-001 46290 83760,83440,83414
 1.4500e+001 83691 -4.9479e-001 -5.1938e-001 -2.7896e-002 46290 83832,83492,83466
 1.4500e+001 83668 -6.5657e-001 -1.0905e+000  2.1466e-001 46290 83492,83570,83544
 1.4500e+001 83645 -5.9355e-001 -2.2544e-001 -2.7405e-001 46290 83414,83596,83570
 1.4500e+001 83622 -7.9736e-001 -8.3526e-001  4.2991e-001 46290 83492,83544,83518
 1.4500e+001 83786 -8.0031e-001 -3.2481e-001  5.0229e-002 46290 83570,83492,83760
 1.4500e+001 83809 -7.5331e-001 -4.5592e-001 -1.4650e-001 46290 83570,83760,83414
 1.4500e+001 83858 -4.1299e-001 -1.3971e-001  1.2270e-001 46290 83440,83760,83832
 1.4500e+001 83881  1.0387e-001 -2.6168e-001  5.7360e-003 46290 83440,83832,83466
 1.4500e+001 84161 -1.7545e-001 -8.4031e-001  3.7013e-001 45829 84011,84063,84037
 1.4500e+001 84138  2.5265e-002 -5.0063e-001  1.1554e-001 45829 84011,84089,84063
 1.4500e+001 84115  1.9620e-002 -5.0054e-001  1.6470e-001 45829 83985,84089,84011
 1.4500e+001 84311  3.0393e-001  1.9037e-001  7.8597e-002 45631 84184,84236,84210
 1.4500e+001 84288 -9.3010e-002 -1.0374e+000 -6.9861e-002 45631 84184,84262,84236
 1.4500e+001 84657 -6.5877e-002 -5.1436e-001 -1.5759e-002 45155 84680,84490,84412
 1.4500e+001 84634 -1.3577e-001 -4.6662e-001  1.0121e-003 45155 84680,84412,84360
 1.4500e+001 84611 -1.1648e-001 -5.4764e-001  1.8676e-002 45155 84412,84490,84438
 1.4500e+001 84588  4.5837e-002 -3.5746e-001 -3.5211e-002 45155 84334,84516,84360
 1.4500e+001 84565 -1.7109e-001 -5.3900e-001 -1.1914e-001 45155 84360,84412,84386
 1.4500e+001 84542 -9.1626e-002 -4.4499e-001  7.7249e-002 45155 84438,84490,84464
 1.4500e+001 84706 -3.7388e-002 -4.7478e-001 -2.9651e-002 45155 84516,84490,84680
 1.4500e+001 84729 -9.0177e-002 -4.1304e-001 -2.0496e-002 45155 84516,84680,84360
 1.4500e+001 85077  1.9332e-001 -2.1762e-001  6.5864e-002 44508 85100,84754,84910
 1.4500e+001 85054  2.0293e-001  1.1560e-001  1.1876e-001 44508 84754,84936,84910
 1.4500e+001 85031  4.7496e-002 -3.6890e-001  2.1179e-001 44508 85100,84910,84884
 1.4500e+001 85008 -1.5436e-001 -4.3943e-001  1.1899e-001 44508 84780,84884,84832
 1.4500e+001 84985  1.0318e-001  2.8450e-002 -1.0360e-001 44508 84780,84832,84806
 1.4500e+001 84962  6.6943e-001  1.4950e-001 -1.4138e-001 44508 84832,84884,84858
 1.4500e+001 85126  7.3891e-002  1.3820e-002 -4.6668e-002 44508 84780,84754,85100
 1.4500e+001 85149 -3.5874e-002 -1.3900e-001  8.6654e-002 44508 84780,85100,84884
 1.4500e+001 85482 -4.0855e-001 -6.9138e-001  1.2695e-003 44104 85335,85387,85361
 1.4500e+001 85459 -3.5613e-001 -1.0418e+000  4.3968e-002 44104 85309,85387,85335
 1.4500e+001 85436 -1.6097e-001 -8.1995e-001  1.6948e-001 44104 85257,85387,85309
 1.4500e+001 85413 -2.9513e-001 -1.4334e+000  1.0476e-001 44104 85257,85309,85283
 1.4500e+001 85811 -8.4692e-002 -3.6064e-001 -2.2207e-002 43600 85586,85664,85612
 1.4500e+001 85788 -1.6176e-001 -4.5486e-001  2.3070e-002 43600 85586,85690,85664
 1.4500e+001 85765  5.8904e-002 -3.5623e-001 -1.6384e-002 43600 85586,85716,85690
 1.4500e+001 85742 -2.3658e-002 -3.4543e-001 -7.4383e-003 43600 85612,85664,85638
 1.4500e+001 86010  3.7814e-003 -4.1711e-001 -6.1021e-002 43224 85886,85938,85912
 1.4500e+001 85987  1.0321e-001 -6.3489e-002 -1.0042e-001 43224 85834,85938,85886
 1.4500e+001 85964 -2.4758e-001 -4.5626e-001  4.9737e-002 43224 85834,85886,85860
 1.4500e+001 86420  1.8475e+000  9.4666e-001 -2.8849e-001 42820 86195,86299,86221
 1.4500e+001 86397  1.3907e+000  8.7096e-001 -9.2266e-001 42820 86195,86325,86299
 1.4500e+001 86374  1.2134e+000  1.1218e+000  5.6740e-003 42820 86221,86299,86273
 1.4500e+001 86351  1.0894e+000  6.4545e-001  9.2980e-002 42820 86221,86273,86247
 1.4500e+001 86749  3.8149e-001 -3.0068e-001 -1.1088e-001 42223 86550,86602,86576
 1.4500e+001 86726  1.1046e+000 -6.1004e-001  3.2133e-002 42223 86550,86628,86602
 1.4500e+001 86703  7.8893e-002 -9.6517e-001  3.2103e-001 42223 86524,86628,86550
 1.4500e+001 86680  6.3434e-001 -1.8706e-002  8.8083e-002 42223 86524,86654,86628
 1.4500e+001 87078  5.6992e-001 -3.1700e-001  2.3704e-001 41883 87173,87101,86905
 1.4500e+001 87055  4.4924e-001  3.7425e-001 -1.5119e-002 41883 87101,86879,86853
 1.4500e+001 87032  6.9112e-002 -3.2399e-002  2.8713e-002 41883 86853,86983,86931
 1.4500e+001 87009 -3.3026e-002 -4.7673e-001  1.6881e-001 41883 86931,86983,86957
 1.4500e+001 87127  6.8776e-001 -1.7733e-001  3.1126e-002 41883 86931,86905,87101
 1.4500e+001 87150  1.6393e-001 -2.9179e-001 -1.3355e-002 41883 86931,87101,86853
 1.4500e+001 87199  1.1495e-001 -2.6073e-001  2.2186e-001 41883 86879,87101,87173
 1.4500e+001 87558 -3.9296e-002  4.0456e-001 -7.3011e-002 41471 87382,87460,87408
 1.4500e+001 87535 -9.0672e-001 -1.6291e-001 -3.1794e-001 41471 87382,87486,87460
 1.4500e+001 87512 -2.5486e-001  3.0066e-001 -1.7224e-001 41471 87408,87460,87434
 1.4500e+001 87806  1.4033e-001 -3.0496e-001  6.8878e-002 41017 87829,87607,87581
 1.4500e+001 87783  9.9046e-002 -4.2710e-001  9.8498e-002 41017 87829,87581,87685
 1.4500e+001 87760  2.8282e-001 -1.8524e-001  1.5873e-002 41017 87581,87711,87685
 1.4500e+001 87737  3.1270e-001 -8.2578e-001  4.1581e-002 41017 87633,87685,87659
 1.4500e+001 87855  1.3659e-001 -3.4599e-001  1.6150e-001 41017 87633,87607,87829
 1.4500e+001 87878  8.6790e-002 -4.7487e-001  1.9347e-001 41017 87633,87829,87685
 1.4500e+001 88258 -1.6755e-002 -5.9039e-002  1.3911e-002 40613 88281,88036,88010
 1.4500e+001 88235 -1.7216e-002 -3.6659e-002  1.3610e-002 40613 88281,88010,88088
 1.4500e+001 88212 -2.1502e-003 -7.6149e-002  4.5297e-002 40613 87984,88088,88010
 1.4500e+001 88189  1.0319e-002 -4.7035e-002  4.6356e-002 40613 87984,88114,88088
 1.4500e+001 88166 -2.4240e-002 -3.7622e-002  4.5558e-002 40613 87984,88140,88114
 1.4500e+001 88307 -1.2410e-002 -7.8280e-002 -2.0165e-003 40613 88062,88036,88281
 1.4500e+001 88330 -4.0671e-003 -3.9498e-002 -7.0189e-003 40613 88062,88281,88088
 1.4500e+001 88649  2.4117e-002 -7.5715e-002 -4.7362e-003 40095 88375,88505,88401
 1.4500e+001 88626 -1.0378e-002 -4.8966e-002 -1.9875e-002 40095 88375,88531,88505
 1.4500e+001 88603 -5.7711e-003 -8.5900e-002 -8.0432e-003 40095 88401,88505,88479
 1.4500e+001 88580  1.5262e-001 -5.2678e-001 -2.6187e-001 40095 88427,88479,88453
 1.4500e+001 88557  2.0491e-002 -6.8915e-002 -1.7898e-002 40095 88401,88479,88427
 1.4500e+001 89078  1.1163e+000 -1.3083e-001 -9.2673e-002 39897 89101,88833,88807
 1.4500e+001 89055  6.9728e-001 -5.5326e-001 -2.9831e-001 39897 89101,88807,88911
 1.4500e+001 89032  7.8916e-001 -3.5742e-002 -3.1319e-001 39897 88781,88911,88807
 1.4500e+001 89009  3.7294e-003 -6.3087e-001 -7.2515e-001 39897 88781,88937,88911
 1.4500e+001 88986  2.1022e+000  3.4979e-001 -3.4101e-001 39897 88833,88885,88859
 1.4500e+001 88963  5.3906e-001 -2.1808e-002 -4.7499e-001 39897 88755,88937,88781
 1.4500e+001 89127  1.5425e+000 -6.5219e-001 -5.7903e-001 39897 88885,88833,89101
 1.4500e+001 89150  7.8648e-001 -1.3141e+000 -8.7406e-001 39897 88885,89101,88911
 1.4500e+001 89300 -7.4430e-001 -1.0015e+000  1.7438e-001 39607 89453,89323,89199
 1.4500e+001 89277 -1.1824e+000 -8.4091e-001  7.6502e-002 39607 89525,89453,89199
 1.4500e+001 89349 -7.3121e-001 -1.0222e+000 -6.1412e-002 39607 89225,89199,89323
 1.4500e+001 89479 -8.4125e-001 -6.1988e-001  1.8674e-001 39607 89251,89323,89453
 1.4500e+001 89502 -4.6594e-001 -2.4867e-001  4.5941e-001 39607 89251,89453,89173
 1.4500e+001 89551 -1.6104e-001 -4.6450e-001  6.0327e-002 39607 89173,89453,89525
 1.4500e+001 90264 -6.5848e-001 -1.7367e+000 -1.0780e-001 39039 89996,90074,90048
 1.4500e+001 90241 -3.9787e-001 -7.7960e-001 -8.8697e-002 39039 89918,90074,89996
 1.4500e+001 90218 -5.6692e-001 -9.8337e-001 -1.1009e-002 39039 89918,89996,89944
 1.4500e+001 90195 -4.7081e-001 -7.9417e-001 -6.6225e-002 39039 89892,90074,89918
 1.4500e+001 90172  8.5694e-002 -1.7688e+000 -2.0191e-001 39039 89996,90048,90022
 1.4500e+001 90149 -1.0839e+000  3.2495e-001 -8.6990e-002 39039 89892,90100,90074
 1.4500e+001 90126 -8.9265e-001 -1.1278e+000  8.1117e-002 39039 89944,89996,89970
 1.4500e+001 90770 -8.7905e-002 -4.2937e-001  1.8250e-002 38635 90473,90603,90577
 1.4500e+001 90747  5.8161e-003 -3.7377e-001 -1.9147e-002 38635 90447,90603,90473
 1.4500e+001 90724  3.0958e-004 -4.4600e-001 -4.9767e-002 38635 90499,90577,90551
 1.4500e+001 90701 -1.4547e-001 -5.6187e-001  4.8153e-002 38635 90473,90577,90499
 1.4500e+001 90678 -6.9167e-002 -6.4472e-001 -7.8858e-003 38635 90499,90551,90525
 1.4500e+001 90655 -1.8540e-001 -4.2836e-001  5.3378e-002 38635 90447,90629,90603
 1.4500e+001 90871 -3.3446e-003 -3.9006e-001 -9.5478e-002 38231 90793,90845,90819
 1.4500e+001 91458 -2.4488e-002 -2.2674e-001 -2.9872e-003 37534 91161,91317,91291
 1.4500e+001 91435 -2.0053e-001 -1.4987e-001  6.7688e-002 37534 91135,91317,91161
 1.4500e+001 91412 -3.3329e-001 -1.1310e+000 -2.1852e-001 37534 91187,91291,91239
 1.4500e+001 91389 -9.5565e-002 -1.1146e+000  1.3064e-001 37534 91161,91291,91187
 1.4500e+001 91366 -8.6077e-002 -8.6677e-001 -1.1213e-001 37534 91239,91291,91265
 1.4500e+001 91343  3.9185e-001 -1.2329e+000 -5.2947e-001 37534 91187,91239,91213
 1.4500e+001 91915 -2.9350e-001 -8.7260e-001  1.5466e-001 37080 91938,91745,91667
 1.4500e+001 91892  1.4646e-002 -8.2340e-001  5.4371e-002 37080 91938,91667,91797
 1.4500e+001 91869  2.2191e-001 -3.2588e-001  1.1404e-001 37080 91641,91797,91667
 1.4500e+001 91846 -2.7351e-001 -9.8499e-001  3.5821e-002 37080 91667,91719,91693
 1.4500e+001 91823 -1.7790e-001 -7.3488e-001  9.5913e-002 37080 91667,91745,91719
 1.4500e+001 91964 -4.4913e-001 -1.0030e+000  4.2519e-001 37080 91771,91745,91938
 1.4500e+001 91987 -1.4213e-001 -8.4287e-001  2.8841e-001 37080 91771,91938,91797
 1.4500e+001 92235 -1.5048e-001 -4.1156e-001 -2.3282e-002 36397 92036,92088,92062
 1.4500e+001 92212 -9.1246e-002 -3.9158e-001 -4.6725e-002 36397 92036,92114,92088
 1.4500e+001 92189  5.6820e-003 -3.1344e-001  1.3254e-002 36397 92036,92140,92114
 1.4500e+001 92166  2.1152e-002 -4.2839e-001 -1.4394e-002 36397 92010,92140,92036
 1.4500e+001 92694  1.3453e-001  5.1004e-003 -2.5428e-002 36057 92446,92498,92472
 1.4500e+001 92671  1.7186e-001 -2.0193e-002  6.1809e-002 36057 92446,92550,92498
 1.4500e+001 92648 -4.2141e-002 -3.8373e-001  1.6419e-001 36057 92446,92576,92550
 1.4500e+001 92625  1.3991e-001 -1.3413e-002 -2.9045e-001 36057 92420,92576,92446
 1.4500e+001 92602  3.2265e-002  1.3609e-002  1.5560e-001 36057 92498,92550,92524
 1.4500e+001 93023 -1.4015e-001 -3.6519e-001 -3.2456e-002 35717 92876,92928,92902
 1.4500e+001 93000 -1.0909e-001 -4.0232e-001 -4.6960e-002 35717 92824,92928,92876
 1.4500e+001 92977  1.2169e-003 -3.9847e-001 -1.3854e-002 35717 92798,92928,92824
 1.4500e+001 92954 -1.5710e-001 -5.5207e-001 -9.7557e-002 35717 92824,92876,92850
 1.4500e+001 93499  3.4654e-001 -4.6901e-001  2.4712e-001 35405 93522,93309,93257
 1.4500e+001 93476  3.8111e-001 -4.2125e-001  2.3203e-001 35405 93666,93522,93257
 1.4500e+001 93453  3.8241e-001 -1.1679e+000  2.6469e-001 35405 93594,93127,93335
 1.4500e+001 93430  2.7451e-001 -4.4395e-001  2.1897e-001 35405 93666,93257,93231
 1.4500e+001 93407  7.6034e-002 -1.4919e+000  7.1816e-002 35405 93127,93179,93153
 1.4500e+001 93384 -4.2059e-001 -3.9726e-001  4.7724e-001 35405 93179,93231,93205
 1.4500e+001 93361  4.4670e-001  3.1755e-001  2.2726e-002 35405 93257,93309,93283
 1.4500e+001 93548  5.7500e-001 -2.9182e-001  4.6323e-001 35405 93335,93309,93522
 1.4500e+001 93571  3.9330e-001 -6.6080e-001  3.3899e-001 35405 93594,93335,93522
 1.4500e+001 93620  4.6642e-001 -6.3840e-001  1.8349e-001 35405 93179,93127,93594
 1.4500e+001 93643  2.6362e-001 -4.1557e-001  1.9890e-001 35405 93738,93594,93522
 1.4500e+001 93692  2.6570e-001 -4.2203e-001  1.8839e-001 35405 93738,93522,93666
 1.4500e+001 93715  2.1476e-001 -4.3449e-001  1.5891e-001 35405 93179,93666,93231
 1.4500e+001 93764  2.5682e-001 -4.3179e-001  1.9808e-001 35405 93179,93594,93738
 1.4500e+001 93787  2.6026e-001 -4.3735e-001  1.8945e-001 35405 93179,93738,93666
 1.4500e+001 94372  8.2789e-001 -1.0333e-001  8.2966e-002 34951 94395,94127,94075
 1.4500e+001 94349  1.0959e+000 -1.5610e-001  1.8916e-001 34951 94395,94075,94231
 1.4500e+001 94326  1.3001e+000 -4.1185e-001 -3.1459e-001 34951 94049,94231,94075
 1.4500e+001 94303  7.4260e-001  3.2492e-001  2.2981e-001 34951 94075,94127,94101
 1.4500e+001 94280  1.6145e+000  7.5258e-001  6.9312e-001 34951 94127,94205,94153
 1.4500e+001 94257  1.2163e+000 -3.4230e-001  7.0601e-001 34951 94153,94205,94179
 1.4500e+001 94421  1.0394e+000 -1.4494e-001  2.3676e-001 34951 94205,94127,94395
 1.4500e+001 94444  1.5204e+000 -6.1010e-002  3.3449e-001 34951 94205,94395,94231
 1.4500e+001 94692  1.2233e-002 -9.3879e-002 -1.6955e-004 34397 94715,94519,94467
 1.4500e+001 94669 -1.4110e-003 -5.2742e-002  1.5434e-002 34397 94715,94467,94597
 1.4500e+001 94646 -2.9526e-002 -1.1102e-001 -2.4002e-002 34397 94545,94597,94571
 1.4500e+001 94623  6.1744e-003 -1.1753e-001  2.1455e-002 34397 94467,94519,94493
 1.4500e+001 94741 -3.7475e-002 -2.3094e-001 -2.7377e-002 34397 94545,94519,94715
 1.4500e+001 94764  1.6503e-002 -9.6093e-002 -1.0515e-003 34397 94545,94715,94597
 1.4500e+001 94985  9.0745e-002 -1.0787e-001  2.7575e-002 33985 94835,94913,94887
 1.4500e+001 94962 -2.7406e-001 -9.9871e-001  7.4362e-002 33985 94809,94913,94835
 1.4500e+001 94939 -9.5123e-004 -9.4566e-002  2.9937e-002 33985 94835,94887,94861
 1.4500e+001 95186 -4.6797e-002 -6.3463e-001 -1.8705e-001 33645 95281,95209,95036
 1.4500e+001 95163  3.7754e-001 -6.3435e-001  3.6103e-002 33645 95209,95010,95088
 1.4500e+001 95140  3.6022e-001 -3.3435e-001  4.2845e-004 33645 95010,95114,95088
 1.4500e+001 95235 -2.4640e-001 -7.9358e-001 -3.2070e-001 33645 95062,95036,95209
 1.4500e+001 95258 -1.8747e-001 -8.5746e-001  2.5986e-001 33645 95413,95209,95088
 1.4500e+001 95307  2.9865e-001 -2.7880e-002 -4.0141e-001 33645 95010,95209,95281
 1.4500e+001 95439  1.7553e-001 -4.6155e-001  1.0416e-001 33645 95062,95209,95413
 1.4500e+001 95766 -1.5403e-001 -1.6732e-001 -2.6767e-001 33141 95789,95593,95567
 1.4500e+001 95743  3.4589e-002 -2.9164e-001 -8.5552e-002 33141 95861,95789,95567
 1.4500e+001 95720  2.3925e-002 -2.6369e-001 -3.4119e-002 33141 95861,95567,95671
 1.4500e+001 95697  2.6263e-002 -2.9050e-001 -4.2586e-002 33141 95541,95671,95567
 1.4500e+001 95815 -2.6523e-003  1.8478e-001 -2.2747e-001 33141 95619,95593,95789
 1.4500e+001 95838  6.0830e-002 -1.3114e-001 -7.5290e-002 33141 95619,95789,95645
 1.4500e+001 95887  7.3316e-002 -2.0077e-001 -8.8503e-002 33141 95645,95789,95861
 1.4500e+001 95910  6.3237e-002 -1.7266e-001 -2.9955e-002 33141 95645,95861,95671
 1.4500e+001 96060 -1.3210e-001 -3.7276e-001 -1.1305e-001 32487 95959,96011,95985
 1.4500e+001 96037  2.3620e-002 -3.7132e-001 -1.3389e-002 32487 95933,96011,95959
 1.4500e+001 96570 -2.1669e-001 -4.6957e-001  2.7521e-001 32033 96665,96593,96377
 1.4500e+001 96547 -1.7762e-001 -4.8129e-001 -8.2609e-002 32033 96737,96593,96325
 1.4500e+001 96524 -2.7924e-001 -6.1103e-001  1.7627e-001 32033 96665,96377,96351
 1.4500e+001 96501 -2.9145e-001 -7.1298e-001 -4.5719e-002 32033 96737,96325,96299
 1.4500e+001 96478 -3.1782e-001 -1.8824e-001 -2.9237e-002 32033 96247,96429,96299
 1.4500e+001 96455 -7.3698e-001 -1.3212e+000  2.9183e-003 32033 96247,96299,96273
 1.4500e+001 96619  8.8894e-002 -2.2758e-001  3.4459e-001 32033 96809,96593,96403
 1.4500e+001 96642  2.9985e-001  3.3509e-001 -2.7011e-001 32033 96403,96593,96429
 1.4500e+001 96691  4.2258e-002 -8.1107e-001  9.7624e-002 32033 96325,96593,96665
 1.4500e+001 96714 -1.7968e-001 -1.0738e+000 -3.9911e-002 32033 96325,96665,96351
 1.4500e+001 96763 -3.0678e-001 -3.9975e-001  2.7193e-002 32033 96429,96593,96737
 1.4500e+001 96786 -3.5009e-001 -5.0311e-001  3.1885e-002 32033 96429,96737,96299
 1.4500e+001 96835 -3.5601e-002 -3.9256e-001  2.6767e-001 32033 96377,96593,96809
 1.4500e+001 97064 -8.5840e-002 -1.1413e-001 -5.4054e-002 31671 97087,96989,96963
 1.4500e+001 97041 -2.4599e-002 -1.1065e-001  7.3479e-003 31671 97087,96963,96937
 1.4500e+001 97113  5.1846e-002 -8.3462e-002 -2.4676e-002 31671 97159,97087,97015
 1.4500e+001 97136  1.9384e-002 -1.5143e-002  2.1249e-002 31671 97015,97087,96937
 1.4500e+001 97185 -4.4872e-002 -9.5061e-002  9.0981e-004 31671 96989,97087,97159
 1.4500e+001 97563  8.5715e-003 -1.6542e-001 -2.4708e-002 31117 97586,97367,97341
 1.4500e+001 97540  4.2189e-003 -1.3433e-001  1.4966e-003 31117 97658,97586,97341
 1.4500e+001 97517 -1.1158e-002 -1.1127e-001 -4.4841e-003 31117 97658,97341,97315
 1.4500e+001 97494  2.3301e-002 -1.1462e-001 -4.6660e-002 31117 97289,97445,97315
 1.4500e+001 97471 -1.4125e-002 -6.7375e-002 -2.5869e-002 31117 97367,97419,97393
 1.4500e+001 97612 -2.2009e-002 -8.9832e-002 -2.5956e-002 31117 97419,97367,97586
 1.4500e+001 97635  2.5200e-002 -1.0490e-001  1.6175e-002 31117 97419,97586,97445
 1.4500e+001 97684  2.1557e-002 -1.1032e-001 -8.6488e-003 31117 97445,97586,97658
 1.4500e+001 97707  5.0436e-003 -8.7261e-002 -1.3985e-002 31117 97445,97658,97315
 1.4500e+001 98215  9.9270e-002 -9.4820e-002 -1.4604e-001 30563 98238,97996,97944
 1.4500e+001 98192 -9.8091e-002 -8.5343e-002 -1.5916e-001 30563 98310,98238,97944
 1.4500e+001 98169 -2.8928e-001 -2.6246e-001 -2.9852e-001 30563 98310,97944,97918
 1.4500e+001 98146  2.6088e-001 -8.4687e-002 -6.7055e-002 30563 97892,98074,97918
 1.4500e+001 98123  2.1333e-001 -1.9106e-001  1.0077e-001 30563 97996,98048,98022
 1.4500e+001 98100 -1.9313e-001 -1.9953e-001 -1.5801e-001 30563 97944,97996,97970
 1.4500e+001 98264  2.4816e-002 -3.3300e-002 -9.9192e-002 30563 98048,97996,98238
 1.4500e+001 98287  2.1339e-001  2.6449e-001  1.1812e-001 30563 98048,98238,98074
 1.4500e+001 98336  1.1712e-001 -1.0692e-001 -1.0813e-002 30563 98074,98238,98310
 1.4500e+001 98359 -2.5304e-002 -1.2858e-001 -1.1218e-001 30563 98074,98310,97918
 1.4500e+001 98607 -2.2180e-001 -1.1163e-001  1.5710e-002 30073 98630,98460,98408
 1.4500e+001 98584 -3.8157e-001 -1.9413e-001 -2.8267e-002 30073 98630,98408,98382
 1.4500e+001 98561 -6.7352e-002 -1.9475e-001 -2.4294e-002 30073 98382,98512,98486
 1.4500e+001 98538 -9.5611e-002 -1.5370e-001  1.0517e-001 30073 98408,98460,98434
 1.4500e+001 98656 -1.2945e-001 -2.2537e-001 -1.8672e-002 30073 98486,98460,98630
 1.4500e+001 98679 -2.3293e-001 -2.6506e-001 -5.1102e-002 30073 98486,98630,98382
 1.4500e+001 99157  1.0091e+000 -2.3059e-001  2.0543e-001 29669 99180,98837,98811
 1.4500e+001 99134  8.5930e-001 -1.8745e-001  3.9826e-001 29669 99324,99180,98811
 1.4500e+001 99111  6.8577e-001 -1.0884e-002  6.1539e-002 29669 99252,98863,98837
 1.4500e+001 99088  8.3896e-001 -3.0863e-001  4.3428e-001 29669 99324,98811,98993
 1.4500e+001 99065  6.9961e-001  2.3934e-001  1.2728e-001 29669 98863,98941,98915
 1.4500e+001 99042 -4.6767e-001  5.2546e-002  5.6595e-002 29669 98863,98915,98889
 1.4500e+001 99019  3.6812e-001 -4.7454e-001  6.1972e-001 29669 98785,98993,98811
 1.4500e+001 99206  7.3774e-001 -3.4466e-001  1.6881e-001 29669 99252,98837,99180
 1.4500e+001 99229  4.0771e-001 -2.5398e-001  4.8224e-001 29669 98941,99180,98967
 1.4500e+001 99278  6.5255e-001  2.1622e-001  1.1778e-001 29669 98941,98863,99252
 1.4500e+001 99301  8.5199e-001  7.7997e-002  2.5870e-001 29669 98941,99252,99180
 1.4500e+001 99350  8.2277e-001 -3.7381e-002  3.8625e-001 29669 98967,99180,99324
 1.4500e+001 99373  8.3175e-001 -1.3484e-001  4.0404e-001 29669 98967,99324,98993
 1.4500e+001 99958  4.5592e-001  5.2637e-001  2.1705e-001 29051 99981,99765,99739
 1.4500e+001 99935  8.6190e-002 -1.6073e-002  5.6332e-002 29051 99981,99739,99661
 1.4500e+001 99912  1.7325e-001 -1.2571e+000  6.5634e-002 29051 99765,99817,99791
 1.4500e+001 99889  1.2703e-001 -4.9587e-001  2.7362e-002 29051 99635,99817,99661
 1.4500e+001 99866 -2.7170e-001 -4.8089e-002  3.1545e-001 29051 99661,99739,99687
 1.4500e+001 99843 -4.6997e-001  1.6035e-002  2.0609e-001 29051 99687,99739,99713
 1.4500e+001 100007  6.6491e-001 -4.4699e-003  2.6761e-001 29051 99817,99765,99981
 1.4500e+001 100030  4.9806e-001 -2.5338e-001  1.9398e-001 29051 99817,99981,99661
 1.4500e+001 100278  3.6141e-001 -3.3303e-001  1.8309e-001 28525 100445,100301,100131
 1.4500e+001 100255  1.7897e-001  4.4670e-002  1.1658e-001 28525 100373,100301,100079
 1.4500e+001 100232  1.6071e-001 -2.6521e-001  1.6186e-001 28525 100373,100079,100053
 1.4500e+001 100209  1.7419e-001 -2.1245e-001  5.3552e-002 28525 100445,100131,100105
 1.4500e+001 100327  4.6403e-001 -2.7213e-001  3.1524e-001 28525 100517,100301,100157
 1.4500e+001 100350  4.4334e-001  4.8478e-001  3.7845e-001 28525 100157,100301,100183
 1.4500e+001 100399  1.5615e-001 -2.7717e-001  2.7451e-001 28525 100183,100301,100373
 1.4500e+001 100422  2.0902e-001 -4.9751e-001  3.1616e-001 28525 100183,100373,100053
 1.4500e+001 100471  1.1302e-001 -3.4223e-001 -1.2868e-001 28525 100079,100301,100445
 1.4500e+001 100494 -4.2685e-001 -4.6647e-001 -2.6540e-001 28525 100079,100445,100105
 1.4500e+001 100543  6.9379e-001  1.4194e-002  4.1053e-002 28525 100131,100301,100517
 1.4500e+001 101209 -6.0276e-001 -1.8454e-001 -4.7388e-002 28185 100938,101016,100990
 1.4500e+001 101186 -7.5630e-001 -5.7506e-002  5.5233e-002 28185 100912,101016,100938
 1.4500e+001 101163 -2.2383e-001  9.1002e-002  1.4849e-001 28185 100912,101068,101016
 1.4500e+001 101140 -6.8678e-001  1.8440e-001  1.2849e-001 28185 100886,101068,100912
 1.4500e+001 101117 -2.0683e-001  3.9035e-001  1.9929e-001 28185 101016,101068,101042
 1.4500e+001 101094 -1.7161e+000 -4.7197e-001 -1.0190e-001 28185 100938,100990,100964
 1.4500e+001 101408  1.6260e-001 -2.0085e-001 -1.0335e-001 27781 101503,101431,101310
 1.4500e+001 101385 -1.2001e-001 -2.5751e-002 -3.5062e-001 27781 101431,101258,101232
 1.4500e+001 101362  1.9110e-001 -2.1886e-001 -1.2047e-001 27781 101503,101310,101284
 1.4500e+001 101457  7.2136e-001  4.0742e-002 -1.5902e-001 27781 101336,101310,101431
 1.4500e+001 101480  1.7367e-001  1.0204e-001 -3.6663e-001 27781 101575,101431,101232
 1.4500e+001 101529  3.2724e-001 -1.8296e-001 -2.9050e-001 27781 101258,101431,101503
 1.4500e+001 101552  2.2653e-001 -2.0573e-001 -1.4111e-001 27781 101705,101503,101284
 1.4500e+001 101601  3.7492e-001  4.4279e-001 -4.5211e-001 27781 101336,101431,101575
 1.4500e+001 101731 -9.1512e-002 -3.5225e-001 -3.0583e-001 27781 101258,101503,101705
 1.4500e+001 102237 -2.0895e-001 -1.7743e-001  3.7185e-002 27419 102476,102260,101992
 1.4500e+001 102214 -8.4303e-002 -3.0419e-001  4.8842e-003 27419 102260,101940,101914
 1.4500e+001 102191 -2.9236e-001 -3.7731e-001  2.9816e-002 27419 102404,102332,102096
 1.4500e+001 102168 -2.4916e-001 -3.7587e-001 -1.6167e-002 27419 102404,102096,102044
 1.4500e+001 102145 -1.8516e-001 -1.9738e-001  5.2239e-002 27419 102476,101992,101966
 1.4500e+001 102122 -1.7942e-001 -4.0985e-001 -1.7169e-002 27419 102044,102096,102070
 1.4500e+001 102286 -2.8235e-001 -2.8782e-001  6.8988e-002 27419 102018,101992,102260
 1.4500e+001 102309 -2.3871e-001 -2.6116e-001  6.8736e-003 27419 102332,102018,102260
 1.4500e+001 102358 -2.7338e-001 -5.3091e-001  1.3110e-001 27419 101914,102096,102332
 1.4500e+001 102381 -1.7413e-001 -4.0643e-001  4.5420e-002 27419 101914,102332,102260
 1.4500e+001 102430 -1.9762e-001 -3.4930e-001  1.0366e-002 27419 102018,102332,102404
 1.4500e+001 102453 -1.7148e-001 -3.4813e-001 -4.0323e-002 27419 102018,102404,102044
 1.4500e+001 102502 -1.2232e-001 -2.7790e-001  5.6052e-002 27419 101940,102260,102476
 1.4500e+001 102525  2.6806e-001 -7.8694e-002 -1.5186e-002 27419 101940,102476,101966
 1.4500e+001 103031 -7.5346e-001 -6.8334e-001  6.8148e-001 26715 102708,102786,102760
 1.4500e+001 103008  6.8848e-002 -4.9815e-001  2.3972e-001 26715 102708,102890,102786
 1.4500e+001 102985  5.2895e-001 -1.0916e+000  2.8976e-001 26715 102838,102890,102864
 1.4500e+001 102962  1.8724e-001 -2.9164e-001  2.9393e-001 26715 102786,102890,102838
 1.4500e+001 102939  1.0523e+000  1.1100e-001  5.6055e-001 26715 102786,102838,102812
 1.4500e+001 102916 -7.6897e-001 -2.3645e-002  1.3687e-001 26715 102708,102760,102734
 1.4500e+001 103279 -1.6786e-002 -2.8362e-002  5.2769e-002 26303 103302,103158,103080
 1.4500e+001 103256 -7.0374e-002 -5.6503e-003  4.9523e-002 26303 103302,103080,103054
 1.4500e+001 103233 -1.3653e-001 -9.2526e-002  1.6017e-002 26303 103080,103158,103106
 1.4500e+001 103210  1.5093e-001 -1.4531e-002  2.1542e-002 26303 103106,103158,103132
 1.4500e+001 103328  7.1841e-002  1.2165e-002  3.4661e-002 26303 103184,103158,103302
 1.4500e+001 103351 -2.4897e-002  5.0818e-003  3.8024e-002 26303 103184,103302,103054
 1.4500e+001 103501 -9.0418e-002 -3.8598e-001 -1.2442e-002 25849 103374,103426,103400
 1.4500e+001 103478 -1.7995e-001 -3.2926e-001  2.9292e-002 25849 103374,103452,103426
 1.4500e+001 104090  1.0954e-001 -4.6417e-002  1.3803e-001 25445 103793,103871,103819
 1.4500e+001 104067  2.8872e-001  3.2888e-002  6.1140e-002 25445 103793,103949,103871
 1.4500e+001 104044  3.3398e-001 -6.3375e-003  1.5798e-001 25445 103871,103949,103923
 1.4500e+001 104021  2.0694e-003  6.4002e-003 -3.4053e-002 25445 103819,103871,103845
 1.4500e+001 103998  3.9247e-001  1.2715e-001  1.6072e-001 25445 103767,103949,103793
 1.4500e+001 103975  3.7472e-001  4.7716e-002  1.7858e-001 25445 103871,103923,103897
 1.4500e+001 104419 -8.3653e-002 -1.1872e-001 -6.2018e-002 25083 104220,104298,104272
 1.4500e+001 104396 -1.8364e-001 -2.7452e-001 -1.0205e-002 25083 104220,104324,104298
 1.4500e+001 104373 -6.1084e-002 -8.2486e-002 -5.2014e-002 25083 104220,104272,104246
 1.4500e+001 104350 -1.5330e-001 -2.9961e-001 -1.4512e-002 25083 104194,104324,104220
 1.4500e+001 105102  8.0742e-002 -1.9427e-001  6.8731e-002 24793 104785,104863,104837
 1.4500e+001 105079  1.0767e-001 -2.6428e-001 -9.5509e-002 24793 104759,104863,104785
 1.4500e+001 105056  8.8639e-002 -3.9138e-002 -9.3874e-002 24793 104759,104915,104863
 1.4500e+001 105033  1.1984e-001 -1.6384e-001 -1.4593e-001 24793 104733,104915,104759
 1.4500e+001 105010  4.0633e-001  1.0783e-001 -1.5312e-001 24793 104863,104915,104889
 1.4500e+001 104987 -4.7223e-002  1.0310e-002 -2.7502e-001 24793 104681,104915,104733
 1.4500e+001 104964 -7.0543e-003 -2.6893e-001  2.2285e-002 24793 104785,104837,104811
 1.4500e+001 104941 -2.9312e-002  2.3610e-001 -2.3223e-001 24793 104681,104733,104707
 1.4500e+001 105252  1.0917e+000  4.4936e-001  3.5738e-002 24389 105477,105275,105177
 1.4500e+001 105229  3.4867e-001  6.4165e-002  3.0911e-001 24389 105347,105275,105151
 1.4500e+001 105301  1.0694e+000  2.2983e-001  3.8970e-002 24389 105203,105177,105275
 1.4500e+001 105324  1.3986e+000  9.3455e-001  3.8326e-001 24389 105203,105275,105125
 1.4500e+001 105373  1.1043e+000  5.0462e-001  6.8557e-002 24389 105125,105275,105347
 1.4500e+001 105503  7.5639e-001 -2.1025e-001 -8.2940e-002 24389 105151,105275,105477
 1.4500e+001 106088 -2.6153e-001  2.4559e-001  2.9449e-001 23735 105791,105921,105895
 1.4500e+001 106065 -7.6446e-001  1.3381e-001  4.4737e-001 23735 105765,105921,105791
 1.4500e+001 106042 -1.0468e-001  5.0586e-001  2.8053e-001 23735 105765,105947,105921
 1.4500e+001 106019 -9.8890e-001 -4.4330e-002  3.6297e-001 23735 105817,105895,105869
 1.4500e+001 105996 -6.2762e-001  9.3138e-002  3.7064e-001 23735 105791,105895,105817
 1.4500e+001 105973 -5.9349e-001 -3.3423e-001  4.1140e-001 23735 105817,105869,105843
 1.4500e+001 106417  4.1590e-001  7.3289e-001 -8.7344e-002 23295 106218,106296,106270
 1.4500e+001 106394  3.9503e-001  3.4758e-001 -1.1591e-001 23295 106218,106322,106296
 1.4500e+001 106371  1.8612e-001  2.3570e-001 -1.7760e-001 23295 106218,106270,106244
 1.4500e+001 106348  5.3433e-001  4.0711e-001 -3.8591e-002 23295 106192,106322,106218
 1.4500e+001 106746 -3.1970e-001  2.0968e-001  2.8713e-001 23005 106521,106599,106547
 1.4500e+001 106723  2.3697e-001  7.4654e-001  6.8141e-002 23005 106521,106651,106599
 1.4500e+001 106700  3.8304e-001  8.0515e-002 -1.3532e-001 23005 106547,106599,106573
 1.4500e+001 106677  3.1664e-001  6.2866e-001  3.5892e-001 23005 106599,106651,106625
 1.4500e+001 107331 -1.2600e-001  3.1885e-001 -3.3543e-001 22601 107060,107190,107138
 1.4500e+001 107308 -1.0337e+000  9.6532e-001 -6.2559e-001 22601 107034,107190,107060
 1.4500e+001 107285 -2.2578e+000 -6.0075e-001 -4.0700e-001 22601 107060,107138,107112
 1.4500e+001 107262 -1.4517e+000  1.5944e+000  9.0888e-001 22601 107008,107190,107034
 1.4500e+001 107239  3.6226e-001 -3.2390e+000  1.3890e-001 22601 107060,107112,107086
 1.4500e+001 107216 -1.1704e+000  2.6813e+000  5.9255e-001 22601 107138,107190,107164
 1.4500e+001 107807 -1.1889e-001  7.4329e-002 -2.1069e-002 22031 107974,107902,107617
 1.4500e+001 107784 -1.2276e-001  2.0974e-001 -8.2890e-002 22031 107830,107565,107513
 1.4500e+001 107761 -7.9536e-003  3.2639e-002 -1.0449e-001 22031 108046,107830,107513
 1.4500e+001 107738 -6.8808e-002  1.7108e-001  1.1727e-002 22031 107974,107617,107591
 1.4500e+001 107715 -2.7681e-002 -1.1626e-003 -1.1826e-001 22031 108046,107513,107461
 1.4500e+001 107692 -3.6209e-001  2.6631e-001 -1.3483e-001 22031 107513,107565,107539
 1.4500e+001 107669  1.0475e-001  1.9884e-001 -1.8299e-001 22031 107461,107513,107487
 1.4500e+001 107856 -1.8489e-001  1.2740e-001 -4.7172e-002 22031 107902,107565,107830
 1.4500e+001 107879 -5.1572e-002 -7.6899e-002 -2.8880e-003 22031 107643,107830,107435
 1.4500e+001 107928 -3.3017e-001  1.1258e-001 -1.5726e-001 22031 107643,107617,107902
 1.4500e+001 107951 -1.7944e-001  1.1687e-001  2.4490e-002 22031 107643,107902,107830
 1.4500e+001 108000 -1.4723e-001  2.1263e-001 -4.0818e-002 22031 107565,107902,107974
 1.4500e+001 108023 -1.4652e-001  1.8971e-001 -3.6375e-002 22031 107565,107974,107591
 1.4500e+001 108072  4.1391e-002 -5.2521e-003 -5.0568e-002 22031 107435,107830,108046
 1.4500e+001 108095  1.6079e-002 -5.9282e-002 -6.6480e-002 22031 107435,108046,107461
 1.4500e+001 108196  5.4686e-002 -1.0900e-001  1.0990e-002 21783 108118,108170,108144
 1.4500e+001 108655  1.4522e-001  8.2988e-001  4.8830e-001 21379 108407,108485,108459
 1.4500e+001 108632  1.7368e+000  3.4711e-001  5.4758e-001 21379 108407,108511,108485
 1.4500e+001 108609  1.6811e+000  8.0525e-001  1.1016e+000 21379 108381,108511,108407
 1.4500e+001 108586  7.1446e-001  1.6118e+000  8.6907e-003 21379 108381,108537,108511
 1.4500e+001 108563  4.4001e-001  1.1411e-001  2.2254e-001 21379 108407,108459,108433
 1.4500e+001 109082  1.7776e-001 -6.2295e-001 -4.8811e-002 20974 109105,108863,108811
 1.4500e+001 109059 -1.8361e-001 -7.8145e-001 -2.0606e-002 20974 109105,108811,108759
 1.4500e+001 109036  8.2953e-003 -1.7121e+000  1.9107e-001 20974 109177,108889,108863
 1.4500e+001 109013 -1.1986e-001 -6.0574e-001  4.0127e-002 20974 108811,108863,108837
 1.4500e+001 108990  1.3384e-001 -8.6267e-002 -1.8136e-002 20974 108759,108941,108915
 1.4500e+001 108967  6.2569e-002 -7.2257e-002 -7.4257e-003 20974 108759,108811,108785
 1.4500e+001 109131 -1.5110e-001 -1.3444e+000  4.5344e-002 20974 109177,108863,109105
 1.4500e+001 109154  8.6031e-003 -4.8418e-002 -5.3965e-002 20974 108915,109105,108759
 1.4500e+001 109203 -1.4943e-001 -1.4280e+000 -2.9403e-001 20974 108915,108889,109177
 1.4500e+001 109226  1.6751e-002 -4.7872e-001 -3.6858e-001 20974 108915,109177,109105
 1.4500e+001 109496 -2.7706e-001  3.8512e-002 -3.9133e-002 20470 109271,109375,109297
 1.4500e+001 109473 -2.3924e-001  6.8272e-002 -5.2470e-002 20470 109271,109401,109375
 1.4500e+001 109450 -3.3356e-001 -8.3378e-003 -5.9570e-002 20470 109297,109375,109349
 1.4500e+001 109427 -4.9195e-001 -3.0632e-001  1.0253e-001 20470 109297,109349,109323
 1.4500e+001 109955  9.9028e-002  3.7732e-001  2.9161e-001 20123 110050,109733,109707
 1.4500e+001 109932 -1.6291e-001  2.8934e-001  2.6949e-001 20123 110050,109707,109681
 1.4500e+001 109909  1.5867e-001  1.4837e-001  2.2866e-001 20123 109978,109759,109733
 1.4500e+001 109886  7.1963e-002  1.4154e-001  2.2753e-001 20123 110122,109978,109733
 1.4500e+001 109863  1.6973e-001  6.4124e-002  2.0811e-001 20123 109785,109837,109811
 1.4500e+001 110004  1.6445e-001  1.7571e-001  1.9670e-001 20123 109785,109759,109978
 1.4500e+001 110027  1.5004e-001  1.6404e-001  1.8539e-001 20123 109785,109978,109837
 1.4500e+001 110076  1.3024e-002  2.1644e-001  1.9150e-001 20123 110122,109733,110050
 1.4500e+001 110099 -7.2021e-003  3.5745e-001  1.5368e-001 20123 109837,110050,109681
 1.4500e+001 110148  1.8447e-001  2.4630e-001  1.8371e-001 20123 109837,109978,110122
 1.4500e+001 110171  1.3279e-001  3.1365e-001  1.4755e-001 20123 109837,110122,110050
 1.4500e+001 110500  3.5378e-001 -4.4961e-002  2.7534e-002 19511 110301,110379,110353
 1.4500e+001 110477  9.0312e-001  3.8829e-001 -2.0100e-001 19511 110301,110405,110379
 1.4500e+001 110454  3.8746e-001  8.2508e-002  1.5608e-002 19511 110275,110405,110301
 1.4500e+001 110431  3.1748e-001 -1.2885e-001  3.1073e-002 19511 110301,110353,110327
 1.4500e+001 110957  2.6136e-001  1.2905e+000  3.0271e-001 19107 110683,110735,110709
 1.4500e+001 110934  5.4517e-001  9.3125e-001 -5.5690e-002 19107 110683,110813,110735
 1.4500e+001 110911  1.0399e+000  1.2338e+000  2.3105e-001 19107 110735,110813,110761
 1.4500e+001 110888  1.3751e+000  8.7389e-001  6.0151e-001 19107 110683,110839,110813
 1.4500e+001 110865  1.0957e+000  1.1437e+000 -1.1785e-001 19107 110761,110813,110787
 1.4500e+001 111335  8.6134e-001 -1.0632e+000  5.0591e-001 18653 111087,111165,111139
 1.4500e+001 111312  7.9525e-001 -3.0578e-002  2.2243e-001 18653 111087,111217,111165
 1.4500e+001 111289  1.4528e-001 -4.2964e-001  1.0485e+000 18653 111061,111217,111087
 1.4500e+001 111266  1.4953e+000 -1.2800e+000  1.5987e+000 18653 111087,111139,111113
 1.4500e+001 111243  6.8751e-001 -3.2950e-002 -1.3022e-001 18653 111165,111217,111191
 1.4500e+001 111735 -3.7660e-001 -2.9367e-001  1.2226e-001 18213 111461,111513,111487
 1.4500e+001 111712 -2.0414e-001 -2.9278e-001  5.3194e-002 18213 111461,111617,111513
 1.4500e+001 111689 -1.2011e-001 -8.8533e-002  8.5567e-002 18213 111513,111617,111591
 1.4500e+001 111666 -2.3814e-002 -1.5444e-001  1.0665e-001 18213 111513,111591,111539
 1.4500e+001 111643  1.2957e-001 -3.3470e-002  4.7672e-002 18213 111539,111591,111565
 1.4500e+001 111885 -6.6739e-001 -3.7074e+000 -1.1126e-001 17659 111784,111836,111810
 1.4500e+001 111862 -5.2214e-001 -2.6539e+000  3.2263e-001 17659 111758,111836,111784
 1.4500e+001 112287 -5.6358e-001 -2.9301e+000 -1.0071e+000 17411 112065,112169,112143
 1.4500e+001 112264 -1.7093e+000 -1.2167e+000 -9.1274e-001 17411 112039,112169,112065
 1.4500e+001 112241 -1.3314e+000 -7.2279e-001 -4.9786e-001 17411 112013,112169,112039
 1.4500e+001 112218  3.1835e+000 -2.1875e+000 -9.7148e-001 17411 112091,112143,112117
 1.4500e+001 112195 -6.3640e-002 -2.5153e+000 -2.3555e-001 17411 112065,112143,112091
 1.4500e+001 112508 -2.5363e-001  2.5186e-001  3.9776e-002 17007 112384,112436,112410
 1.4500e+001 112485 -1.5834e-001  3.4436e-001  7.9661e-002 17007 112332,112436,112384
 1.4500e+001 112462 -2.4425e-001  1.7764e-001  4.9039e-002 17007 112332,112384,112358
 1.4500e+001 112658 -6.4847e-001 -5.0250e-001  3.7087e-001 16553 112557,112609,112583
 1.4500e+001 112635 -1.2517e+000 -8.5066e-003  5.1729e-001 16553 112531,112609,112557
 1.4500e+001 112761  1.8351e-001 -9.7024e-001  4.6376e-002 16355 112683,112735,112709
 1.4500e+001 112913 -4.5038e-001  3.1898e-001  3.2728e-002 15949 112786,112838,112812
 1.4500e+001 112890 -1.7454e-001  8.0054e-001 -9.4443e-002 15949 112786,112864,112838
 1.4500e+001 113065  9.7043e-002 -4.6102e-001 -9.1593e-003 15609 112938,112990,112964
 1.4500e+001 113042 -1.2144e-001 -1.0735e+000 -3.0493e-001 15609 112938,113016,112990
 1.4500e+001 113420  4.5020e-001  3.0563e-001  1.0784e-001 15284 113247,113325,113299
 1.4500e+001 113397  4.3534e-001  2.6719e-001  3.5722e-002 15284 113195,113325,113247
 1.4500e+001 113374  2.9219e-001  2.0836e-001  3.8470e-002 15284 113195,113247,113221
 1.4500e+001 113351  3.5534e-001  4.3816e-001  9.2986e-002 15284 113247,113299,113273
 1.4500e+001 113521  1.4670e-001 -1.6142e-001  9.0905e-002 202 113443,113495,113469
 1.5000e+001 65564  1.5184e-002 -7.6340e-002  2.5506e-002 65155 65414,65466,65440
 1.5000e+001 65541  2.4955e-002 -8.9750e-002  1.4354e-002 65155 65414,65492,65466
 1.5000e+001 65518  1.3440e-002 -1.0514e-001  3.6107e-002 65155 65388,65492,65414
 1.5000e+001 65883  1.4381e-001 -7.2962e-001 -1.3239e-002 64957 65635,65739,65713
 1.5000e+001 65860  1.2276e-001 -1.0830e+000 -5.4027e-002 64957 65635,65765,65739
 1.5000e+001 65837 -8.4101e-002 -1.1916e+000 -5.7400e-003 64957 65609,65765,65635
 1.5000e+001 65814  1.2932e-001 -8.7833e-001  2.4257e-001 64957 65635,65713,65687
 1.5000e+001 65791  3.0427e-003 -1.0438e+000  1.5751e-001 64957 65635,65687,65661
 1.5000e+001 65984 -3.4159e-002  5.3528e-002  2.2641e-002 64781 65906,65958,65932
 1.5000e+001 66232 -3.3260e-001 -4.1324e-001  3.6432e-001 64469 66007,66059,66033
 1.5000e+001 66209  5.7471e-002 -4.2414e-001  4.1867e-001 64469 66007,66085,66059
 1.5000e+001 66186 -2.5127e-001 -1.1180e+000  5.4098e-001 64469 66007,66137,66085
 1.5000e+001 66163 -1.3570e-001 -1.4340e+000  1.1577e+000 64469 66085,66137,66111
 1.5000e+001 66504  1.0562e-002 -1.0468e+000  2.5124e-002 64271 66279,66383,66305
 1.5000e+001 66481  1.1639e-001 -1.0421e+000 -3.0741e-002 64271 66279,66409,66383
 1.5000e+001 66458  1.9979e-001 -1.3210e+000  2.7219e-002 64271 66305,66357,66331
 1.5000e+001 66435 -7.6670e-002 -1.1899e+000  6.3140e-002 64271 66305,66383,66357
 1.5000e+001 66705  3.9203e-001 -2.7904e+000  2.2345e-001 64073 66728,66581,66555
 1.5000e+001 66682  3.8672e-001 -1.9960e+000  4.2255e-001 64073 66728,66555,66529
 1.5000e+001 66659  2.3352e-001 -1.7392e+000 -3.3457e-001 64073 66581,66633,66607
 1.5000e+001 66754 -1.0648e-001 -2.0423e+000 -6.6316e-002 64073 66633,66581,66728
 1.5000e+001 66777  9.1762e-002 -9.9740e-001  1.5382e-002 64073 66633,66728,66529
 1.5000e+001 66951 -1.3393e-001 -4.0486e-001 -6.1322e-002 63783 66824,66876,66850
 1.5000e+001 66928  4.7922e-001 -3.4320e-001  1.8452e-001 63783 66824,66902,66876
 1.5000e+001 67201 -5.8374e-001 -1.3573e+000 -1.4026e-001 63585 66976,67080,67054
 1.5000e+001 67178 -1.0181e-001 -1.1733e+000  6.9236e-002 63585 66976,67106,67080
 1.5000e+001 67155  2.0876e-001 -1.6355e+000 -5.7291e-001 63585 66976,67054,67028
 1.5000e+001 67132  9.6522e-004 -2.1428e+000 -5.1744e-001 63585 66976,67028,67002
 1.5000e+001 67654  7.9985e-002 -8.0983e-001 -1.7341e-002 63295 67357,67487,67383
 1.5000e+001 67631  8.6150e-002 -1.0035e+000  1.1929e-001 63295 67331,67487,67357
 1.5000e+001 67608 -6.1169e-002 -1.1813e+000 -1.8665e-002 63295 67331,67513,67487
 1.5000e+001 67585  1.2598e-003 -1.1998e+000  3.6722e-003 63295 67435,67487,67461
 1.5000e+001 67562 -5.9905e-002 -1.2216e+000  4.0526e-003 63295 67383,67487,67435
 1.5000e+001 67539  2.9259e-002 -1.1286e+000  4.0717e-002 63295 67383,67435,67409
 1.5000e+001 67853 -5.6452e-002 -1.0879e+000  6.7302e-003 62891 67876,67703,67677
 1.5000e+001 67830 -3.9298e-002 -1.1244e+000 -1.5598e-002 62891 67876,67677,67781
 1.5000e+001 67807  2.2324e-002 -9.5220e-001 -6.7578e-002 62891 67948,67729,67703
 1.5000e+001 67902 -2.1718e-002 -1.0708e+000  1.3246e-002 62891 67948,67703,67876
 1.5000e+001 67925 -1.6202e-001 -1.0533e+000  4.5104e-002 62891 67755,67876,67781
 1.5000e+001 67974 -7.1748e-002 -7.9386e-001 -7.0363e-002 62891 67755,67729,67948
 1.5000e+001 67997 -5.0283e-002 -8.5477e-001 -6.7271e-003 62891 67755,67948,67876
 1.5000e+001 68218  6.7853e-002 -2.5349e-002 -7.9210e-002 62693 68042,68120,68068
 1.5000e+001 68195  9.7457e-004 -1.6538e-002  4.0019e-003 62693 68042,68146,68120
 1.5000e+001 68172 -2.1986e-001  1.8504e-001 -3.9518e-002 62693 68068,68120,68094
 1.5000e+001 68468  3.1677e-001 -3.2251e-002  2.5794e-002 62289 68491,68295,68269
 1.5000e+001 68445  7.1064e-002 -6.9379e-002 -1.2366e-001 62289 68563,68491,68269
 1.5000e+001 68422  7.4952e-002  2.6863e-002 -5.2329e-002 62289 68563,68269,68243
 1.5000e+001 68399 -1.5770e-001 -1.7118e-001  2.1827e-002 62289 68295,68347,68321
 1.5000e+001 68517  1.4696e-001 -2.0595e-001 -6.5808e-002 62289 68347,68295,68491
 1.5000e+001 68540 -1.6010e-001 -7.4389e-002 -2.0383e-001 62289 68347,68491,68373
 1.5000e+001 68589  1.1209e-001  1.1694e-001 -1.1347e-001 62289 68373,68491,68563
 1.5000e+001 68612  7.1672e-002  1.4986e-001 -4.1508e-002 62289 68373,68563,68243
 1.5000e+001 68911 -7.5262e-002 -1.0803e+000  2.8272e-003 62091 69222,68934,68741
 1.5000e+001 68888  1.0150e-001 -1.0424e+000 -3.6023e-002 62091 69006,68934,68689
 1.5000e+001 68865  1.2924e-001 -1.0261e+000  4.7573e-003 62091 69006,68689,68663
 1.5000e+001 68842 -1.2239e-001 -1.0896e+000 -1.2603e-001 62091 69078,68793,68767
 1.5000e+001 68819 -1.8866e-001 -1.1478e+000  1.6373e-001 62091 69222,68741,68715
 1.5000e+001 68960 -1.7813e-001 -1.0871e+000  1.4209e-002 62091 68767,68741,68934
 1.5000e+001 68983 -5.5666e-002 -1.1332e+000 -3.2781e-002 62091 69078,68767,68934
 1.5000e+001 69032  9.3161e-002 -1.0516e+000 -1.9995e-002 62091 69150,69006,68637
 1.5000e+001 69055  8.6465e-002 -1.0617e+000 -1.2918e-002 62091 68637,69006,68663
 1.5000e+001 69104 -2.8591e-002 -8.7065e-001 -6.2798e-002 62091 68637,68793,69078
 1.5000e+001 69127  6.6347e-002 -1.0161e+000 -4.7222e-003 62091 69150,68637,69078
 1.5000e+001 69176  3.4549e-002 -1.0632e+000 -3.9637e-002 62091 68934,69006,69150
 1.5000e+001 69199 -2.0571e-002 -1.0463e+000 -1.6097e-002 62091 68934,69150,69078
 1.5000e+001 69248  1.3833e-003 -9.1657e-001 -2.1442e-002 62091 68689,68934,69222
 1.5000e+001 69271 -2.4391e-002 -8.6580e-001  9.1877e-002 62091 68689,69222,68715
 1.5000e+001 69521 -2.7064e-001  1.1164e-001 -8.8294e-004 61893 69544,69348,69296
 1.5000e+001 69498 -7.0786e-002  1.4631e-001  3.7023e-002 61893 69544,69296,69400
 1.5000e+001 69475  5.2565e-002  1.6002e-001  2.1967e-002 61893 69296,69426,69400
 1.5000e+001 69452 -1.8127e-001 -4.2481e-001 -1.3480e-001 61893 69296,69348,69322
 1.5000e+001 69570 -1.6551e-001  2.4953e-002  1.5314e-001 61893 69374,69348,69544
 1.5000e+001 69593  1.8615e-001  1.4543e-001  1.8154e-001 61893 69374,69544,69400
 1.5000e+001 70046  6.3501e-002 -8.6659e-001 -9.5731e-003 61467 69749,69905,69879
 1.5000e+001 70023  1.3411e-001 -6.8040e-001  1.9461e-001 61467 69723,69905,69749
 1.5000e+001 70000  4.8699e-002 -9.2540e-001 -2.8413e-002 61467 70069,69827,69775
 1.5000e+001 69977 -1.0386e-001 -1.3171e+000  1.0483e-001 61467 70069,69775,69749
 1.5000e+001 69954 -3.8763e-002 -6.7757e-001 -2.9819e-002 61467 70141,69853,69827
 1.5000e+001 69931  8.3762e-002 -1.2056e+000 -3.5928e-001 61467 69775,69827,69801
 1.5000e+001 70095  8.0054e-003 -7.4349e-001 -7.2566e-002 61467 70141,69827,70069
 1.5000e+001 70118  5.2727e-002 -9.1126e-001  1.7345e-004 61467 69879,70069,69749
 1.5000e+001 70167  8.1231e-003 -7.7811e-001 -2.5919e-002 61467 69879,69853,70141
 1.5000e+001 70190 -1.4715e-002 -9.3427e-001 -6.9624e-002 61467 69879,70141,70069
 1.5000e+001 70291 -9.7807e-002 -1.5393e+000 -1.7769e-001 61013 70213,70265,70239
 1.5000e+001 70441  1.9245e-001 -3.1601e-002 -5.0058e-002 60651 70340,70392,70366
 1.5000e+001 70418  2.3971e-001 -1.3464e-001  1.8227e-002 60651 70314,70392,70340
 1.5000e+001 70642  8.3001e-002 -6.7213e-001 -1.8579e-001 60311 70665,70492,70466
 1.5000e+001 70619 -1.3665e-001 -1.2350e+000 -2.7052e-001 60311 70665,70466,70570
 1.5000e+001 70596 -3.2827e+000 -1.5391e-001  3.1476e-001 60311 70492,70544,70518
 1.5000e+001 70691  5.9903e-002 -1.0288e-001  3.9450e-001 60311 70544,70492,70665
 1.5000e+001 70714 -2.9471e-001 -9.6101e-001  3.2257e-001 60311 70544,70665,70570
 1.5000e+001 70964  3.0804e-001 -1.2426e+000  1.4101e-001 59907 70987,70765,70739
 1.5000e+001 70941  3.0144e-001 -1.2802e+000 -4.4581e-002 59907 71059,70987,70739
 1.5000e+001 70918  1.7409e-001 -1.4591e+000  1.1270e-002 59907 71059,70739,70869
 1.5000e+001 70895  1.7090e-001 -1.0739e+000  1.2835e-002 59907 70817,70869,70843
 1.5000e+001 71013  1.2380e+000 -7.8776e-001  5.6766e-001 59907 70791,70765,70987
 1.5000e+001 71036  4.1011e-001 -1.4324e+000  1.8789e-001 59907 70791,70987,70817
 1.5000e+001 71085  1.4654e-001 -1.1747e+000 -3.4609e-002 59907 70817,70987,71059
 1.5000e+001 71108  1.4226e-001 -1.2124e+000 -3.1731e-002 59907 70817,71059,70869
 1.5000e+001 71441 -5.6084e-001 -7.5905e-001  5.5651e-001 59417 71464,71242,71216
 1.5000e+001 71418 -3.9435e-001 -4.7398e-001  7.8532e-001 59417 71464,71216,71320
 1.5000e+001 71395 -5.4958e-001 -4.3954e-001  8.4469e-001 59417 71216,71346,71320
 1.5000e+001 71372 -5.7346e-001 -7.9545e-001  4.0803e-001 59417 71268,71320,71294
 1.5000e+001 71490 -7.6143e-001 -8.0705e-001  2.5922e-001 59417 71268,71242,71464
 1.5000e+001 71513 -6.9958e-001 -4.1922e-001  4.8416e-001 59417 71268,71464,71320
 1.5000e+001 71712  1.4625e+000  1.3294e+000  4.3155e-001 58913 71562,71614,71588
 1.5000e+001 71689  8.9215e-001  9.9903e-001  2.9467e-001 58913 71536,71614,71562
 1.5000e+001 71666  5.1331e-001  1.9663e+000 -1.7314e-001 58913 71536,71640,71614
 1.5000e+001 72171 -9.4888e-001 -2.1310e+000  1.7138e-001 58409 72194,72027,72001
 1.5000e+001 72148 -8.3313e-001 -2.4809e+000 -6.3826e-002 58409 72194,72001,71949
 1.5000e+001 72125 -4.9993e-001 -1.4093e+000  2.1614e-004 58409 71923,72053,71949
 1.5000e+001 72102 -9.4014e-001 -2.4447e+000 -1.7463e-001 58409 71949,72001,71975
 1.5000e+001 72079 -1.9425e-001 -1.0052e+000  3.1331e-001 58409 71897,72053,71923
 1.5000e+001 72220 -7.2196e-001 -1.9759e+000  3.1470e-001 58409 72053,72027,72194
 1.5000e+001 72243 -6.2708e-001 -2.2269e+000  6.8513e-002 58409 72053,72194,71949
 1.5000e+001 72491  8.1896e-001  1.2887e+000  2.7987e-001 57855 72514,72318,72292
 1.5000e+001 72468  1.1873e+000  1.2662e+000  5.1513e-001 57855 72514,72292,72266
 1.5000e+001 72445  7.2692e-001  1.2661e+000  3.7918e-001 57855 72318,72396,72370
 1.5000e+001 72422  5.4200e-001  1.2706e+000  2.8633e-001 57855 72318,72370,72344
 1.5000e+001 72540  7.7832e-001  1.4460e+000  3.7589e-001 57855 72396,72318,72514
 1.5000e+001 72563  8.1381e-001  1.5769e+000  4.5567e-001 57855 72396,72514,72266
 1.5000e+001 72811 -2.8497e-001 -2.1952e+000  1.1310e+000 57401 72612,72690,72638
 1.5000e+001 72788 -2.1473e+000 -2.9822e+000  1.5208e+000 57401 72586,72690,72612
 1.5000e+001 72765  3.6604e+000 -3.7826e+000  1.0830e-001 57401 72638,72690,72664
 1.5000e+001 72742  2.8655e-001 -1.2053e+000  7.0384e-001 57401 72586,72716,72690
 1.5000e+001 73144 -5.0312e-002 -1.0154e+000 -2.5777e-002 57004 72919,72997,72945
 1.5000e+001 73121 -1.3780e-001 -1.2500e+000  4.6869e-002 57004 72919,73049,72997
 1.5000e+001 73098 -1.8693e-001 -9.0416e-001 -1.2477e-001 57004 72945,72997,72971
 1.5000e+001 73075 -1.1062e-001 -1.2254e+000  7.9728e-002 57004 72997,73049,73023
 1.5000e+001 73650 -8.2353e-002 -2.7404e+000  4.8793e-001 56592 73673,73379,73353
 1.5000e+001 73627 -6.6525e-001 -2.3338e+000  1.2747e+000 56592 73673,73353,73327
 1.5000e+001 73604  6.6973e-001 -1.6893e+000  1.0073e+000 56592 73745,73509,73483
 1.5000e+001 73581  1.2532e+000 -1.8620e+000  6.6134e-001 56592 73379,73457,73405
 1.5000e+001 73558  1.5845e+000 -1.9324e+000  1.0885e+000 56592 73379,73483,73457
 1.5000e+001 73535  2.3293e+000 -1.2766e+000  9.0008e-001 56592 73405,73457,73431
 1.5000e+001 73699  1.9193e-001 -2.3584e+000  8.3077e-001 56592 73483,73379,73673
 1.5000e+001 73722  5.9436e-001 -2.2948e+000  1.2257e+000 56592 73745,73483,73673
 1.5000e+001 73771  4.1976e-001 -4.6976e-001  6.0015e-001 56592 73327,73509,73745
 1.5000e+001 73794  4.7326e-002 -1.2067e+000  9.7016e-001 56592 73327,73745,73673
 1.5000e+001 74123  2.8799e-001  2.2202e-001 -5.8437e-001 56152 74146,74002,73924
 1.5000e+001 74100  4.8964e-001  1.9234e-001 -4.6118e-001 56152 74146,73924,73898
 1.5000e+001 74077  1.1785e+000  6.9948e-001 -8.2030e-001 56152 73924,74002,73976
 1.5000e+001 74054  5.8613e-001 -6.4256e-001  3.2070e-001 56152 73924,73976,73950
 1.5000e+001 74172  1.0831e-001  4.6423e-001 -4.6322e-001 56152 74028,74002,74146
 1.5000e+001 74195  4.0017e-001  3.5065e-001 -3.3912e-001 56152 74028,74146,73898
 1.5000e+001 74345  1.5664e+000 -2.1706e-001 -6.5168e-001 55634 74218,74270,74244
 1.5000e+001 74322  5.9645e-002 -2.4262e-001 -2.5864e-001 55634 74218,74296,74270
 1.5000e+001 74823 -1.2377e-001 -2.6146e+000  4.7547e-001 55016 74918,74846,74581
 1.5000e+001 74800 -4.8594e-001 -2.6899e+000  1.5663e-001 55016 74846,74477,74633
 1.5000e+001 74777 -7.9931e-001 -3.2672e+000  7.4177e-001 55016 74918,74581,74555
 1.5000e+001 74754 -8.3099e-001 -2.3086e+000  2.5969e-001 55016 74990,74503,74477
 1.5000e+001 74731 -4.4504e-001 -3.1468e+000 -5.7001e-001 55016 74451,74633,74477
 1.5000e+001 74708 -1.3344e+000 -2.1852e+000 -8.8423e-001 55016 74451,74659,74633
 1.5000e+001 74685 -1.8339e+000 -1.5491e+000  1.5698e+000 55016 74503,74555,74529
 1.5000e+001 74872 -4.6704e-001 -3.4621e+000  4.2694e-001 55016 74607,74581,74846
 1.5000e+001 74895 -2.9365e-001 -2.9749e+000  2.4325e-001 55016 74607,74846,74633
 1.5000e+001 74944 -1.0390e+000 -3.0505e+000  3.2268e-001 55016 74477,74846,74918
 1.5000e+001 74967 -8.2292e-001 -2.4405e+000  3.4242e-001 55016 74990,74477,74918
 1.5000e+001 75016 -8.6003e-001 -2.2925e+000  6.8369e-001 55016 74555,74503,74990
 1.5000e+001 75039 -9.8005e-001 -2.7052e+000  7.5475e-001 55016 74555,74990,74918
 1.5000e+001 75287 -8.6857e-001 -6.2886e+000  9.5061e-001 54726 75310,75140,75114
 1.5000e+001 75264 -1.3861e+000 -5.3108e+000  6.4715e-001 54726 75310,75114,75088
 1.5000e+001 75241  2.0527e-001 -4.2739e+000  1.2686e-001 54726 75088,75192,75166
 1.5000e+001 75218 -7.4877e-001 -9.3784e-001  8.3728e-001 54726 75062,75192,75088
 1.5000e+001 75336 -1.3742e-001 -5.6839e+000  4.3377e-001 54726 75166,75140,75310
 1.5000e+001 75359 -1.1769e+000 -4.8185e+000  3.5440e-001 54726 75166,75310,75088
 1.5000e+001 75946 -1.2116e-001 -4.9163e-001 -1.6707e-001 54322 75969,75701,75649
 1.5000e+001 75923  1.3850e-001 -3.6574e-001 -2.1332e-001 54322 75969,75649,75623
 1.5000e+001 75900 -2.1133e-002 -3.5392e-001 -2.3483e-002 54322 76041,75753,75701
 1.5000e+001 75877 -7.0224e-002 -7.9659e-001 -3.4256e-002 54322 75623,75805,75779
 1.5000e+001 75854 -5.2262e-002 -4.4704e-001  1.7991e-001 54322 75701,75753,75727
 1.5000e+001 75831 -2.2579e-003 -1.4983e-001 -6.1301e-002 54322 75649,75701,75675
 1.5000e+001 75995  6.9576e-002 -4.0385e-001 -9.9051e-002 54322 76041,75701,75969
 1.5000e+001 76018  8.2225e-002 -5.2726e-001 -1.1264e-001 54322 75779,75969,75623
 1.5000e+001 76067 -7.7175e-002 -4.8661e-001  9.8961e-003 54322 75779,75753,76041
 1.5000e+001 76090 -1.2598e-002 -5.8233e-001 -6.5296e-002 54322 75779,76041,75969
 1.5000e+001 76468 -1.8767e-002 -5.2415e-001 -6.8494e-002 53868 76491,76272,76220
 1.5000e+001 76445  7.1161e-002 -5.4127e-001 -2.1065e-002 53868 76491,76220,76324
 1.5000e+001 76422 -2.3007e-002 -7.2884e-001 -8.9404e-002 53868 76220,76272,76246
 1.5000e+001 76399  1.1914e-001 -5.8214e-001 -4.1507e-002 53868 76194,76324,76220
 1.5000e+001 76376  5.5327e-001 -4.0825e-001  7.4597e-002 53868 76194,76350,76324
 1.5000e+001 76517  3.1785e-002 -4.8507e-001 -1.7497e-002 53868 76298,76272,76491
 1.5000e+001 76540  1.2149e-001 -5.1395e-001  2.5806e-002 53868 76298,76491,76324
 1.5000e+001 76690  1.0447e-002 -6.9679e-001  7.0978e-002 53356 76589,76641,76615
 1.5000e+001 76667 -1.9608e-001 -8.8910e-001 -1.8627e-002 53356 76563,76641,76589
 1.5000e+001 76938  1.8456e-001  3.6899e-001  9.3922e-002 53009 77105,76961,76765
 1.5000e+001 76915 -6.9092e-002 -1.5241e+000 -5.9375e-001 53009 76961,76713,76843
 1.5000e+001 76892 -2.4150e-001 -7.1363e-001  7.2757e-002 53009 77033,76817,76791
 1.5000e+001 76869  5.3756e-001  1.7288e+000 -1.0424e-001 53009 77105,76765,76739
 1.5000e+001 76987 -2.5982e-001 -6.5842e-001 -1.7236e-001 53009 76791,76765,76961
 1.5000e+001 77010 -1.9567e-001 -4.2109e-001 -2.0411e-001 53009 77033,76791,76961
 1.5000e+001 77059  2.0804e-001 -4.6252e-001 -1.8749e-001 53009 76843,76817,77033
 1.5000e+001 77082  1.6285e-001 -3.4023e-001 -4.4609e-001 53009 76843,77033,76961
 1.5000e+001 77131  8.1367e-001 -1.5924e-002 -1.0101e+000 53009 76713,76961,77105
 1.5000e+001 77154  9.9515e-001  4.9290e-001 -1.2275e+000 53009 76713,77105,76739
 1.5000e+001 77355  5.4857e-001 -4.0705e+000  4.6835e-001 52390 77378,77257,77231
 1.5000e+001 77332  6.8198e-001 -5.2117e+000  6.4505e-001 52390 77378,77231,77179
 1.5000e+001 77309  1.3591e+000 -3.8430e+000  4.1758e-001 52390 77179,77231,77205
 1.5000e+001 77404  8.2774e-001 -4.9881e+000  1.0414e+000 52390 77283,77257,77378
 1.5000e+001 77427  7.4164e-001 -6.5171e+000  1.1274e+000 52390 77283,77378,77179
 1.5000e+001 77677 -1.1537e+000  1.2721e+000 -1.4860e+000 51986 77700,77504,77478
 1.5000e+001 77654 -2.2972e-001  1.2262e+000 -1.3133e+000 51986 77700,77478,77452
 1.5000e+001 77631  3.9309e-001  1.1919e+000 -1.3840e+000 51986 77772,77556,77530
 1.5000e+001 77608  3.4692e+000  2.2112e+000 -2.2524e+000 51986 77452,77582,77556
 1.5000e+001 77726 -3.7560e-001  1.6153e+000 -9.6398e-001 51986 77530,77504,77700
 1.5000e+001 77749  3.5268e-001  1.1732e+000 -1.1148e+000 51986 77772,77530,77700
 1.5000e+001 77798  8.2534e-002  1.0398e+000 -1.2973e+000 51986 77452,77556,77772
 1.5000e+001 77821 -8.1695e-002  1.0297e+000 -1.0665e+000 51986 77452,77772,77700
 1.5000e+001 78282 -6.9015e-001 -2.8833e+000  1.7433e-001 51738 78008,78138,78060
 1.5000e+001 78259 -1.3346e+000 -3.8102e+000  1.9940e+000 51738 78008,78164,78138
 1.5000e+001 78236 -7.0794e-001 -2.1843e+000  6.0550e-001 51738 78086,78138,78112
 1.5000e+001 78213 -5.5013e-001 -1.6738e+000  5.8014e-001 51738 78060,78138,78086
 1.5000e+001 78190  1.4578e-001 -3.2308e+000 -2.9867e-001 51738 78008,78060,78034
 1.5000e+001 78432  2.3330e-001 -4.2816e-001  2.2809e-002 51148 78305,78357,78331
 1.5000e+001 78409  1.4972e-001 -3.0782e-001  2.8727e-002 51148 78305,78383,78357
 1.5000e+001 78891 -1.1066e-001 -5.8914e-001 -6.3620e-002 50808 78914,78695,78669
 1.5000e+001 78868 -3.8574e-002 -4.0626e-001 -3.1656e-002 50808 78914,78669,78643
 1.5000e+001 78845 -5.8147e-002 -5.3929e-001 -3.0698e-001 50808 78643,78773,78747
 1.5000e+001 78822 -3.4115e-002 -5.7466e-001 -2.9446e-001 50808 78617,78773,78643
 1.5000e+001 78799 -2.9042e-001 -6.0475e-001 -1.2456e-001 50808 78695,78747,78721
 1.5000e+001 78940 -1.9630e-001 -4.6760e-001 -1.8929e-001 50808 78747,78695,78914
 1.5000e+001 78963 -1.1902e-001 -3.6317e-001 -1.5343e-001 50808 78747,78914,78643
 1.5000e+001 79260  8.8840e-002 -5.7512e-001 -3.4115e-002 50468 79283,79090,79012
 1.5000e+001 79237  2.7224e-001 -5.4072e-001  2.0448e-002 50468 79283,79012,78986
 1.5000e+001 79214 -1.0180e-001 -6.5903e-001 -6.0195e-002 50468 79012,79090,79038
 1.5000e+001 79191  1.2812e-001 -4.7420e-001  1.1321e-001 50468 78986,79142,79116
 1.5000e+001 79168 -6.7322e-003 -6.5627e-001 -9.5125e-002 50468 79038,79090,79064
 1.5000e+001 79309 -1.1105e-001 -5.1902e-001 -5.5604e-002 50468 79116,79090,79283
 1.5000e+001 79332  1.1935e-001 -4.3762e-001  1.6163e-002 50468 79116,79283,78986
 1.5000e+001 79889  8.0857e-001  1.1161e+000 -4.8635e-001 50064 79569,79725,79699
 1.5000e+001 79866  9.2142e-001  1.1803e+000 -4.1173e-001 50064 79543,79725,79569
 1.5000e+001 79843  8.5794e-001  6.9581e-001 -5.4726e-001 50064 79621,79699,79673
 1.5000e+001 79820  1.0855e+000  1.2044e+000 -8.4287e-001 50064 79595,79699,79621
 1.5000e+001 79797  1.6026e+000  1.3325e+000 -6.3975e-001 50064 79569,79699,79595
 1.5000e+001 79774  4.0897e-001  1.2090e+000 -2.3053e-001 50064 79517,79725,79543
 1.5000e+001 79751  4.9040e-001  7.0300e-001 -5.8655e-001 50064 79621,79673,79647
 1.5000e+001 80169  1.0429e+000  1.5384e+000 -6.8069e-001 49724 80019,80097,80071
 1.5000e+001 80146  9.5716e-001  1.9285e+000 -7.7492e-001 49724 79993,80097,80019
 1.5000e+001 80123  7.0294e-001  1.4476e+000 -8.1190e-001 49724 80019,80071,80045
 1.5000e+001 80626  1.2547e-001  3.1342e-001  2.4216e-001 49277 80352,80482,80378
 1.5000e+001 80603 -2.3440e-001  2.0575e-001 -2.6892e-002 49277 80352,80508,80482
 1.5000e+001 80580 -1.3924e-001 -4.1683e-001  5.4029e-002 49277 80378,80482,80456
 1.5000e+001 80557 -1.1993e-001 -7.4760e-001  3.5404e-001 49277 80378,80430,80404
 1.5000e+001 80534 -2.3435e-002 -3.2174e-001  2.6329e-001 49277 80378,80456,80430
 1.5000e+001 81230  7.2003e-001 -4.4154e-001  2.1822e-001 48716 81253,80835,80809
 1.5000e+001 81207  6.5045e-001 -3.9130e-001  5.8848e-001 48716 81397,81253,80809
 1.5000e+001 81184  8.8960e-002  2.1798e-001 -4.3815e-002 48716 81325,80913,80887
 1.5000e+001 81161 -1.1753e-001 -4.5571e-001  7.6300e-001 48716 81397,80809,81017
 1.5000e+001 81138 -1.4193e-001  4.4998e-001 -1.1810e-001 48716 81469,80965,80913
 1.5000e+001 81115 -1.4709e-001 -7.3693e-001  2.6459e-001 48716 80835,80887,80861
 1.5000e+001 81092  9.3119e-001 -4.6950e-001  1.4585e+000 48716 80809,81043,81017
 1.5000e+001 81069  2.5603e-002  2.3295e-001 -2.9702e-001 48716 80913,80965,80939
 1.5000e+001 81279  2.6898e-001 -4.2141e-001  2.6451e-002 48716 80887,80835,81253
 1.5000e+001 81302  7.8668e-002  2.2577e-001 -9.4518e-003 48716 81325,80887,81253
 1.5000e+001 81351  1.5721e-001  3.5159e-001 -3.3212e-003 48716 81469,80913,81325
 1.5000e+001 81374  1.5322e-002  5.2306e-001  1.4460e-001 48716 80991,81325,81253
 1.5000e+001 81423 -4.6119e-001  1.4828e-002  6.7118e-001 48716 80991,81253,81397
 1.5000e+001 81446 -1.3300e+000 -1.7156e-001  9.1821e-001 48716 80991,81397,81017
 1.5000e+001 81495 -6.1447e-001  3.8791e-001 -9.0174e-002 48716 80991,80965,81469
 1.5000e+001 81518 -3.7431e-001  2.4606e-001  2.3453e-002 48716 80991,81469,81325
 1.5000e+001 81717 -3.2984e-002 -5.9112e-001  7.3785e-002 48262 81740,81567,81541
 1.5000e+001 81694 -1.6819e-001 -5.9290e-001  1.8816e-002 48262 81740,81541,81645
 1.5000e+001 81671 -1.1513e-001 -6.3874e-001 -1.9860e-002 48262 81567,81619,81593
 1.5000e+001 81766 -1.1796e-001 -5.9968e-001 -5.3131e-003 48262 81619,81567,81740
 1.5000e+001 81789 -2.6477e-001 -6.3214e-001 -6.9996e-002 48262 81619,81740,81645
 1.5000e+001 81939  1.0140e+000  1.1017e+000 -4.2543e-001 47957 82034,81962,81864
 1.5000e+001 81916  7.4630e-001  8.0085e-001 -1.0671e-001 47957 82166,81962,81838
 1.5000e+001 81988 -4.3509e-001  1.0363e+000 -4.6605e-001 47957 82294,81962,81890
 1.5000e+001 82011  7.1292e-001  1.7670e+000  3.3998e-001 47957 81890,81962,81812
 1.5000e+001 82060  9.1165e-001  1.5669e+000  4.1583e-002 47957 81838,81962,82034
 1.5000e+001 82192  1.0265e+000  9.6416e-001  3.4790e-001 47957 81812,81962,82166
 1.5000e+001 82320  1.0916e-001  1.0779e+000 -5.9394e-001 47957 81864,81962,82294
 1.5000e+001 82549  3.5233e-002 -6.5712e-001 -1.7157e-001 47617 82448,82500,82474
 1.5000e+001 82526  3.2767e-001 -8.4745e-001  3.8522e-003 47617 82422,82500,82448
 1.5000e+001 82902 -7.3514e-001 -1.1454e+000  1.3382e-001 47255 82729,82807,82755
 1.5000e+001 82879 -3.8446e-001 -1.6306e+000  4.0604e-001 47255 82703,82807,82729
 1.5000e+001 82856 -1.1219e+000 -1.2453e+000  5.4414e-001 47255 82755,82807,82781
 1.5000e+001 82833  9.5213e-001 -1.0579e+000  5.4058e-001 47255 82677,82807,82703
 1.5000e+001 83182  3.5284e-001 -9.5214e-001  1.9262e-001 46680 83032,83084,83058
 1.5000e+001 83159  4.9179e-001 -3.7699e-001  1.9517e-001 46680 83205,83084,83032
 1.5000e+001 83136  7.3819e-001 -1.3879e-001 -2.6319e-002 46680 83006,83110,83084
 1.5000e+001 83231  2.9957e-001 -4.8784e-001  1.5023e-001 46680 83006,83084,83205
 1.5000e+001 83737 -7.6575e-001 -3.3346e-001  2.4161e-002 46290 83832,83760,83492
 1.5000e+001 83714 -6.0993e-001 -3.4601e-002 -1.1372e-001 46290 83760,83440,83414
 1.5000e+001 83691 -4.8452e-001 -5.1124e-001 -2.6946e-002 46290 83832,83492,83466
 1.5000e+001 83668 -6.4673e-001 -1.0826e+000  2.1129e-001 46290 83492,83570,83544
 1.5000e+001 83645 -5.7871e-001 -2.2381e-001 -2.7091e-001 46290 83414,83596,83570
 1.5000e+001 83622 -7.7626e-001 -8.2275e-001  4.2774e-001 46290 83492,83544,83518
 1.5000e+001 83786 -7.8565e-001 -3.2124e-001  5.0164e-002 46290 83570,83492,83760
 1.5000e+001 83809 -7.3890e-001 -4.5145e-001 -1.4527e-001 46290 83570,83760,83414
 1.5000e+001 83858 -4.0396e-001 -1.3906e-001  1.2075e-001 46290 83440,83760,83832
 1.5000e+001 83881  1.0536e-001 -2.5735e-001  5.2239e-003 46290 83440,83832,83466
 1.5000e+001 84161 -1.7292e-001 -8.4821e-001  3.7121e-001 45829 84011,84063,84037
 1.5000e+001 84138  3.6215e-002 -5.0792e-001  1.1851e-001 45829 84011,84089,84063
 1.5000e+001 84115  1.8964e-002 -5.1313e-001  1.6122e-001 45829 83985,84089,84011
 1.5000e+001 84311  1.6944e-002 -3.2075e-001  7.1545e-003 45631 84184,84236,84210
 1.5000e+001 84288 -2.8098e-001 -1.0033e+000  5.7215e-002 45631 84184,84262,84236
 1.5000e+001 84657 -6.3510e-002 -5.1174e-001 -1.6551e-002 45155 84680,84490,84412
 1.5000e+001 84634 -1.3266e-001 -4.6673e-001 -8.3447e-004 45155 84680,84412,84360
 1.5000e+001 84611 -1.1444e-001 -5.4491e-001  1.7180e-002 45155 84412,84490,84438
 1.5000e+001 84588  4.9231e-002 -3.6038e-001 -3.5594e-002 45155 84334,84516,84360
 1.5000e+001 84565 -1.7120e-001 -5.4653e-001 -1.2216e-001 45155 84360,84412,84386
 1.5000e+001 84542 -8.9364e-002 -4.4084e-001  7.6576e-002 45155 84438,84490,84464
 1.5000e+001 84706 -3.4453e-002 -4.7487e-001 -2.9936e-002 45155 84516,84490,84680
 1.5000e+001 84729 -8.6564e-002 -4.1595e-001 -2.1440e-002 45155 84516,84680,84360
 1.5000e+001 85077  2.0031e-001 -2.0744e-001  6.4636e-002 44508 85100,84754,84910
 1.5000e+001 85054  2.0928e-001  1.2618e-001  1.1806e-001 44508 84754,84936,84910
 1.5000e+001 85031  5.8113e-002 -3.5711e-001  2.1024e-001 44508 85100,84910,84884
 1.5000e+001 85008 -1.3746e-001 -4.2419e-001  1.1767e-001 44508 84780,84884,84832
 1.5000e+001 84985  1.1643e-001  3.8471e-002 -9.9600e-002 44508 84780,84832,84806
 1.5000e+001 84962  6.7952e-001  1.5782e-001 -1.3940e-001 44508 84832,84884,84858
 1.5000e+001 85126  8.3827e-002  2.2586e-002 -4.5744e-002 44508 84780,84754,85100
 1.5000e+001 85149 -2.3107e-002 -1.2900e-001  8.7327e-002 44508 84780,85100,84884
 1.5000e+001 85482 -4.2137e-001 -7.1332e-001  1.4555e-003 44104 85335,85387,85361
 1.5000e+001 85459 -3.6453e-001 -1.0668e+000  4.3565e-002 44104 85309,85387,85335
 1.5000e+001 85436 -1.6331e-001 -8.5567e-001  1.7930e-001 44104 85257,85387,85309
 1.5000e+001 85413 -2.8688e-001 -1.4523e+000  1.0966e-001 44104 85257,85309,85283
 1.5000e+001 85811 -8.1086e-002 -3.5484e-001 -2.6146e-002 43600 85586,85664,85612
 1.5000e+001 85788 -1.5735e-001 -4.5175e-001  1.7455e-002 43600 85586,85690,85664
 1.5000e+001 85765  6.3822e-002 -3.6068e-001 -1.8189e-002 43600 85586,85716,85690
 1.5000e+001 85742 -1.8262e-002 -3.3926e-001 -1.0809e-002 43600 85612,85664,85638
 1.5000e+001 86010  7.9480e-003 -4.1825e-001 -6.9677e-002 43224 85886,85938,85912
 1.5000e+001 85987  1.1247e-001 -5.2158e-002 -1.0845e-001 43224 85834,85938,85886
 1.5000e+001 85964 -2.4554e-001 -4.4869e-001  4.4636e-002 43224 85834,85886,85860
 1.5000e+001 86420  1.9032e+000  9.7711e-001 -2.8222e-001 42820 86195,86299,86221
 1.5000e+001 86397  1.4422e+000  9.0399e-001 -9.2405e-001 42820 86195,86325,86299
 1.5000e+001 86374  1.2704e+000  1.1676e+000  1.1638e-002 42820 86221,86299,86273
 1.5000e+001 86351  1.1299e+000  6.5986e-001  9.2515e-002 42820 86221,86273,86247
 1.5000e+001 86749  4.1624e-001 -2.8176e-001 -9.8271e-002 42223 86550,86602,86576
 1.5000e+001 86726  1.1420e+000 -5.9033e-001  4.4395e-002 42223 86550,86628,86602
 1.5000e+001 86703  9.5109e-002 -9.5461e-001  3.3246e-001 42223 86524,86628,86550
 1.5000e+001 86680  6.5362e-001 -5.2564e-003  9.7601e-002 42223 86524,86654,86628
 1.5000e+001 87078  5.8327e-001 -3.0218e-001  2.3584e-001 41883 87173,87101,86905
 1.5000e+001 87055  4.5527e-001  3.7391e-001 -1.4908e-002 41883 87101,86879,86853
 1.5000e+001 87032  7.7338e-002 -2.8853e-002  2.4764e-002 41883 86853,86983,86931
 1.5000e+001 87009 -2.5147e-002 -4.6550e-001  1.5852e-001 41883 86931,86983,86957
 1.5000e+001 87127  7.0161e-001 -1.6484e-001  2.4830e-002 41883 86931,86905,87101
 1.5000e+001 87150  1.7405e-001 -2.8215e-001 -1.8124e-002 41883 86931,87101,86853
 1.5000e+001 87199  1.2573e-001 -2.5159e-001  2.1855e-001 41883 86879,87101,87173
 1.5000e+001 87558 -3.9784e-002  4.5855e-001 -9.3889e-002 41471 87382,87460,87408
 1.5000e+001 87535 -8.7182e-001 -9.9916e-002 -3.3680e-001 41471 87382,87486,87460
 1.5000e+001 87512 -3.5126e-001  2.3254e-001 -2.3530e-001 41471 87408,87460,87434
 1.5000e+001 87806  1.4905e-001 -2.9537e-001  7.0502e-002 41017 87829,87607,87581
 1.5000e+001 87783  1.0632e-001 -4.1814e-001  9.6518e-002 41017 87829,87581,87685
 1.5000e+001 87760  2.9212e-001 -1.7700e-001  1.3493e-002 41017 87581,87711,87685
 1.5000e+001 87737  3.2119e-001 -8.1223e-001  4.1911e-002 41017 87633,87685,87659
 1.5000e+001 87855  1.4813e-001 -3.3560e-001  1.6395e-001 41017 87633,87607,87829
 1.5000e+001 87878  9.7601e-002 -4.6483e-001  1.9228e-001 41017 87633,87829,87685
 1.5000e+001 88258 -2.0494e-002 -2.6996e-002  1.0436e-002 40613 88281,88036,88010
 1.5000e+001 88235 -1.1459e-002 -2.1058e-002  6.6285e-003 40613 88281,88010,88088
 1.5000e+001 88212 -1.3579e-003 -3.9077e-002  2.1685e-002 40613 87984,88088,88010
 1.5000e+001 88189  2.9845e-003 -2.6283e-002  1.3008e-002 40613 87984,88114,88088
 1.5000e+001 88166 -2.0014e-003 -1.3698e-002  8.8758e-003 40613 87984,88140,88114
 1.5000e+001 88307 -1.1175e-002 -3.4699e-002  2.4534e-003 40613 88062,88036,88281
 1.5000e+001 88330  4.8983e-003 -1.8706e-002 -4.2735e-003 40613 88062,88281,88088
 1.5000e+001 88649  4.9559e-003 -5.0177e-002 -4.6496e-003 40095 88375,88505,88401
 1.5000e+001 88626 -4.6017e-003 -3.3501e-002 -1.3574e-002 40095 88375,88531,88505
 1.5000e+001 88603  1.2908e-002 -4.9403e-002 -4.8277e-003 40095 88401,88505,88479
 1.5000e+001 88580  2.2981e-003 -3.9332e-001 -1.5768e-001 40095 88427,88479,88453
 1.5000e+001 88557 -1.4174e-003 -6.1474e-002  7.5249e-004 40095 88401,88479,88427
 1.5000e+001 89078  1.1873e+000 -9.4629e-002 -7.9999e-002 39897 89101,88833,88807
 1.5000e+001 89055  7.6700e-001 -5.2922e-001 -2.9266e-001 39897 89101,88807,88911
 1.5000e+001 89032  8.7032e-001 -5.1861e-003 -3.0094e-001 39897 88781,88911,88807
 1.5000e+001 89009  6.4658e-002 -5.9650e-001 -6.9712e-001 39897 88781,88937,88911
 1.5000e+001 88986  2.1784e+000  3.8334e-001 -3.3648e-001 39897 88833,88885,88859
 1.5000e+001 88963  5.9766e-001  2.5676e-002 -4.4949e-001 39897 88755,88937,88781
 1.5000e+001 89127  1.6167e+000 -6.2905e-001 -5.7233e-001 39897 88885,88833,89101
 1.5000e+001 89150  8.5388e-001 -1.3084e+000 -8.7556e-001 39897 88885,89101,88911
 1.5000e+001 89300 -7.3684e-001 -9.8898e-001  1.8034e-001 39607 89453,89323,89199
 1.5000e+001 89277 -1.1768e+000 -8.2729e-001  8.2119e-002 39607 89525,89453,89199
 1.5000e+001 89349 -7.1244e-001 -1.0047e+000 -5.4316e-002 39607 89225,89199,89323
 1.5000e+001 89479 -8.2670e-001 -6.0610e-001  1.9007e-001 39607 89251,89323,89453
 1.5000e+001 89502 -4.5851e-001 -2.3858e-001  4.6142e-001 39607 89251,89453,89173
 1.5000e+001 89551 -1.5366e-001 -4.4889e-001  6.4372e-002 39607 89173,89453,89525
 1.5000e+001 90264 -6.4546e-001 -1.7171e+000 -1.0974e-001 39039 89996,90074,90048
 1.5000e+001 90241 -3.8076e-001 -7.6178e-001 -8.7453e-002 39039 89918,90074,89996
 1.5000e+001 90218 -5.5056e-001 -9.6271e-001 -9.0903e-003 39039 89918,89996,89944
 1.5000e+001 90195 -4.5713e-001 -7.7872e-001 -6.6633e-002 39039 89892,90074,89918
 1.5000e+001 90172  9.8145e-002 -1.7422e+000 -1.9972e-001 39039 89996,90048,90022
 1.5000e+001 90149 -1.0655e+000  3.2685e-001 -8.6475e-002 39039 89892,90100,90074
 1.5000e+001 90126 -8.6894e-001 -1.1041e+000  8.6436e-002 39039 89944,89996,89970
 1.5000e+001 90770 -8.6008e-002 -4.2418e-001  1.6277e-002 38635 90473,90603,90577
 1.5000e+001 90747  4.7412e-003 -3.7002e-001 -2.0628e-002 38635 90447,90603,90473
 1.5000e+001 90724  1.5034e-004 -4.4063e-001 -4.8865e-002 38635 90499,90577,90551
 1.5000e+001 90701 -1.4492e-001 -5.5467e-001  4.6459e-002 38635 90473,90577,90499
 1.5000e+001 90678 -6.5939e-002 -6.3307e-001 -8.6671e-003 38635 90499,90551,90525
 1.5000e+001 90655 -1.8309e-001 -4.2644e-001  5.0767e-002 38635 90447,90629,90603
 1.5000e+001 90871 -3.2529e-003 -3.8706e-001 -9.4982e-002 38231 90793,90845,90819
 1.5000e+001 91458 -1.7702e-002 -2.2206e-001 -3.4304e-003 37534 91161,91317,91291
 1.5000e+001 91435 -1.9693e-001 -1.4677e-001  6.6661e-002 37534 91135,91317,91161
 1.5000e+001 91412 -3.1965e-001 -1.1164e+000 -2.1752e-001 37534 91187,91291,91239
 1.5000e+001 91389 -9.0789e-002 -1.1034e+000  1.2991e-001 37534 91161,91291,91187
 1.5000e+001 91366 -7.4733e-002 -8.4850e-001 -1.1021e-001 37534 91239,91291,91265
 1.5000e+001 91343  3.9847e-001 -1.2081e+000 -5.2550e-001 37534 91187,91239,91213
 1.5000e+001 91915 -2.8549e-001 -8.6140e-001  1.5288e-001 37080 91938,91745,91667
 1.5000e+001 91892  1.9824e-002 -8.1489e-001  5.0244e-002 37080 91938,91667,91797
 1.5000e+001 91869  2.2608e-001 -3.2552e-001  1.1063e-001 37080 91641,91797,91667
 1.5000e+001 91846 -2.6705e-001 -9.6483e-001  3.7351e-002 37080 91667,91719,91693
 1.5000e+001 91823 -1.7543e-001 -7.2520e-001  9.4865e-002 37080 91667,91745,91719
 1.5000e+001 91964 -4.4210e-001 -9.9605e-001  4.2137e-001 37080 91771,91745,91938
 1.5000e+001 91987 -1.3634e-001 -8.3595e-001  2.8237e-001 37080 91771,91938,91797
 1.5000e+001 92235 -1.5099e-001 -4.0367e-001 -2.3184e-002 36397 92036,92088,92062
 1.5000e+001 92212 -9.1523e-002 -3.8685e-001 -4.6588e-002 36397 92036,92114,92088
 1.5000e+001 92189  5.7043e-003 -3.0946e-001  1.2138e-002 36397 92036,92140,92114
 1.5000e+001 92166  1.9709e-002 -4.2662e-001 -1.6294e-002 36397 92010,92140,92036
 1.5000e+001 92694  1.4827e-001  4.4273e-003 -2.7522e-002 36057 92446,92498,92472
 1.5000e+001 92671  1.8389e-001 -2.9934e-002  6.3234e-002 36057 92446,92550,92498
 1.5000e+001 92648 -5.4039e-002 -4.0148e-001  1.7380e-001 36057 92446,92576,92550
 1.5000e+001 92625  1.4560e-001 -9.0274e-003 -3.0408e-001 36057 92420,92576,92446
 1.5000e+001 92602  2.9663e-002  1.4762e-002  1.7514e-001 36057 92498,92550,92524
 1.5000e+001 93023 -1.4225e-001 -3.5382e-001 -3.3190e-002 35717 92876,92928,92902
 1.5000e+001 93000 -1.0931e-001 -3.9310e-001 -4.8532e-002 35717 92824,92928,92876
 1.5000e+001 92977 -1.1132e-003 -3.9120e-001 -1.4179e-002 35717 92798,92928,92824
 1.5000e+001 92954 -1.5501e-001 -5.3927e-001 -1.0187e-001 35717 92824,92876,92850
 1.5000e+001 93499  3.9028e-001 -4.4815e-001  2.5719e-001 35405 93522,93309,93257
 1.5000e+001 93476  4.1777e-001 -4.0746e-001  2.4514e-001 35405 93666,93522,93257
 1.5000e+001 93453  4.2464e-001 -1.1503e+000  2.8275e-001 35405 93594,93127,93335
 1.5000e+001 93430  3.1544e-001 -4.3060e-001  2.3396e-001 35405 93666,93257,93231
 1.5000e+001 93407  1.2861e-001 -1.4862e+000  9.7339e-002 35405 93127,93179,93153
 1.5000e+001 93384 -3.6887e-001 -3.8571e-001  4.8611e-001 35405 93179,93231,93205
 1.5000e+001 93361  4.8303e-001  3.4128e-001  2.2545e-002 35405 93257,93309,93283
 1.5000e+001 93548  6.0464e-001 -2.7701e-001  4.7276e-001 35405 93335,93309,93522
 1.5000e+001 93571  4.2596e-001 -6.4182e-001  3.5475e-001 35405 93594,93335,93522
 1.5000e+001 93620  5.2017e-001 -6.2278e-001  1.9828e-001 35405 93179,93127,93594
 1.5000e+001 93643  3.0769e-001 -3.9557e-001  2.1489e-001 35405 93738,93594,93522
 1.5000e+001 93692  3.0659e-001 -4.0400e-001  2.0329e-001 35405 93738,93522,93666
 1.5000e+001 93715  2.5549e-001 -4.2011e-001  1.7338e-001 35405 93179,93666,93231
 1.5000e+001 93764  2.9994e-001 -4.1494e-001  2.1141e-001 35405 93179,93594,93738
 1.5000e+001 93787  3.0356e-001 -4.2087e-001  2.0225e-001 35405 93179,93738,93666
 1.5000e+001 94372  8.6943e-001 -9.7151e-002  7.5934e-002 34951 94395,94127,94075
 1.5000e+001 94349  1.1426e+000 -1.5496e-001  1.8744e-001 34951 94395,94075,94231
 1.5000e+001 94326  1.4029e+000 -4.1091e-001 -3.4918e-001 34951 94049,94231,94075
 1.5000e+001 94303  8.3237e-001  3.7078e-001  1.9466e-001 34951 94075,94127,94101
 1.5000e+001 94280  1.6540e+000  7.8622e-001  6.9976e-001 34951 94127,94205,94153
 1.5000e+001 94257  1.2459e+000 -3.4089e-001  7.1552e-001 34951 94153,94205,94179
 1.5000e+001 94421  1.0841e+000 -1.3266e-001  2.3089e-001 34951 94205,94127,94395
 1.5000e+001 94444  1.5717e+000 -5.1983e-002  3.3498e-001 34951 94205,94395,94231
 1.5000e+001 94692  1.1140e-002 -3.4406e-002 -1.1329e-002 34397 94715,94519,94467
 1.5000e+001 94669  1.0028e-002 -3.6530e-003 -5.8205e-003 34397 94715,94467,94597
 1.5000e+001 94646  9.1137e-003 -5.8037e-003 -3.1656e-002 34397 94545,94597,94571
 1.5000e+001 94623  5.1393e-003 -5.2494e-002 -2.0590e-003 34397 94467,94519,94493
 1.5000e+001 94741 -1.1709e-002 -1.3889e-001 -2.6995e-002 34397 94545,94519,94715
 1.5000e+001 94764  2.9939e-002 -3.8857e-002 -1.9043e-002 34397 94545,94715,94597
 1.5000e+001 94985  2.6226e-002 -1.3735e-001  1.4701e-002 33985 94835,94913,94887
 1.5000e+001 94962 -1.1419e-001 -4.7863e-001  3.5730e-002 33985 94809,94913,94835
 1.5000e+001 94939 -3.9064e-002 -1.4593e-001  2.2512e-002 33985 94835,94887,94861
 1.5000e+001 95186 -3.9952e-002 -6.1876e-001 -1.8974e-001 33645 95281,95209,95036
 1.5000e+001 95163  3.8483e-001 -6.2445e-001  3.4778e-002 33645 95209,95010,95088
 1.5000e+001 95140  3.6960e-001 -3.2881e-001 -8.7317e-004 33645 95010,95114,95088
 1.5000e+001 95235 -2.3836e-001 -7.7351e-001 -3.1719e-001 33645 95062,95036,95209
 1.5000e+001 95258 -1.7757e-001 -8.4628e-001  2.6062e-001 33645 95413,95209,95088
 1.5000e+001 95307  3.0587e-001 -1.9505e-002 -4.0201e-001 33645 95010,95209,95281
 1.5000e+001 95439  1.7829e-001 -4.5363e-001  1.0674e-001 33645 95062,95209,95413
 1.5000e+001 95766 -1.5364e-001 -1.5014e-001 -2.7367e-001 33141 95789,95593,95567
 1.5000e+001 95743  3.7109e-002 -2.7843e-001 -8.6983e-002 33141 95861,95789,95567
 1.5000e+001 95720  2.5905e-002 -2.5033e-001 -3.4971e-002 33141 95861,95567,95671
 1.5000e+001 95697  3.0628e-002 -2.8143e-001 -4.4615e-002 33141 95541,95671,95567
 1.5000e+001 95815 -3.6838e-004  2.1197e-001 -2.3432e-001 33141 95619,95593,95789
 1.5000e+001 95838  6.3044e-002 -1.1320e-001 -7.7739e-002 33141 95619,95789,95645
 1.5000e+001 95887  7.6932e-002 -1.8638e-001 -9.1489e-002 33141 95645,95789,95861
 1.5000e+001 95910  6.4864e-002 -1.5874e-001 -3.2368e-002 33141 95645,95861,95671
 1.5000e+001 96060 -1.3586e-001 -3.5888e-001 -1.1354e-001 32487 95959,96011,95985
 1.5000e+001 96037  1.8872e-002 -3.6093e-001 -1.4046e-002 32487 95933,96011,95959
 1.5000e+001 96570 -2.0203e-001 -4.5038e-001  2.7423e-001 32033 96665,96593,96377
 1.5000e+001 96547 -1.6191e-001 -4.6197e-001 -7.8751e-002 32033 96737,96593,96325
 1.5000e+001 96524 -2.6503e-001 -5.8907e-001  1.7761e-001 32033 96665,96377,96351
 1.5000e+001 96501 -2.7248e-001 -6.8879e-001 -4.3451e-002 32033 96737,96325,96299
 1.5000e+001 96478 -2.9149e-001 -1.7242e-001 -2.2519e-002 32033 96247,96429,96299
 1.5000e+001 96455 -7.1480e-001 -1.3174e+000  9.6357e-003 32033 96247,96299,96273
 1.5000e+001 96619  1.0131e-001 -2.1415e-001  3.4170e-001 32033 96809,96593,96403
 1.5000e+001 96642  3.1049e-001  3.4343e-001 -2.6470e-001 32033 96403,96593,96429
 1.5000e+001 96691  5.4557e-002 -7.8561e-001  9.8549e-002 32033 96325,96593,96665
 1.5000e+001 96714 -1.6558e-001 -1.0435e+000 -3.6181e-002 32033 96325,96665,96351
 1.5000e+001 96763 -2.8718e-001 -3.8185e-001  2.8671e-002 32033 96429,96593,96737
 1.5000e+001 96786 -3.2927e-001 -4.8349e-001  3.2485e-002 32033 96429,96737,96299
 1.5000e+001 96835 -2.5606e-002 -3.7532e-001  2.6679e-001 32033 96377,96593,96809
 1.5000e+001 97064 -7.1226e-002 -7.7911e-002 -4.5132e-002 31671 97087,96989,96963
 1.5000e+001 97041 -3.7097e-002 -8.3336e-002  9.6438e-003 31671 97087,96963,96937
 1.5000e+001 97113  2.8956e-002 -6.4233e-002 -3.2610e-002 31671 97159,97087,97015
 1.5000e+001 97136 -2.2290e-002 -3.5825e-002 -9.0135e-003 31671 97015,97087,96937
 1.5000e+001 97185 -3.7847e-002 -2.9224e-002 -2.1626e-002 31671 96989,97087,97159
 1.5000e+001 97563  2.2303e-003 -1.7336e-001 -2.8383e-002 31117 97586,97367,97341
 1.5000e+001 97540  3.5809e-004 -1.3325e-001  4.5572e-003 31117 97658,97586,97341
 1.5000e+001 97517 -7.4634e-003 -1.1465e-001  1.6283e-003 31117 97658,97341,97315
 1.5000e+001 97494  4.3299e-002 -8.5275e-002 -1.4086e-002 31117 97289,97445,97315
 1.5000e+001 97471  3.2310e-002 -1.7226e-002 -1.8955e-002 31117 97367,97419,97393
 1.5000e+001 97612 -4.8365e-003 -6.9267e-002 -3.9777e-002 31117 97419,97367,97586
 1.5000e+001 97635  1.0605e-002 -1.0642e-001  1.5667e-002 31117 97419,97586,97445
 1.5000e+001 97684  7.4858e-003 -1.1119e-001 -4.5695e-003 31117 97445,97586,97658
 1.5000e+001 97707 -5.5026e-004 -9.1902e-002 -6.8280e-003 31117 97445,97658,97315
 1.5000e+001 98215  1.0560e-001 -7.9259e-002 -1.4567e-001 30563 98238,97996,97944
 1.5000e+001 98192 -8.8384e-002 -6.6901e-002 -1.5756e-001 30563 98310,98238,97944
 1.5000e+001 98169 -2.7601e-001 -2.4434e-001 -2.9299e-001 30563 98310,97944,97918
 1.5000e+001 98146  2.6395e-001 -6.9418e-002 -6.3274e-002 30563 97892,98074,97918
 1.5000e+001 98123  2.1733e-001 -1.6556e-001  9.2860e-002 30563 97996,98048,98022
 1.5000e+001 98100 -1.7888e-001 -1.7884e-001 -1.6077e-001 30563 97944,97996,97970
 1.5000e+001 98264  3.4231e-002 -1.6093e-002 -1.0040e-001 30563 98048,97996,98238
 1.5000e+001 98287  2.1697e-001  2.7897e-001  1.1610e-001 30563 98048,98238,98074
 1.5000e+001 98336  1.2009e-001 -9.0662e-002 -9.7560e-003 30563 98074,98238,98310
 1.5000e+001 98359 -1.8305e-002 -1.1329e-001 -1.0795e-001 30563 98074,98310,97918
 1.5000e+001 98607 -2.2692e-001 -9.3343e-002  1.5781e-002 30073 98630,98460,98408
 1.5000e+001 98584 -3.8868e-001 -1.7725e-001 -2.8845e-002 30073 98630,98408,98382
 1.5000e+001 98561 -7.0403e-002 -1.7812e-001 -2.6635e-002 30073 98382,98512,98486
 1.5000e+001 98538 -9.8981e-002 -1.3564e-001  1.0611e-001 30073 98408,98460,98434
 1.5000e+001 98656 -1.3335e-001 -2.0883e-001 -1.9045e-002 30073 98486,98460,98630
 1.5000e+001 98679 -2.3811e-001 -2.4938e-001 -5.1929e-002 30073 98486,98630,98382
 1.5000e+001 99157  1.0599e+000 -2.1060e-001  1.8425e-001 29669 99180,98837,98811
 1.5000e+001 99134  8.8400e-001 -1.7621e-001  4.0390e-001 29669 99324,99180,98811
 1.5000e+001 99111  6.8779e-001 -1.8325e-002  6.0472e-002 29669 99252,98863,98837
 1.5000e+001 99088  8.6265e-001 -2.9557e-001  4.3954e-001 29669 99324,98811,98993
 1.5000e+001 99065  7.1287e-001  2.1645e-001  1.1705e-001 29669 98863,98941,98915
 1.5000e+001 99042 -4.4313e-001  2.7571e-002  4.9789e-002 29669 98863,98915,98889
 1.5000e+001 99019  4.2019e-001 -4.5065e-001  6.1835e-001 29669 98785,98993,98811
 1.5000e+001 99206  7.5084e-001 -3.4174e-001  1.6341e-001 29669 99252,98837,99180
 1.5000e+001 99229  4.0405e-001 -2.6001e-001  4.9530e-001 29669 98941,99180,98967
 1.5000e+001 99278  6.7101e-001  1.9887e-001  1.1629e-001 29669 98941,98863,99252
 1.5000e+001 99301  8.7764e-001  6.6223e-002  2.5448e-001 29669 98941,99252,99180
 1.5000e+001 99350  8.4653e-001 -2.8316e-002  3.9146e-001 29669 98967,99180,99324
 1.5000e+001 99373  8.5458e-001 -1.2393e-001  4.0906e-001 29669 98967,99324,98993
 1.5000e+001 99958  4.8420e-001  4.7197e-001  2.0372e-001 29051 99981,99765,99739
 1.5000e+001 99935  1.2627e-001 -2.6859e-002  4.6802e-002 29051 99981,99739,99661
 1.5000e+001 99912  1.9372e-001 -1.2776e+000  6.4713e-002 29051 99765,99817,99791
 1.5000e+001 99889  2.1143e-001 -4.7856e-001 -1.6708e-002 29051 99635,99817,99661
 1.5000e+001 99866 -1.9769e-001 -4.8076e-002  2.8285e-001 29051 99661,99739,99687
 1.5000e+001 99843 -4.0159e-001 -1.4177e-003  1.8726e-001 29051 99687,99739,99713
 1.5000e+001 100007  6.9069e-001 -2.1166e-002  2.4798e-001 29051 99817,99765,99981
 1.5000e+001 100030  5.2223e-001 -2.4584e-001  1.7454e-001 29051 99817,99981,99661
 1.5000e+001 100278  4.2266e-001 -3.0705e-001  1.8958e-001 28525 100445,100301,100131
 1.5000e+001 100255  2.3259e-001  6.0881e-002  1.3305e-001 28525 100373,100301,100079
 1.5000e+001 100232  2.1758e-001 -2.4988e-001  1.8088e-001 28525 100373,100079,100053
 1.5000e+001 100209  2.3624e-001 -1.8127e-001  5.6266e-002 28525 100445,100131,100105
 1.5000e+001 100327  5.1173e-001 -2.5609e-001  3.2210e-001 28525 100517,100301,100157
 1.5000e+001 100350  4.9694e-001  5.0949e-001  3.8799e-001 28525 100157,100301,100183
 1.5000e+001 100399  2.0411e-001 -2.6097e-001  2.9076e-001 28525 100183,100301,100373
 1.5000e+001 100422  2.6084e-001 -4.8215e-001  3.3450e-001 28525 100183,100373,100053
 1.5000e+001 100471  1.7490e-001 -3.2902e-001 -1.1539e-001 28525 100079,100301,100445
 1.5000e+001 100494 -3.5827e-001 -4.4698e-001 -2.5792e-001 28525 100079,100445,100105
 1.5000e+001 100543  7.5442e-001  3.5091e-002  4.7940e-002 28525 100131,100301,100517
 1.5000e+001 101209 -5.7872e-001 -1.6053e-001 -4.4756e-002 28185 100938,101016,100990
 1.5000e+001 101186 -7.3662e-001 -4.0695e-002  5.3829e-002 28185 100912,101016,100938
 1.5000e+001 101163 -2.0807e-001  1.0464e-001  1.4969e-001 28185 100912,101068,101016
 1.5000e+001 101140 -6.6667e-001  1.9361e-001  1.2880e-001 28185 100886,101068,100912
 1.5000e+001 101117 -1.9045e-001  4.0010e-001  1.9919e-001 28185 101016,101068,101042
 1.5000e+001 101094 -1.6980e+000 -4.5210e-001 -9.7210e-002 28185 100938,100990,100964
 1.5000e+001 101408  1.7536e-001 -1.8226e-001 -1.0505e-001 27781 101503,101431,101310
 1.5000e+001 101385 -1.0732e-001 -1.3922e-003 -3.5066e-001 27781 101431,101258,101232
 1.5000e+001 101362  2.0537e-001 -1.9882e-001 -1.2142e-001 27781 101503,101310,101284
 1.5000e+001 101457  7.3268e-001  6.0902e-002 -1.6276e-001 27781 101336,101310,101431
 1.5000e+001 101480  1.8665e-001  1.2793e-001 -3.7047e-001 27781 101575,101431,101232
 1.5000e+001 101529  3.4020e-001 -1.6078e-001 -2.9091e-001 27781 101258,101431,101503
 1.5000e+001 101552  2.3911e-001 -1.8720e-001 -1.4119e-001 27781 101705,101503,101284
 1.5000e+001 101601  3.8560e-001  4.6114e-001 -4.5601e-001 27781 101336,101431,101575
 1.5000e+001 101731 -7.6112e-002 -3.2959e-001 -3.0469e-001 27781 101258,101503,101705
 1.5000e+001 102237 -2.1465e-001 -1.6582e-001  3.9311e-002 27419 102476,102260,101992
 1.5000e+001 102214 -8.6767e-002 -2.9217e-001  4.9929e-003 27419 102260,101940,101914
 1.5000e+001 102191 -2.9876e-001 -3.6609e-001  3.1568e-002 27419 102404,102332,102096
 1.5000e+001 102168 -2.5348e-001 -3.6436e-001 -1.6546e-002 27419 102404,102096,102044
 1.5000e+001 102145 -1.8906e-001 -1.8702e-001  5.5348e-002 27419 102476,101992,101966
 1.5000e+001 102122 -1.7953e-001 -3.9469e-001 -1.9096e-002 27419 102044,102096,102070
 1.5000e+001 102286 -2.9283e-001 -2.7920e-001  7.3337e-002 27419 102018,101992,102260
 1.5000e+001 102309 -2.4381e-001 -2.4986e-001  8.2329e-003 27419 102332,102018,102260
 1.5000e+001 102358 -2.7962e-001 -5.2161e-001  1.3402e-001 27419 101914,102096,102332
 1.5000e+001 102381 -1.7918e-001 -3.9509e-001  4.6806e-002 27419 101914,102332,102260
 1.5000e+001 102430 -1.9959e-001 -3.3699e-001  1.0797e-002 27419 102018,102332,102404
 1.5000e+001 102453 -1.7209e-001 -3.3537e-001 -4.2243e-002 27419 102018,102404,102044
 1.5000e+001 102502 -1.2617e-001 -2.6419e-001  5.8959e-002 27419 101940,102260,102476
 1.5000e+001 102525  2.6974e-001 -6.4635e-002 -9.9353e-003 27419 101940,102476,101966
 1.5000e+001 103031 -6.7655e-001 -6.3648e-001  6.3818e-001 26715 102708,102786,102760
 1.5000e+001 103008  1.0043e-001 -4.6475e-001  2.2051e-001 26715 102708,102890,102786
 1.5000e+001 102985  5.7052e-001 -1.0333e+000  2.7954e-001 26715 102838,102890,102864
 1.5000e+001 102962  2.2047e-001 -2.9186e-001  2.9301e-001 26715 102786,102890,102838
 1.5000e+001 102939  1.1130e+000  1.2679e-001  5.9343e-001 26715 102786,102838,102812
 1.5000e+001 102916 -6.9697e-001 -1.9397e-002  1.1729e-001 26715 102708,102760,102734
 1.5000e+001 103279 -7.9456e-003 -1.8453e-002  4.7757e-002 26303 103302,103158,103080
 1.5000e+001 103256 -4.9308e-002  1.1329e-002  4.8183e-002 26303 103302,103080,103054
 1.5000e+001 103233 -1.1577e-001 -7.3512e-002  2.1400e-002 26303 103080,103158,103106
 1.5000e+001 103210  1.4814e-001 -2.0694e-003  2.6367e-002 26303 103106,103158,103132
 1.5000e+001 103328  6.1797e-002  1.1480e-002  3.4324e-002 26303 103184,103158,103302
 1.5000e+001 103351 -1.6717e-002  1.3115e-002  4.1080e-002 26303 103184,103302,103054
 1.5000e+001 103501 -1.0818e-001 -3.7465e-001 -8.2722e-003 25849 103374,103426,103400
 1.5000e+001 103478 -1.8774e-001 -3.1440e-001  2.8959e-002 25849 103374,103452,103426
 1.5000e+001 104090  1.1583e-001 -3.2001e-002  1.3878e-001 25445 103793,103871,103819
 1.5000e+001 104067  2.9706e-001  4.6065e-002  6.1019e-002 25445 103793,103949,103871
 1.5000e+001 104044  3.4026e-001  5.6881e-003  1.5529e-001 25445 103871,103949,103923
 1.5000e+001 104021  1.2311e-002  1.9632e-002 -2.8342e-002 25445 103819,103871,103845
 1.5000e+001 103998  3.9718e-001  1.3913e-001  1.6107e-001 25445 103767,103949,103793
 1.5000e+001 103975  3.8439e-001  5.4760e-002  1.7476e-001 25445 103871,103923,103897
 1.5000e+001 104419 -8.1327e-002 -1.0406e-001 -6.3561e-002 25083 104220,104298,104272
 1.5000e+001 104396 -1.8910e-001 -2.6599e-001 -8.9857e-003 25083 104220,104324,104298
 1.5000e+001 104373 -5.4272e-002 -7.2623e-002 -4.8471e-002 25083 104220,104272,104246
 1.5000e+001 104350 -1.6207e-001 -2.9113e-001 -1.3661e-002 25083 104194,104324,104220
 1.5000e+001 105102  9.0113e-002 -1.8385e-001  6.5431e-002 24793 104785,104863,104837
 1.5000e+001 105079  1.1894e-001 -2.4752e-001 -9.6631e-002 24793 104759,104863,104785
 1.5000e+001 105056  9.7099e-002 -2.7420e-002 -9.6275e-002 24793 104759,104915,104863
 1.5000e+001 105033  1.2745e-001 -1.4573e-001 -1.4626e-001 24793 104733,104915,104759
 1.5000e+001 105010  4.0910e-001  1.1671e-001 -1.5346e-001 24793 104863,104915,104889
 1.5000e+001 104987 -3.8260e-002  2.0232e-002 -2.7341e-001 24793 104681,104915,104733
 1.5000e+001 104964  3.8876e-003 -2.5960e-001  2.0151e-002 24793 104785,104837,104811
 1.5000e+001 104941 -1.5365e-002  2.4724e-001 -2.3457e-001 24793 104681,104733,104707
 1.5000e+001 105252  1.1246e+000  4.3055e-001  1.6627e-002 24389 105477,105275,105177
 1.5000e+001 105229  3.6742e-001  3.2668e-002  3.0421e-001 24389 105347,105275,105151
 1.5000e+001 105301  1.0819e+000  2.1739e-001  2.9951e-002 24389 105203,105177,105275
 1.5000e+001 105324  1.4435e+000  9.3659e-001  3.7995e-001 24389 105203,105275,105125
 1.5000e+001 105373  1.1496e+000  5.2252e-001  4.8561e-002 24389 105125,105275,105347
 1.5000e+001 105503  7.8319e-001 -2.5087e-001 -9.9156e-002 24389 105151,105275,105477
 1.5000e+001 106088 -2.4357e-001  2.6375e-001  3.0553e-001 23735 105791,105921,105895
 1.5000e+001 106065 -7.4602e-001  1.4580e-001  4.4729e-001 23735 105765,105921,105791
 1.5000e+001 106042 -8.1378e-002  5.1269e-001  2.8238e-001 23735 105765,105947,105921
 1.5000e+001 106019 -9.6849e-001 -2.2993e-002  3.7261e-001 23735 105817,105895,105869
 1.5000e+001 105996 -6.1031e-001  1.1380e-001  3.8083e-001 23735 105791,105895,105817
 1.5000e+001 105973 -5.6274e-001 -3.1065e-001  4.1930e-001 23735 105817,105869,105843
 1.5000e+001 106417  4.3231e-001  7.6913e-001 -9.5538e-002 23295 106218,106296,106270
 1.5000e+001 106394  4.0160e-001  3.6813e-001 -1.1992e-001 23295 106218,106322,106296
 1.5000e+001 106371  1.9689e-001  2.5666e-001 -1.8181e-001 23295 106218,106270,106244
 1.5000e+001 106348  5.4496e-001  4.2941e-001 -4.5190e-002 23295 106192,106322,106218
 1.5000e+001 106746 -2.2371e-001  2.4079e-001  2.6795e-001 23005 106521,106599,106547
 1.5000e+001 106723  2.8975e-001  7.4599e-001  6.4080e-002 23005 106521,106651,106599
 1.5000e+001 106700  4.4033e-001  1.0505e-001 -1.4660e-001 23005 106547,106599,106573
 1.5000e+001 106677  3.7317e-001  6.3887e-001  3.5335e-001 23005 106599,106651,106625
 1.5000e+001 107331 -1.1524e-001  2.9285e-001 -3.0662e-001 22601 107060,107190,107138
 1.5000e+001 107308 -9.6174e-001  8.7804e-001 -5.8316e-001 22601 107034,107190,107060
 1.5000e+001 107285 -2.0685e+000 -5.4779e-001 -3.6300e-001 22601 107060,107138,107112
 1.5000e+001 107262 -1.3407e+000  1.4705e+000  8.2428e-001 22601 107008,107190,107034
 1.5000e+001 107239  3.0324e-001 -2.8790e+000  1.2867e-001 22601 107060,107112,107086
 1.5000e+001 107216 -1.0784e+000  2.4806e+000  5.3668e-001 22601 107138,107190,107164
 1.5000e+001 107807 -1.1996e-001  9.0099e-002 -2.2778e-002 22031 107974,107902,107617
 1.5000e+001 107784 -1.2665e-001  2.2569e-001 -8.6398e-002 22031 107830,107565,107513
 1.5000e+001 107761 -5.2355e-003  4.8087e-002 -1.0700e-001 22031 108046,107830,107513
 1.5000e+001 107738 -6.8078e-002  1.8970e-001  1.2115e-002 22031 107974,107617,107591
 1.5000e+001 107715 -2.4785e-002  1.2296e-002 -1.1842e-001 22031 108046,107513,107461
 1.5000e+001 107692 -3.8446e-001  2.8827e-001 -1.4327e-001 22031 107513,107565,107539
 1.5000e+001 107669  1.0990e-001  2.0472e-001 -1.8771e-001 22031 107461,107513,107487
 1.5000e+001 107856 -1.8967e-001  1.4541e-001 -4.9009e-002 22031 107902,107565,107830
 1.5000e+001 107879 -5.3934e-002 -6.4885e-002 -1.6762e-003 22031 107643,107830,107435
 1.5000e+001 107928 -3.4380e-001  1.3842e-001 -1.6803e-001 22031 107643,107617,107902
 1.5000e+001 107951 -1.8630e-001  1.3337e-001  2.6094e-002 22031 107643,107902,107830
 1.5000e+001 108000 -1.5127e-001  2.3242e-001 -4.2641e-002 22031 107565,107902,107974
 1.5000e+001 108023 -1.4999e-001  2.0841e-001 -3.7606e-002 22031 107565,107974,107591
 1.5000e+001 108072  4.1671e-002  7.1817e-003 -5.0883e-002 22031 107435,107830,108046
 1.5000e+001 108095  1.5386e-002 -4.9977e-002 -6.4252e-002 22031 107435,108046,107461
 1.5000e+001 108196  7.1127e-002 -8.0335e-002  5.4282e-003 21783 108118,108170,108144
 1.5000e+001 108655  1.4598e-001  8.3243e-001  4.9348e-001 21379 108407,108485,108459
 1.5000e+001 108632  1.7500e+000  3.1170e-001  5.6506e-001 21379 108407,108511,108485
 1.5000e+001 108609  1.7113e+000  7.3000e-001  1.0658e+000 21379 108381,108511,108407
 1.5000e+001 108586  7.1574e-001  1.5280e+000 -2.7789e-002 21379 108381,108537,108511
 1.5000e+001 108563  4.4352e-001  1.1269e-001  2.2554e-001 21379 108407,108459,108433
 1.5000e+001 109082  1.7336e-001 -5.5901e-001 -4.3438e-002 20974 109105,108863,108811
 1.5000e+001 109059 -1.4015e-001 -6.9720e-001 -1.4790e-002 20974 109105,108811,108759
 1.5000e+001 109036  2.6141e-002 -1.5302e+000  1.7838e-001 20974 109177,108889,108863
 1.5000e+001 109013 -9.4967e-002 -5.4107e-001  3.6489e-002 20974 108811,108863,108837
 1.5000e+001 108990  1.5495e-001 -6.7214e-002 -1.2000e-002 20974 108759,108941,108915
 1.5000e+001 108967  8.1326e-002 -5.5770e-002 -4.0136e-003 20974 108759,108811,108785
 1.5000e+001 109131 -1.2019e-001 -1.2000e+000  4.5507e-002 20974 109177,108863,109105
 1.5000e+001 109154  2.7502e-002 -3.9825e-002 -4.1843e-002 20974 108915,109105,108759
 1.5000e+001 109203 -1.0778e-001 -1.2744e+000 -2.5409e-001 20974 108915,108889,109177
 1.5000e+001 109226  3.6052e-002 -4.2595e-001 -3.2438e-001 20974 108915,109177,109105
 1.5000e+001 109496 -2.8062e-001  5.5201e-002 -3.9415e-002 20470 109271,109375,109297
 1.5000e+001 109473 -2.4363e-001  8.7251e-002 -5.4026e-002 20470 109271,109401,109375
 1.5000e+001 109450 -3.4122e-001  2.1678e-003 -6.1969e-002 20470 109297,109375,109349
 1.5000e+001 109427 -5.0565e-001 -3.1006e-001  1.0805e-001 20470 109297,109349,109323
 1.5000e+001 109955  1.1299e-001  4.1794e-001  3.0359e-001 20123 110050,109733,109707
 1.5000e+001 109932 -1.5655e-001  3.1210e-001  2.7124e-001 20123 110050,109707,109681
 1.5000e+001 109909  1.7418e-001  1.7549e-001  2.4228e-001 20123 109978,109759,109733
 1.5000e+001 109886  7.8922e-002  1.5551e-001  2.3517e-001 20123 110122,109978,109733
 1.5000e+001 109863  1.8191e-001  7.2763e-002  2.0936e-001 20123 109785,109837,109811
 1.5000e+001 110004  1.7437e-001  1.9183e-001  2.0534e-001 20123 109785,109759,109978
 1.5000e+001 110027  1.5817e-001  1.7553e-001  1.8650e-001 20123 109785,109978,109837
 1.5000e+001 110076  1.6728e-002  2.3557e-001  1.9708e-001 20123 110122,109733,110050
 1.5000e+001 110099  8.5692e-004  3.6956e-001  1.5123e-001 20123 109837,110050,109681
 1.5000e+001 110148  1.9764e-001  2.6776e-001  1.8836e-001 20123 109837,109978,110122
 1.5000e+001 110171  1.4287e-001  3.3940e-001  1.5002e-001 20123 109837,110122,110050
 1.5000e+001 110500  3.9057e-001 -2.6002e-002  2.2454e-002 19511 110301,110379,110353
 1.5000e+001 110477  9.3507e-001  4.1425e-001 -2.0447e-001 19511 110301,110405,110379
 1.5000e+001 110454  4.0743e-001  1.0436e-001  1.0324e-002 19511 110275,110405,110301
 1.5000e+001 110431  3.5099e-001 -1.0354e-001  4.6568e-002 19511 110301,110353,110327
 1.5000e+001 110957  3.3369e-001  1.2967e+000  2.3926e-001 19107 110683,110735,110709
 1.5000e+001 110934  5.8914e-001  8.8043e-001 -1.0966e-001 19107 110683,110813,110735
 1.5000e+001 110911  1.0610e+000  1.2446e+000  1.5209e-001 19107 110735,110813,110761
 1.5000e+001 110888  1.3851e+000  7.8608e-001  5.8782e-001 19107 110683,110839,110813
 1.5000e+001 110865  1.0899e+000  1.1177e+000 -1.5445e-001 19107 110761,110813,110787
 1.5000e+001 111335  8.4816e-001 -9.8044e-001  4.6358e-001 18653 111087,111165,111139
 1.5000e+001 111312  8.0183e-001 -1.9902e-003  1.9296e-001 18653 111087,111217,111165
 1.5000e+001 111289  1.9392e-001 -3.7514e-001  9.6488e-001 18653 111061,111217,111087
 1.5000e+001 111266  1.4253e+000 -1.1992e+000  1.4710e+000 18653 111087,111139,111113
 1.5000e+001 111243  6.9018e-001 -3.2406e-002 -1.3373e-001 18653 111165,111217,111191
 1.5000e+001 111735 -3.7453e-001 -2.8144e-001  1.1750e-001 18213 111461,111513,111487
 1.5000e+001 111712 -2.1067e-001 -2.8456e-001  5.1981e-002 18213 111461,111617,111513
 1.5000e+001 111689 -1.2821e-001 -8.5043e-002  7.9908e-002 18213 111513,111617,111591
 1.5000e+001 111666 -2.8293e-002 -1.4820e-001  1.0237e-001 18213 111513,111591,111539
 1.5000e+001 111643  1.2110e-001 -3.1080e-002  4.4998e-002 18213 111539,111591,111565
 1.5000e+001 111885 -4.8836e-001 -3.4165e+000 -8.4263e-002 17659 111784,111836,111810
 1.5000e+001 111862 -3.3162e-001 -2.4159e+000  3.2821e-001 17659 111758,111836,111784
 1.5000e+001 112287 -5.0330e-001 -2.6408e+000 -9.2863e-001 17411 112065,112169,112143
 1.5000e+001 112264 -1.5669e+000 -1.0810e+000 -8.3707e-001 17411 112039,112169,112065
 1.5000e+001 112241 -1.1890e+000 -6.0435e-001 -4.0545e-001 17411 112013,112169,112039
 1.5000e+001 112218  3.2044e+000 -1.9298e+000 -9.5985e-001 17411 112091,112143,112117
 1.5000e+001 112195 -5.0531e-002 -2.2768e+000 -2.1858e-001 17411 112065,112143,112091
 1.5000e+001 112508 -2.5792e-001  2.7245e-001  4.1530e-002 17007 112384,112436,112410
 1.5000e+001 112485 -1.5930e-001  3.6850e-001  8.2939e-002 17007 112332,112436,112384
 1.5000e+001 112462 -2.4864e-001  1.9487e-001  5.1158e-002 17007 112332,112384,112358
 1.5000e+001 112658 -6.4177e-001 -4.7447e-001  3.5953e-001 16553 112557,112609,112583
 1.5000e+001 112635 -1.2196e+000 -7.4595e-003  4.9755e-001 16553 112531,112609,112557
 1.5000e+001 112761  1.8348e-001 -8.8609e-001  4.2540e-002 16355 112683,112735,112709
 1.5000e+001 112913 -4.6349e-001  3.4256e-001  3.4168e-002 15949 112786,112838,112812
 1.5000e+001 112890 -1.7541e-001  8.4533e-001 -9.8697e-002 15949 112786,112864,112838
 1.5000e+001 113065  1.0381e-001 -4.1489e-001 -8.8034e-003 15609 112938,112990,112964
 1.5000e+001 113042 -9.5078e-002 -9.7765e-001 -2.8066e-001 15609 112938,113016,112990
 1.5000e+001 113420  4.6874e-001  3.2845e-001  1.1078e-001 15284 113247,113325,113299
 1.5000e+001 113397  4.5349e-001  2.8910e-001  3.8540e-002 15284 113195,113325,113247
 1.5000e+001 113374  3.1664e-001  2.3220e-001  4.2381e-002 15284 113195,113247,113221
 1.5000e+001 113351  3.7751e-001  4.7201e-001  9.8176e-002 15284 113247,113299,113273
 1.5000e+001 113521  1.2780e-001 -1.2458e-001  7.6708e-002 202 113443,113495,113469
 1.5500e+001 65564  2.4809e-002 -2.9007e-002 -5.6141e-003 65155 65414,65466,65440
 1.5500e+001 65541 -2.4220e-002 -3.9248e-002  3.2522e-002 65155 65414,65492,65466
 1.5500e+001 65518 -2.3847e-002 -3.3592e-002  1.4618e-002 65155 65388,65492,65414
 1.5500e+001 65883  1.4947e-001 -7.2848e-001 -1.6682e-002 64957 65635,65739,65713
 1.5500e+001 65860  1.2529e-001 -1.0897e+000 -5.6592e-002 64957 65635,65765,65739
 1.5500e+001 65837 -8.7263e-002 -1.2038e+000 -2.3598e-003 64957 65609,65765,65635
 1.5500e+001 65814  1.3142e-001 -8.8818e-001  2.4500e-001 64957 65635,65713,65687
 1.5500e+001 65791  8.7298e-003 -1.0559e+000  1.5820e-001 64957 65635,65687,65661
 1.5500e+001 65984 -4.8522e-002  3.0620e-002  4.3163e-002 64781 65906,65958,65932
 1.5500e+001 66232 -3.2483e-001 -4.1523e-001  3.7076e-001 64469 66007,66059,66033
 1.5500e+001 66209  5.9973e-002 -4.1797e-001  4.2642e-001 64469 66007,66085,66059
 1.5500e+001 66186 -2.6391e-001 -1.1438e+000  5.6406e-001 64469 66007,66137,66085
 1.5500e+001 66163 -1.4636e-001 -1.4621e+000  1.1880e+000 64469 66085,66137,66111
 1.5500e+001 66504  9.6642e-003 -1.0463e+000  2.3733e-002 64271 66279,66383,66305
 1.5500e+001 66481  1.1409e-001 -1.0448e+000 -3.6383e-002 64271 66279,66409,66383
 1.5500e+001 66458  1.9640e-001 -1.3148e+000  2.5637e-002 64271 66305,66357,66331
 1.5500e+001 66435 -7.5214e-002 -1.1866e+000  6.0722e-002 64271 66305,66383,66357
 1.5500e+001 66705  3.9640e-001 -2.8511e+000  2.3410e-001 64073 66728,66581,66555
 1.5500e+001 66682  3.9584e-001 -2.0356e+000  4.3921e-001 64073 66728,66555,66529
 1.5500e+001 66659  2.1739e-001 -1.7987e+000 -3.3428e-001 64073 66581,66633,66607
 1.5500e+001 66754 -1.1902e-001 -2.0840e+000 -6.2869e-002 64073 66633,66581,66728
 1.5500e+001 66777  8.7375e-002 -1.0128e+000  2.2294e-002 64073 66633,66728,66529
 1.5500e+001 66951 -1.3444e-001 -4.1446e-001 -6.8130e-002 63783 66824,66876,66850
 1.5500e+001 66928  5.0139e-001 -3.5761e-001  1.8660e-001 63783 66824,66902,66876
 1.5500e+001 67201 -5.9955e-001 -1.3853e+000 -1.4423e-001 63585 66976,67080,67054
 1.5500e+001 67178 -1.0625e-001 -1.1971e+000  7.1263e-002 63585 66976,67106,67080
 1.5500e+001 67155  2.0528e-001 -1.6560e+000 -5.8289e-001 63585 66976,67054,67028
 1.5500e+001 67132 -6.7413e-003 -2.1755e+000 -5.2073e-001 63585 66976,67028,67002
 1.5500e+001 67654  7.9693e-002 -8.0303e-001 -1.8340e-002 63295 67357,67487,67383
 1.5500e+001 67631  8.4514e-002 -9.9720e-001  1.1637e-001 63295 67331,67487,67357
 1.5500e+001 67608 -6.0489e-002 -1.1716e+000 -1.8812e-002 63295 67331,67513,67487
 1.5500e+001 67585  9.9837e-004 -1.1891e+000  3.3619e-003 63295 67435,67487,67461
 1.5500e+001 67562 -5.9974e-002 -1.2108e+000  3.7272e-003 63295 67383,67487,67435
 1.5500e+001 67539  2.8267e-002 -1.1186e+000  4.0051e-002 63295 67383,67435,67409
 1.5500e+001 67853 -6.1094e-002 -1.0858e+000  4.3397e-003 62891 67876,67703,67677
 1.5500e+001 67830 -4.1465e-002 -1.1231e+000 -2.0175e-002 62891 67876,67677,67781
 1.5500e+001 67807  2.4206e-002 -9.4743e-001 -7.0522e-002 62891 67948,67729,67703
 1.5500e+001 67902 -2.2292e-002 -1.0671e+000  1.0632e-002 62891 67948,67703,67876
 1.5500e+001 67925 -1.6397e-001 -1.0507e+000  4.1275e-002 62891 67755,67876,67781
 1.5500e+001 67974 -7.3257e-002 -7.8798e-001 -7.4048e-002 62891 67755,67729,67948
 1.5500e+001 67997 -5.3047e-002 -8.4927e-001 -1.0441e-002 62891 67755,67948,67876
 1.5500e+001 68218  6.1001e-002 -3.0819e-002 -8.3100e-002 62693 68042,68120,68068
 1.5500e+001 68195 -2.2377e-003 -2.0110e-002  1.0305e-003 62693 68042,68146,68120
 1.5500e+001 68172 -2.4185e-001  2.0607e-001 -4.3677e-002 62693 68068,68120,68094
 1.5500e+001 68468  2.7306e-001 -4.2535e-002  1.5072e-002 62289 68491,68295,68269
 1.5500e+001 68445  4.6441e-002 -7.2066e-002 -1.3384e-001 62289 68563,68491,68269
 1.5500e+001 68422  6.4267e-002  3.4364e-002 -5.7641e-002 62289 68563,68269,68243
 1.5500e+001 68399 -2.2266e-001 -1.9095e-001  1.5392e-002 62289 68295,68347,68321
 1.5500e+001 68517  1.1698e-001 -2.1026e-001 -6.7601e-002 62289 68347,68295,68491
 1.5500e+001 68540 -2.0820e-001 -7.6963e-002 -2.0967e-001 62289 68347,68491,68373
 1.5500e+001 68589  7.9068e-002  1.3458e-001 -1.1208e-001 62289 68373,68491,68563
 1.5500e+001 68612  4.5173e-002  1.7201e-001 -3.7150e-002 62289 68373,68563,68243
 1.5500e+001 68911 -7.6577e-002 -1.0707e+000 -3.9268e-004 62091 69222,68934,68741
 1.5500e+001 68888  9.8683e-002 -1.0346e+000 -3.9686e-002 62091 69006,68934,68689
 1.5500e+001 68865  1.2586e-001 -1.0196e+000  9.7254e-004 62091 69006,68689,68663
 1.5500e+001 68842 -1.2164e-001 -1.0808e+000 -1.2671e-001 62091 69078,68793,68767
 1.5500e+001 68819 -1.9075e-001 -1.1381e+000  1.5712e-001 62091 69222,68741,68715
 1.5500e+001 68960 -1.7756e-001 -1.0783e+000  1.1096e-002 62091 68767,68741,68934
 1.5500e+001 68983 -5.6560e-002 -1.1237e+000 -3.5235e-002 62091 69078,68767,68934
 1.5500e+001 69032  8.9600e-002 -1.0437e+000 -2.3323e-002 62091 69150,69006,68637
 1.5500e+001 69055  8.2653e-002 -1.0541e+000 -1.5870e-002 62091 68637,69006,68663
 1.5500e+001 69104 -2.9241e-002 -8.6512e-001 -6.5549e-002 62091 68637,68793,69078
 1.5500e+001 69127  6.3092e-002 -1.0086e+000 -8.2250e-003 62091 69150,68637,69078
 1.5500e+001 69176  3.1952e-002 -1.0558e+000 -4.2714e-002 62091 68934,69006,69150
 1.5500e+001 69199 -2.2146e-002 -1.0387e+000 -1.9613e-002 62091 68934,69150,69078
 1.5500e+001 69248 -1.3449e-003 -9.1114e-001 -2.5652e-002 62091 68689,68934,69222
 1.5500e+001 69271 -2.6710e-002 -8.6144e-001  8.5387e-002 62091 68689,69222,68715
 1.5500e+001 69521 -2.8130e-001  1.3650e-001  7.5161e-003 61893 69544,69348,69296
 1.5500e+001 69498 -6.9777e-002  1.7519e-001  4.5467e-002 61893 69544,69296,69400
 1.5500e+001 69475  6.2632e-002  1.8396e-001  2.4723e-002 61893 69296,69426,69400
 1.5500e+001 69452 -2.0140e-001 -4.2048e-001 -1.2313e-001 61893 69296,69348,69322
 1.5500e+001 69570 -1.6985e-001  4.1756e-002  1.7195e-001 61893 69374,69348,69544
 1.5500e+001 69593  2.0341e-001  1.7129e-001  1.9938e-001 61893 69374,69544,69400
 1.5500e+001 70046  6.1729e-002 -8.6030e-001 -9.6225e-003 61467 69749,69905,69879
 1.5500e+001 70023  1.3168e-001 -6.7561e-001  1.9295e-001 61467 69723,69905,69749
 1.5500e+001 70000  4.5584e-002 -9.1829e-001 -2.9784e-002 61467 70069,69827,69775
 1.5500e+001 69977 -1.0447e-001 -1.3089e+000  1.0285e-001 61467 70069,69775,69749
 1.5500e+001 69954 -4.0643e-002 -6.7058e-001 -3.0193e-002 61467 70141,69853,69827
 1.5500e+001 69931  8.0587e-002 -1.1942e+000 -3.5667e-001 61467 69775,69827,69801
 1.5500e+001 70095  6.3319e-003 -7.3664e-001 -7.3045e-002 61467 70141,69827,70069
 1.5500e+001 70118  5.1813e-002 -9.0436e-001 -1.8098e-004 61467 69879,70069,69749
 1.5500e+001 70167  6.1947e-003 -7.7127e-001 -2.6257e-002 61467 69879,69853,70141
 1.5500e+001 70190 -1.6555e-002 -9.2776e-001 -7.0034e-002 61467 69879,70141,70069
 1.5500e+001 70291 -9.7878e-002 -1.5253e+000 -1.7602e-001 61013 70213,70265,70239
 1.5500e+001 70441  6.6066e-002 -3.1157e-002 -1.9543e-001 60651 70340,70392,70366
 1.5500e+001 70418  2.3856e-001 -1.4673e-001 -1.5232e-002 60651 70314,70392,70340
 1.5500e+001 70642  8.4651e-002 -6.7230e-001 -1.9344e-001 60311 70665,70492,70466
 1.5500e+001 70619 -1.3891e-001 -1.2438e+000 -2.7687e-001 60311 70665,70466,70570
 1.5500e+001 70596 -3.3336e+000 -1.4521e-001  3.1368e-001 60311 70492,70544,70518
 1.5500e+001 70691  5.8313e-002 -9.5464e-002  3.9558e-001 60311 70544,70492,70665
 1.5500e+001 70714 -3.0211e-001 -9.6663e-001  3.2527e-001 60311 70544,70665,70570
 1.5500e+001 70964  3.0548e-001 -1.2424e+000  1.4111e-001 59907 70987,70765,70739
 1.5500e+001 70941  2.9809e-001 -1.2822e+000 -4.6439e-002 59907 71059,70987,70739
 1.5500e+001 70918  1.6783e-001 -1.4666e+000  1.0735e-002 59907 71059,70739,70869
 1.5500e+001 70895  1.6404e-001 -1.0768e+000  1.0146e-002 59907 70817,70869,70843
 1.5500e+001 71013  1.2457e+000 -7.8247e-001  5.7354e-001 59907 70791,70765,70987
 1.5500e+001 71036  4.0737e-001 -1.4336e+000  1.8891e-001 59907 70791,70987,70817
 1.5500e+001 71085  1.3964e-001 -1.1734e+000 -3.6007e-002 59907 70817,70987,71059
 1.5500e+001 71108  1.3563e-001 -1.2128e+000 -3.3181e-002 59907 70817,71059,70869
 1.5500e+001 71441 -5.2519e-001 -7.4392e-001  5.6275e-001 59417 71464,71242,71216
 1.5500e+001 71418 -3.5326e-001 -4.5390e-001  8.0840e-001 59417 71464,71216,71320
 1.5500e+001 71395 -5.3641e-001 -4.1107e-001  8.7838e-001 59417 71216,71346,71320
 1.5500e+001 71372 -5.5345e-001 -8.0965e-001  4.2048e-001 59417 71268,71320,71294
 1.5500e+001 71490 -7.3721e-001 -7.9615e-001  2.6036e-001 59417 71268,71242,71464
 1.5500e+001 71513 -6.8215e-001 -4.0610e-001  5.0313e-001 59417 71268,71464,71320
 1.5500e+001 71712  1.4896e+000  1.3665e+000  4.4870e-001 58913 71562,71614,71588
 1.5500e+001 71689  9.0035e-001  1.0247e+000  3.0684e-001 58913 71536,71614,71562
 1.5500e+001 71666  5.2491e-001  2.0123e+000 -1.7052e-001 58913 71536,71640,71614
 1.5500e+001 72171 -9.3008e-001 -2.1519e+000  1.5675e-001 58409 72194,72027,72001
 1.5500e+001 72148 -8.4368e-001 -2.5509e+000 -6.5467e-002 58409 72194,72001,71949
 1.5500e+001 72125 -5.4053e-001 -1.4206e+000  1.0290e-003 58409 71923,72053,71949
 1.5500e+001 72102 -9.3296e-001 -2.4800e+000 -2.1667e-001 58409 71949,72001,71975
 1.5500e+001 72079 -2.4358e-001 -1.0065e+000  3.2769e-001 58409 71897,72053,71923
 1.5500e+001 72220 -7.3385e-001 -1.9976e+000  3.2714e-001 58409 72053,72027,72194
 1.5500e+001 72243 -6.5056e-001 -2.2658e+000  8.7779e-002 58409 72053,72194,71949
 1.5500e+001 72491  8.3898e-001  1.3278e+000  2.9531e-001 57855 72514,72318,72292
 1.5500e+001 72468  1.2279e+000  1.3147e+000  5.2833e-001 57855 72514,72292,72266
 1.5500e+001 72445  7.3826e-001  1.2960e+000  3.9485e-001 57855 72318,72396,72370
 1.5500e+001 72422  5.5376e-001  1.3042e+000  3.0204e-001 57855 72318,72370,72344
 1.5500e+001 72540  7.9637e-001  1.4877e+000  3.9426e-001 57855 72396,72318,72514
 1.5500e+001 72563  8.3347e-001  1.6178e+000  4.7330e-001 57855 72396,72514,72266
 1.5500e+001 72811 -2.8180e-001 -2.2027e+000  1.1497e+000 57401 72612,72690,72638
 1.5500e+001 72788 -2.1807e+000 -3.0052e+000  1.5446e+000 57401 72586,72690,72612
 1.5500e+001 72765  3.6933e+000 -3.8097e+000  1.1545e-001 57401 72638,72690,72664
 1.5500e+001 72742  2.8964e-001 -1.2019e+000  7.1549e-001 57401 72586,72716,72690
 1.5500e+001 73144 -5.2518e-002 -1.0107e+000 -3.0354e-002 57004 72919,72997,72945
 1.5500e+001 73121 -1.3832e-001 -1.2415e+000  4.1070e-002 57004 72919,73049,72997
 1.5500e+001 73098 -1.8340e-001 -8.9486e-001 -1.3159e-001 57004 72945,72997,72971
 1.5500e+001 73075 -1.1043e-001 -1.2114e+000  7.1087e-002 57004 72997,73049,73023
 1.5500e+001 73650 -4.8475e-001 -3.2933e+000  1.7992e-001 56592 73673,73379,73353
 1.5500e+001 73627 -7.3857e-001 -2.5349e+000  1.2587e+000 56592 73673,73353,73327
 1.5500e+001 73604  6.0614e-001 -1.7688e+000  1.0707e+000 56592 73745,73509,73483
 1.5500e+001 73581  1.0382e+000 -1.8941e+000  5.1762e-001 56592 73379,73457,73405
 1.5500e+001 73558  1.5120e+000 -1.9601e+000  1.0563e+000 56592 73379,73483,73457
 1.5500e+001 73535  2.3368e+000 -1.1090e+000  8.4873e-001 56592 73405,73457,73431
 1.5500e+001 73699  3.0097e-002 -2.5161e+000  7.4855e-001 56592 73483,73379,73673
 1.5500e+001 73722  5.1907e-001 -2.4638e+000  1.3214e+000 56592 73745,73483,73673
 1.5500e+001 73771  3.2082e-001 -3.7135e-001  6.0499e-001 56592 73327,73509,73745
 1.5500e+001 73794 -1.0612e-001 -1.2165e+000  1.0294e+000 56592 73327,73745,73673
 1.5500e+001 74123  3.1040e-001  2.2930e-001 -5.7561e-001 56152 74146,74002,73924
 1.5500e+001 74100  5.1119e-001  2.0186e-001 -4.5548e-001 56152 74146,73924,73898
 1.5500e+001 74077  1.2081e+000  6.9556e-001 -8.0877e-001 56152 73924,74002,73976
 1.5500e+001 74054  6.0734e-001 -6.6530e-001  3.5339e-001 56152 73924,73976,73950
 1.5500e+001 74172  1.2962e-001  4.6558e-001 -4.5435e-001 56152 74028,74002,74146
 1.5500e+001 74195  4.2112e-001  3.5703e-001 -3.3374e-001 56152 74028,74146,73898
 1.5500e+001 74345  1.5039e+000 -1.4156e-001 -7.2706e-001 55634 74218,74270,74244
 1.5500e+001 74322  1.1414e-001 -3.1085e-001 -3.4355e-001 55634 74218,74296,74270
 1.5500e+001 74823 -1.3301e-001 -2.6451e+000  4.8342e-001 55016 74918,74846,74581
 1.5500e+001 74800 -4.9104e-001 -2.7403e+000  1.6526e-001 55016 74846,74477,74633
 1.5500e+001 74777 -8.1719e-001 -3.2799e+000  7.4619e-001 55016 74918,74581,74555
 1.5500e+001 74754 -8.6228e-001 -2.3594e+000  2.9277e-001 55016 74990,74503,74477
 1.5500e+001 74731 -4.4310e-001 -3.1978e+000 -5.6655e-001 55016 74451,74633,74477
 1.5500e+001 74708 -1.3579e+000 -2.2354e+000 -8.7987e-001 55016 74451,74659,74633
 1.5500e+001 74685 -1.8895e+000 -1.5952e+000  1.6231e+000 55016 74503,74555,74529
 1.5500e+001 74872 -4.6690e-001 -3.4747e+000  4.2808e-001 55016 74607,74581,74846
 1.5500e+001 74895 -2.9368e-001 -3.0148e+000  2.5408e-001 55016 74607,74846,74633
 1.5500e+001 74944 -1.0645e+000 -3.0872e+000  3.2896e-001 55016 74477,74846,74918
 1.5500e+001 74967 -8.6061e-001 -2.4835e+000  3.6220e-001 55016 74990,74477,74918
 1.5500e+001 75016 -8.6945e-001 -2.3349e+000  7.0282e-001 55016 74555,74503,74990
 1.5500e+001 75039 -9.9108e-001 -2.7302e+000  7.5973e-001 55016 74555,74990,74918
 1.5500e+001 75287 -8.7434e-001 -6.3474e+000  9.6612e-001 54726 75310,75140,75114
 1.5500e+001 75264 -1.3933e+000 -5.3638e+000  6.6168e-001 54726 75310,75114,75088
 1.5500e+001 75241  1.9480e-001 -4.3257e+000  1.3226e-001 54726 75088,75192,75166
 1.5500e+001 75218 -7.6316e-001 -9.5051e-001  8.5208e-001 54726 75062,75192,75088
 1.5500e+001 75336 -1.4215e-001 -5.7398e+000  4.4521e-001 54726 75166,75140,75310
 1.5500e+001 75359 -1.1843e+000 -4.8677e+000  3.6642e-001 54726 75166,75310,75088
 1.5500e+001 75946 -1.2451e-001 -4.8859e-001 -1.6945e-001 54322 75969,75701,75649
 1.5500e+001 75923  1.3179e-001 -3.6497e-001 -2.1471e-001 54322 75969,75649,75623
 1.5500e+001 75900 -2.6952e-002 -3.5206e-001 -2.6933e-002 54322 76041,75753,75701
 1.5500e+001 75877 -7.1516e-002 -7.8764e-001 -3.7822e-002 54322 75623,75805,75779
 1.5500e+001 75854 -5.8686e-002 -4.4390e-001  1.7258e-001 54322 75701,75753,75727
 1.5500e+001 75831 -4.7452e-003 -1.4485e-001 -6.3851e-002 54322 75649,75701,75675
 1.5500e+001 75995  6.3969e-002 -4.0162e-001 -1.0222e-001 54322 76041,75701,75969
 1.5500e+001 76018  7.6835e-002 -5.2327e-001 -1.1443e-001 54322 75779,75969,75623
 1.5500e+001 76067 -8.4442e-002 -4.8363e-001  6.6676e-003 54322 75779,75753,76041
 1.5500e+001 76090 -1.8948e-002 -5.7843e-001 -6.8046e-002 54322 75779,76041,75969
 1.5500e+001 76468 -2.3196e-002 -5.1911e-001 -7.0105e-002 53868 76491,76272,76220
 1.5500e+001 76445  6.5748e-002 -5.3615e-001 -2.3082e-002 53868 76491,76220,76324
 1.5500e+001 76422 -2.3372e-002 -7.1616e-001 -9.2610e-002 53868 76220,76272,76246
 1.5500e+001 76399  1.1258e-001 -5.7843e-001 -4.4156e-002 53868 76194,76324,76220
 1.5500e+001 76376  5.4366e-001 -4.0553e-001  6.8844e-002 53868 76194,76350,76324
 1.5500e+001 76517  2.6850e-002 -4.8027e-001 -1.9706e-002 53868 76298,76272,76491
 1.5500e+001 76540  1.1555e-001 -5.0898e-001  2.3236e-002 53868 76298,76491,76324
 1.5500e+001 76690  7.2436e-003 -6.8663e-001  6.9108e-002 53356 76589,76641,76615
 1.5500e+001 76667 -1.9678e-001 -8.8010e-001 -1.9431e-002 53356 76563,76641,76589
 1.5500e+001 76938  1.9146e-001  3.8284e-001  9.4542e-002 53009 77105,76961,76765
 1.5500e+001 76915 -7.1107e-002 -1.5288e+000 -6.0002e-001 53009 76961,76713,76843
 1.5500e+001 76892 -2.4267e-001 -7.0863e-001  6.7305e-002 53009 77033,76817,76791
 1.5500e+001 76869  5.5255e-001  1.7562e+000 -9.9598e-002 53009 77105,76765,76739
 1.5500e+001 76987 -2.6076e-001 -6.5502e-001 -1.7528e-001 53009 76791,76765,76961
 1.5500e+001 77010 -1.9539e-001 -4.1394e-001 -2.0762e-001 53009 77033,76791,76961
 1.5500e+001 77059  2.0429e-001 -4.5806e-001 -1.9529e-001 53009 76843,76817,77033
 1.5500e+001 77082  1.6003e-001 -3.3510e-001 -4.5212e-001 53009 76843,77033,76961
 1.5500e+001 77131  8.1934e-001 -8.5526e-003 -1.0199e+000 53009 76713,76961,77105
 1.5500e+001 77154  1.0030e+000  5.0425e-001 -1.2343e+000 53009 76713,77105,76739
 1.5500e+001 77355  5.6122e-001 -4.1211e+000  4.8054e-001 52390 77378,77257,77231
 1.5500e+001 77332  6.9404e-001 -5.2667e+000  6.5729e-001 52390 77378,77231,77179
 1.5500e+001 77309  1.3833e+000 -3.8895e+000  4.1607e-001 52390 77179,77231,77205
 1.5500e+001 77404  8.4337e-001 -5.0427e+000  1.0563e+000 52390 77283,77257,77378
 1.5500e+001 77427  7.5544e-001 -6.5780e+000  1.1418e+000 52390 77283,77378,77179
 1.5500e+001 77677 -1.1468e+000  1.2804e+000 -1.4926e+000 51986 77700,77504,77478
 1.5500e+001 77654 -2.2502e-001  1.2355e+000 -1.3210e+000 51986 77700,77478,77452
 1.5500e+001 77631  4.0056e-001  1.1999e+000 -1.3949e+000 51986 77772,77556,77530
 1.5500e+001 77608  3.4932e+000  2.2227e+000 -2.2688e+000 51986 77452,77582,77556
 1.5500e+001 77726 -3.6981e-001  1.6213e+000 -9.7097e-001 51986 77530,77504,77700
 1.5500e+001 77749  3.6050e-001  1.1828e+000 -1.1228e+000 51986 77772,77530,77700
 1.5500e+001 77798  8.7016e-002  1.0466e+000 -1.3086e+000 51986 77452,77556,77772
 1.5500e+001 77821 -7.8789e-002  1.0369e+000 -1.0753e+000 51986 77452,77772,77700
 1.5500e+001 78282 -1.0438e+000 -3.0251e+000  1.3608e-001 51738 78008,78138,78060
 1.5500e+001 78259 -1.0547e+000 -3.8369e+000  2.3646e+000 51738 78008,78164,78138
 1.5500e+001 78236 -6.5367e-001 -1.6705e+000  8.0745e-001 51738 78086,78138,78112
 1.5500e+001 78213 -6.5298e-001 -1.3978e+000  6.9948e-001 51738 78060,78138,78086
 1.5500e+001 78190  9.0663e-002 -4.4081e+000 -5.6736e-001 51738 78008,78060,78034
 1.5500e+001 78432  2.2357e-001 -4.2239e-001  2.1922e-002 51148 78305,78357,78331
 1.5500e+001 78409  1.4287e-001 -3.0483e-001  2.7451e-002 51148 78305,78383,78357
 1.5500e+001 78891 -1.2127e-001 -5.8845e-001 -6.3405e-002 50808 78914,78695,78669
 1.5500e+001 78868 -4.6710e-002 -4.0165e-001 -3.5965e-002 50808 78914,78669,78643
 1.5500e+001 78845 -5.8287e-002 -5.3676e-001 -3.1518e-001 50808 78643,78773,78747
 1.5500e+001 78822 -2.8586e-002 -5.7503e-001 -2.9987e-001 50808 78617,78773,78643
 1.5500e+001 78799 -2.9159e-001 -5.9757e-001 -1.2498e-001 50808 78695,78747,78721
 1.5500e+001 78940 -1.9770e-001 -4.6239e-001 -1.9057e-001 50808 78747,78695,78914
 1.5500e+001 78963 -1.2516e-001 -3.5766e-001 -1.5792e-001 50808 78747,78914,78643
 1.5500e+001 79260  8.2775e-002 -5.6376e-001 -3.7978e-002 50468 79283,79090,79012
 1.5500e+001 79237  2.6506e-001 -5.3205e-001  1.5927e-002 50468 79283,79012,78986
 1.5500e+001 79214 -1.0873e-001 -6.4787e-001 -6.2084e-002 50468 79012,79090,79038
 1.5500e+001 79191  1.2364e-001 -4.6614e-001  1.0488e-001 50468 78986,79142,79116
 1.5500e+001 79168 -1.5951e-002 -6.4546e-001 -9.6508e-002 50468 79038,79090,79064
 1.5500e+001 79309 -1.1486e-001 -5.0970e-001 -5.8634e-002 50468 79116,79090,79283
 1.5500e+001 79332  1.1372e-001 -4.3182e-001  1.2157e-002 50468 79116,79283,78986
 1.5500e+001 79889  8.0639e-001  1.1244e+000 -4.9321e-001 50064 79569,79725,79699
 1.5500e+001 79866  9.2797e-001  1.1814e+000 -4.1018e-001 50064 79543,79725,79569
 1.5500e+001 79843  8.5574e-001  6.9597e-001 -5.5147e-001 50064 79621,79699,79673
 1.5500e+001 79820  1.0866e+000  1.2125e+000 -8.4405e-001 50064 79595,79699,79621
 1.5500e+001 79797  1.5935e+000  1.3391e+000 -6.4490e-001 50064 79569,79699,79595
 1.5500e+001 79774  4.0379e-001  1.2077e+000 -2.2774e-001 50064 79517,79725,79543
 1.5500e+001 79751  4.8926e-001  7.1034e-001 -5.8853e-001 50064 79621,79673,79647
 1.5500e+001 80169  1.0524e+000  1.5438e+000 -6.8570e-001 49724 80019,80097,80071
 1.5500e+001 80146  9.6584e-001  1.9367e+000 -7.8069e-001 49724 79993,80097,80019
 1.5500e+001 80123  7.0737e-001  1.4512e+000 -8.1753e-001 49724 80019,80071,80045
 1.5500e+001 80626  1.3256e-001  3.2736e-001  2.4364e-001 49277 80352,80482,80378
 1.5500e+001 80603 -2.3487e-001  2.1685e-001 -2.7721e-002 49277 80352,80508,80482
 1.5500e+001 80580 -1.4236e-001 -4.0217e-001  5.3351e-002 49277 80378,80482,80456
 1.5500e+001 80557 -1.1266e-001 -7.3865e-001  3.4929e-001 49277 80378,80430,80404
 1.5500e+001 80534 -3.0370e-002 -3.0896e-001  2.6139e-001 49277 80378,80456,80430
 1.5500e+001 81230  7.5636e-001 -4.1448e-001  2.2261e-001 48716 81253,80835,80809
 1.5500e+001 81207  6.6695e-001 -4.0448e-001  6.0439e-001 48716 81397,81253,80809
 1.5500e+001 81184  1.1133e-001  2.5525e-001 -8.4655e-003 48716 81325,80913,80887
 1.5500e+001 81161 -1.2016e-001 -4.7701e-001  7.8450e-001 48716 81397,80809,81017
 1.5500e+001 81138 -1.2540e-001  4.5036e-001 -8.5545e-002 48716 81469,80965,80913
 1.5500e+001 81115 -1.3429e-001 -6.8568e-001  2.8282e-001 48716 80835,80887,80861
 1.5500e+001 81092  8.7461e-001 -5.1293e-001  1.4815e+000 48716 80809,81043,81017
 1.5500e+001 81069  6.4854e-002  2.6876e-001 -2.4362e-001 48716 80913,80965,80939
 1.5500e+001 81279  2.7273e-001 -4.1688e-001  4.3025e-002 48716 80887,80835,81253
 1.5500e+001 81302  9.2842e-002  2.5482e-001  1.2238e-002 48716 81325,80887,81253
 1.5500e+001 81351  1.6793e-001  3.6443e-001  2.7336e-002 48716 81469,80913,81325
 1.5500e+001 81374  2.9721e-002  5.4294e-001  1.6320e-001 48716 80991,81325,81253
 1.5500e+001 81423 -4.7688e-001  2.1336e-002  6.9235e-001 48716 80991,81253,81397
 1.5500e+001 81446 -1.3689e+000 -1.7822e-001  9.4722e-001 48716 80991,81397,81017
 1.5500e+001 81495 -5.9044e-001  4.0459e-001 -6.4695e-002 48716 80991,80965,81469
 1.5500e+001 81518 -3.5535e-001  2.7494e-001  4.6363e-002 48716 80991,81469,81325
 1.5500e+001 81717 -3.8772e-002 -5.8101e-001  7.0890e-002 48262 81740,81567,81541
 1.5500e+001 81694 -1.7044e-001 -5.8186e-001  1.6328e-002 48262 81740,81541,81645
 1.5500e+001 81671 -1.1890e-001 -6.2879e-001 -2.0335e-002 48262 81567,81619,81593
 1.5500e+001 81766 -1.2162e-001 -5.9020e-001 -5.9592e-003 48262 81619,81567,81740
 1.5500e+001 81789 -2.6485e-001 -6.2145e-001 -7.0033e-002 48262 81619,81740,81645
 1.5500e+001 81939  9.9884e-001  1.1329e+000 -4.4232e-001 47957 82034,81962,81864
 1.5500e+001 81916  7.5562e-001  8.1458e-001 -1.1316e-001 47957 82166,81962,81838
 1.5500e+001 81988 -4.7238e-001  1.0413e+000 -4.8563e-001 47957 82294,81962,81890
 1.5500e+001 82011  6.9227e-001  1.7606e+000  3.3792e-001 47957 81890,81962,81812
 1.5500e+001 82060  8.9328e-001  1.5984e+000  3.0146e-002 47957 81838,81962,82034
 1.5500e+001 82192  1.0160e+000  9.6941e-001  3.4155e-001 47957 81812,81962,82166
 1.5500e+001 82320  7.6898e-002  1.0950e+000 -6.0357e-001 47957 81864,81962,82294
 1.5500e+001 82549  2.7717e-002 -6.4481e-001 -1.7000e-001 47617 82448,82500,82474
 1.5500e+001 82526  3.1653e-001 -8.3126e-001  3.1347e-003 47617 82422,82500,82448
 1.5500e+001 82902 -2.9876e-001 -1.1655e+000  7.5939e-002 47255 82729,82807,82755
 1.5500e+001 82879 -7.2278e-002 -2.2098e+000  3.3780e-001 47255 82703,82807,82729
 1.5500e+001 82856 -8.7555e-001 -1.3446e+000  6.7591e-001 47255 82755,82807,82781
 1.5500e+001 82833  1.1488e+000 -1.6867e+000  4.6071e-001 47255 82677,82807,82703
 1.5500e+001 83182  3.5625e-001 -9.3929e-001  1.8690e-001 46680 83032,83084,83058
 1.5500e+001 83159  4.9787e-001 -3.6670e-001  1.9169e-001 46680 83205,83084,83032
 1.5500e+001 83136  7.4672e-001 -1.3302e-001 -3.2537e-002 46680 83006,83110,83084
 1.5500e+001 83231  2.9967e-001 -4.8365e-001  1.4346e-001 46680 83006,83084,83205
 1.5500e+001 83737 -7.5668e-001 -3.2952e-001  1.5413e-002 46290 83832,83760,83492
 1.5500e+001 83714 -5.9968e-001 -2.9928e-002 -1.2035e-001 46290 83760,83440,83414
 1.5500e+001 83691 -4.7429e-001 -5.0789e-001 -3.5926e-002 46290 83832,83492,83466
 1.5500e+001 83668 -6.4024e-001 -1.0667e+000  2.0194e-001 46290 83492,83570,83544
 1.5500e+001 83645 -5.6385e-001 -2.1348e-001 -2.7675e-001 46290 83414,83596,83570
 1.5500e+001 83622 -7.7579e-001 -8.0485e-001  4.2103e-001 46290 83492,83544,83518
 1.5500e+001 83786 -7.7727e-001 -3.1516e-001  4.2953e-002 46290 83570,83492,83760
 1.5500e+001 83809 -7.2842e-001 -4.4307e-001 -1.5045e-001 46290 83570,83760,83414
 1.5500e+001 83858 -3.9356e-001 -1.3324e-001  1.1272e-001 46290 83440,83760,83832
 1.5500e+001 83881  1.1675e-001 -2.5347e-001 -2.7903e-003 46290 83440,83832,83466
 1.5500e+001 84161 -1.5764e-001 -8.3148e-001  3.6733e-001 45829 84011,84063,84037
 1.5500e+001 84138  3.4234e-002 -4.9532e-001  1.1338e-001 45829 84011,84089,84063
 1.5500e+001 84115  3.2450e-002 -4.9367e-001  1.6078e-001 45829 83985,84089,84011
 1.5500e+001 84311  1.6702e-001  7.3659e-002  9.7335e-002 45631 84184,84236,84210
 1.5500e+001 84288 -1.4517e-001 -9.5874e-001 -6.4027e-002 45631 84184,84262,84236
 1.5500e+001 84657 -6.9272e-002 -5.0093e-001 -1.7523e-002 45155 84680,84490,84412
 1.5500e+001 84634 -1.3677e-001 -4.5577e-001 -1.6996e-003 45155 84680,84412,84360
 1.5500e+001 84611 -1.2153e-001 -5.3535e-001  1.8183e-002 45155 84412,84490,84438
 1.5500e+001 84588  4.3922e-002 -3.4932e-001 -3.7089e-002 45155 84334,84516,84360
 1.5500e+001 84565 -1.7344e-001 -5.3099e-001 -1.2540e-001 45155 84360,84412,84386
 1.5500e+001 84542 -9.6650e-002 -4.3645e-001  7.4514e-002 45155 84438,84490,84464
 1.5500e+001 84706 -4.1394e-002 -4.6368e-001 -3.0785e-002 45155 84516,84490,84680
 1.5500e+001 84729 -9.2329e-002 -4.0497e-001 -2.2184e-002 45155 84516,84680,84360
 1.5500e+001 85077  2.0481e-001 -1.9414e-001  6.2276e-002 44508 85100,84754,84910
 1.5500e+001 85054  2.2021e-001  1.3649e-001  1.1055e-001 44508 84754,84936,84910
 1.5500e+001 85031  5.8637e-002 -3.4719e-001  2.1072e-001 44508 85100,84910,84884
 1.5500e+001 85008 -1.3048e-001 -4.0459e-001  1.0970e-001 44508 84780,84884,84832
 1.5500e+001 84985  1.2383e-001  5.8873e-002 -1.0782e-001 44508 84780,84832,84806
 1.5500e+001 84962  6.6000e-001  1.5263e-001 -1.3573e-001 44508 84832,84884,84858
 1.5500e+001 85126  8.5048e-002  4.0776e-002 -5.0981e-002 44508 84780,84754,85100
 1.5500e+001 85149 -2.4897e-002 -1.1408e-001  8.4660e-002 44508 84780,85100,84884
 1.5500e+001 85482 -4.1880e-001 -6.9917e-001 -4.6670e-003 44104 85335,85387,85361
 1.5500e+001 85459 -3.6098e-001 -1.0500e+000  3.6792e-002 44104 85309,85387,85335
 1.5500e+001 85436 -1.5944e-001 -8.2677e-001  1.6849e-001 44104 85257,85387,85309
 1.5500e+001 85413 -2.9309e-001 -1.4306e+000  1.0634e-001 44104 85257,85309,85283
 1.5500e+001 85811 -8.4661e-002 -3.4391e-001 -2.7643e-002 43600 85586,85664,85612
 1.5500e+001 85788 -1.5816e-001 -4.3631e-001  1.4711e-002 43600 85586,85690,85664
 1.5500e+001 85765  5.7005e-002 -3.4549e-001 -2.1077e-002 43600 85586,85716,85690
 1.5500e+001 85742 -2.9468e-002 -3.3229e-001 -1.0697e-002 43600 85612,85664,85638
 1.5500e+001 86010  6.1789e-003 -4.0428e-001 -6.9646e-002 43224 85886,85938,85912
 1.5500e+001 85987  1.0844e-001 -3.9530e-002 -1.1067e-001 43224 85834,85938,85886
 1.5500e+001 85964 -2.5248e-001 -4.4096e-001  4.3727e-002 43224 85834,85886,85860
 1.5500e+001 86420  1.8612e+000  9.6095e-001 -2.8724e-001 42820 86195,86299,86221
 1.5500e+001 86397  1.4044e+000  8.9150e-001 -9.2506e-001 42820 86195,86325,86299
 1.5500e+001 86374  1.2402e+000  1.1489e+000  1.1718e-003 42820 86221,86299,86273
 1.5500e+001 86351  1.1129e+000  6.4789e-001  9.7843e-002 42820 86221,86273,86247
 1.5500e+001 86749  3.8928e-001 -2.6382e-001 -1.0285e-001 42223 86550,86602,86576
 1.5500e+001 86726  1.1134e+000 -5.7214e-001  3.9703e-002 42223 86550,86628,86602
 1.5500e+001 86703  8.5941e-002 -9.2986e-001  3.2164e-001 42223 86524,86628,86550
 1.5500e+001 86680  6.2827e-001 -7.7926e-003  9.3640e-002 42223 86524,86654,86628
 1.5500e+001 87078  5.9656e-001 -2.8330e-001  2.3274e-001 41883 87173,87101,86905
 1.5500e+001 87055  4.6467e-001  3.9008e-001 -2.0647e-002 41883 87101,86879,86853
 1.5500e+001 87032  8.6360e-002 -1.1245e-002  1.8596e-002 41883 86853,86983,86931
 1.5500e+001 87009 -1.5134e-002 -4.3949e-001  1.4796e-001 41883 86931,86983,86957
 1.5500e+001 87127  7.1509e-001 -1.4774e-001  1.8426e-002 41883 86931,86905,87101
 1.5500e+001 87150  1.8316e-001 -2.6664e-001 -2.4331e-002 41883 86931,87101,86853
 1.5500e+001 87199  1.3149e-001 -2.3668e-001  2.1353e-001 41883 86879,87101,87173
 1.5500e+001 87558 -3.2929e-002  3.5706e-001 -7.1631e-002 41471 87382,87460,87408
 1.5500e+001 87535 -6.1600e-001 -2.4453e-002 -2.3638e-001 41471 87382,87486,87460
 1.5500e+001 87512 -1.5737e-001  4.1241e-001 -1.3189e-001 41471 87408,87460,87434
 1.5500e+001 87806  1.4941e-001 -2.8280e-001  6.7828e-002 41017 87829,87607,87581
 1.5500e+001 87783  1.0745e-001 -4.0649e-001  9.7376e-002 41017 87829,87581,87685
 1.5500e+001 87760  2.9673e-001 -1.6198e-001  1.2970e-002 41017 87581,87711,87685
 1.5500e+001 87737  3.2030e-001 -8.0381e-001  4.2495e-002 41017 87633,87685,87659
 1.5500e+001 87855  1.4595e-001 -3.2424e-001  1.6167e-001 41017 87633,87607,87829
 1.5500e+001 87878  9.5457e-002 -4.5472e-001  1.9360e-001 41017 87633,87829,87685
 1.5500e+001 88258 -1.9037e-002 -1.3005e-002  7.0048e-003 40613 88281,88036,88010
 1.5500e+001 88235 -2.2990e-003  2.0141e-003 -1.3458e-004 40613 88281,88010,88088
 1.5500e+001 88212  5.1705e-003 -1.9718e-003  4.1685e-003 40613 87984,88088,88010
 1.5500e+001 88189  9.1079e-003  1.1559e-002 -1.0574e-002 40613 87984,88114,88088
 1.5500e+001 88166  2.9741e-002  7.5308e-003 -1.1077e-002 40613 87984,88140,88114
 1.5500e+001 88307 -1.7035e-003 -2.8349e-002 -8.6858e-003 40613 88062,88036,88281
 1.5500e+001 88330  2.8389e-002  6.1134e-003 -2.1521e-002 40613 88062,88281,88088
 1.5500e+001 88649 -4.4303e-003 -3.3572e-002  1.6012e-003 40095 88375,88505,88401
 1.5500e+001 88626 -1.4719e-002 -2.3048e-002 -4.2659e-003 40095 88375,88531,88505
 1.5500e+001 88603  8.2418e-005 -4.4091e-002 -4.4913e-003 40095 88401,88505,88479
 1.5500e+001 88580  9.9355e-002  4.0461e-002  8.1481e-002 40095 88427,88479,88453
 1.5500e+001 88557  1.1362e-002 -6.6950e-002 -5.7488e-003 40095 88401,88479,88427
 1.5500e+001 89078  1.1716e+000 -6.9570e-002 -7.6067e-002 39897 89101,88833,88807
 1.5500e+001 89055  7.5396e-001 -4.9262e-001 -2.8221e-001 39897 89101,88807,88911
 1.5500e+001 89032  8.7908e-001  3.0079e-002 -2.7592e-001 39897 88781,88911,88807
 1.5500e+001 89009  5.9355e-002 -5.7235e-001 -6.8012e-001 39897 88781,88937,88911
 1.5500e+001 88986  2.1428e+000  3.9602e-001 -3.3393e-001 39897 88833,88885,88859
 1.5500e+001 88963  6.5222e-001  7.9342e-002 -4.0100e-001 39897 88755,88937,88781
 1.5500e+001 89127  1.5969e+000 -5.9128e-001 -5.6172e-001 39897 88885,88833,89101
 1.5500e+001 89150  8.4245e-001 -1.2539e+000 -8.5713e-001 39897 88885,89101,88911
 1.5500e+001 89300 -7.1096e-001 -9.7088e-001  1.6661e-001 39607 89453,89323,89199
 1.5500e+001 89277 -1.1423e+000 -8.0628e-001  7.1105e-002 39607 89525,89453,89199
 1.5500e+001 89349 -6.8997e-001 -9.8729e-001 -6.0877e-002 39607 89225,89199,89323
 1.5500e+001 89479 -8.0039e-001 -5.8832e-001  1.7620e-001 39607 89251,89323,89453
 1.5500e+001 89502 -4.3792e-001 -2.2415e-001  4.4604e-001 39607 89251,89453,89173
 1.5500e+001 89551 -1.3821e-001 -4.3528e-001  5.4119e-002 39607 89173,89453,89525
 1.5500e+001 90264 -6.4959e-001 -1.7149e+000 -1.2013e-001 39039 89996,90074,90048
 1.5500e+001 90241 -3.7495e-001 -7.4752e-001 -9.2915e-002 39039 89918,90074,89996
 1.5500e+001 90218 -5.4264e-001 -9.5395e-001 -1.6224e-002 39039 89918,89996,89944
 1.5500e+001 90195 -4.6738e-001 -7.7215e-001 -7.4363e-002 39039 89892,90074,89918
 1.5500e+001 90172  9.4390e-002 -1.7400e+000 -2.1016e-001 39039 89996,90048,90022
 1.5500e+001 90149 -1.0676e+000  3.4021e-001 -9.7275e-002 39039 89892,90100,90074
 1.5500e+001 90126 -8.5180e-001 -1.0921e+000  9.1297e-002 39039 89944,89996,89970
 1.5500e+001 90770 -8.9386e-002 -4.1424e-001  1.4635e-002 38635 90473,90603,90577
 1.5500e+001 90747 -3.4442e-003 -3.6388e-001 -1.8317e-002 38635 90447,90603,90473
 1.5500e+001 90724 -7.9398e-003 -4.3567e-001 -4.6528e-002 38635 90499,90577,90551
 1.5500e+001 90701 -1.4620e-001 -5.4422e-001  4.4085e-002 38635 90473,90577,90499
 1.5500e+001 90678 -6.9364e-002 -6.2561e-001 -8.0070e-003 38635 90499,90551,90525
 1.5500e+001 90655 -1.8575e-001 -4.1659e-001  5.0865e-002 38635 90447,90629,90603
 1.5500e+001 90871 -7.8648e-003 -3.7866e-001 -9.5580e-002 38231 90793,90845,90819
 1.5500e+001 91458 -1.1010e-002 -2.1492e-001 -7.2383e-003 37534 91161,91317,91291
 1.5500e+001 91435 -1.8811e-001 -1.3705e-001  6.4203e-002 37534 91135,91317,91161
 1.5500e+001 91412 -3.1449e-001 -1.1094e+000 -2.2597e-001 37534 91187,91291,91239
 1.5500e+001 91389 -8.0774e-002 -1.0952e+000  1.2506e-001 37534 91161,91291,91187
 1.5500e+001 91366 -7.2257e-002 -8.3990e-001 -1.1841e-001 37534 91239,91291,91265
 1.5500e+001 91343  4.1741e-001 -1.2007e+000 -5.3988e-001 37534 91187,91239,91213
 1.5500e+001 91915 -2.8729e-001 -8.5355e-001  1.5126e-001 37080 91938,91745,91667
 1.5500e+001 91892  1.6605e-002 -8.0523e-001  5.2064e-002 37080 91938,91667,91797
 1.5500e+001 91869  2.1676e-001 -3.1056e-001  1.0718e-001 37080 91641,91797,91667
 1.5500e+001 91846 -2.7370e-001 -9.5849e-001  3.5827e-002 37080 91667,91719,91693
 1.5500e+001 91823 -1.8383e-001 -7.2212e-001  9.5324e-002 37080 91667,91745,91719
 1.5500e+001 91964 -4.4096e-001 -9.8259e-001  4.1810e-001 37080 91771,91745,91938
 1.5500e+001 91987 -1.3806e-001 -8.2454e-001  2.8290e-001 37080 91771,91938,91797
 1.5500e+001 92235 -1.5761e-001 -3.9916e-001 -2.2805e-002 36397 92036,92088,92062
 1.5500e+001 92212 -9.7690e-002 -3.7767e-001 -4.6573e-002 36397 92036,92114,92088
 1.5500e+001 92189 -1.0754e-003 -3.0083e-001  1.1684e-002 36397 92036,92140,92114
 1.5500e+001 92166  7.9665e-003 -4.0970e-001 -1.5300e-002 36397 92010,92140,92036
 1.5500e+001 92694  1.4883e-001  2.7573e-003 -2.6969e-002 36057 92446,92498,92472
 1.5500e+001 92671  1.8277e-001 -3.1492e-002  6.0615e-002 36057 92446,92550,92498
 1.5500e+001 92648 -5.4860e-002 -3.9509e-001  1.7030e-001 36057 92446,92576,92550
 1.5500e+001 92625  1.3959e-001 -8.0640e-003 -3.0239e-001 36057 92420,92576,92446
 1.5500e+001 92602  3.0803e-002  1.5153e-002  1.7382e-001 36057 92498,92550,92524
 1.5500e+001 93023 -1.4822e-001 -3.4860e-001 -3.3761e-002 35717 92876,92928,92902
 1.5500e+001 93000 -1.1373e-001 -3.8555e-001 -4.8123e-002 35717 92824,92928,92876
 1.5500e+001 92977 -9.6449e-003 -3.8553e-001 -1.3258e-002 35717 92798,92928,92824
 1.5500e+001 92954 -1.5688e-001 -5.2952e-001 -1.0698e-001 35717 92824,92876,92850
 1.5500e+001 93499  3.8290e-001 -4.3688e-001  2.4663e-001 35405 93522,93309,93257
 1.5500e+001 93476  4.0105e-001 -3.9834e-001  2.3849e-001 35405 93666,93522,93257
 1.5500e+001 93453  4.0548e-001 -1.1236e+000  2.7204e-001 35405 93594,93127,93335
 1.5500e+001 93430  2.9634e-001 -4.2301e-001  2.2804e-001 35405 93666,93257,93231
 1.5500e+001 93407  1.1672e-001 -1.4494e+000  9.1988e-002 35405 93127,93179,93153
 1.5500e+001 93384 -3.7413e-001 -3.6384e-001  4.7161e-001 35405 93179,93231,93205
 1.5500e+001 93361  4.7099e-001  3.2619e-001  1.7942e-002 35405 93257,93309,93283
 1.5500e+001 93548  5.8066e-001 -2.7479e-001  4.5649e-001 35405 93335,93309,93522
 1.5500e+001 93571  4.0864e-001 -6.2605e-001  3.4298e-001 35405 93594,93335,93522
 1.5500e+001 93620  4.9858e-001 -6.0670e-001  1.8942e-001 35405 93179,93127,93594
 1.5500e+001 93643  2.9034e-001 -3.8589e-001  2.0638e-001 35405 93738,93594,93522
 1.5500e+001 93692  2.8726e-001 -3.9447e-001  1.9566e-001 35405 93738,93522,93666
 1.5500e+001 93715  2.3538e-001 -4.1013e-001  1.6577e-001 35405 93179,93666,93231
 1.5500e+001 93764  2.8335e-001 -4.0370e-001  2.0223e-001 35405 93179,93594,93738
 1.5500e+001 93787  2.8579e-001 -4.0945e-001  1.9383e-001 35405 93179,93738,93666
 1.5500e+001 94372  8.5797e-001 -9.1815e-002  6.7657e-002 34951 94395,94127,94075
 1.5500e+001 94349  1.1271e+000 -1.5136e-001  1.7964e-001 34951 94395,94075,94231
 1.5500e+001 94326  1.3984e+000 -3.9879e-001 -3.5052e-001 34951 94049,94231,94075
 1.5500e+001 94303  8.3915e-001  3.7003e-001  1.7164e-001 34951 94075,94127,94101
 1.5500e+001 94280  1.6069e+000  7.6669e-001  6.7394e-001 34951 94127,94205,94153
 1.5500e+001 94257  1.2286e+000 -3.0515e-001  7.0177e-001 34951 94153,94205,94179
 1.5500e+001 94421  1.0688e+000 -1.2239e-001  2.1912e-001 34951 94205,94127,94395
 1.5500e+001 94444  1.5476e+000 -4.6048e-002  3.2458e-001 34951 94205,94395,94231
 1.5500e+001 94692 -1.4442e-002 -1.3157e-001 -2.2294e-002 34397 94715,94519,94467
 1.5500e+001 94669 -2.2104e-002 -8.4667e-002 -9.8399e-003 34397 94715,94467,94597
 1.5500e+001 94646  1.1703e-002  8.5933e-003 -2.6906e-002 34397 94545,94597,94571
 1.5500e+001 94623 -5.6247e-002 -2.4267e-001  7.0364e-003 34397 94467,94519,94493
 1.5500e+001 94741 -5.5228e-002 -2.6419e-001 -4.6157e-002 34397 94545,94519,94715
 1.5500e+001 94764  1.5847e-003 -1.2426e-001 -2.4666e-002 34397 94545,94715,94597
 1.5500e+001 94985  4.6741e-002 -2.0171e-001 -5.0500e-004 33985 94835,94913,94887
 1.5500e+001 94962  1.0264e-001 -8.6400e-002  3.5459e-002 33985 94809,94913,94835
 1.5500e+001 94939 -3.4571e-002 -2.4444e-001  2.0081e-002 33985 94835,94887,94861
 1.5500e+001 95186 -3.8135e-002 -6.0969e-001 -1.9210e-001 33645 95281,95209,95036
 1.5500e+001 95163  3.8180e-001 -6.1820e-001  3.5984e-002 33645 95209,95010,95088
 1.5500e+001 95140  3.6862e-001 -3.2064e-001 -4.7524e-004 33645 95010,95114,95088
 1.5500e+001 95235 -2.4236e-001 -7.6505e-001 -3.1677e-001 33645 95062,95036,95209
 1.5500e+001 95258 -1.7767e-001 -8.3891e-001  2.6020e-001 33645 95413,95209,95088
 1.5500e+001 95307  3.0052e-001 -1.8751e-002 -4.0114e-001 33645 95010,95209,95281
 1.5500e+001 95439  1.7253e-001 -4.5292e-001  1.0889e-001 33645 95062,95209,95413
 1.5500e+001 95766 -1.5848e-001 -1.3977e-001 -2.7681e-001 33141 95789,95593,95567
 1.5500e+001 95743  3.3933e-002 -2.6991e-001 -8.7789e-002 33141 95861,95789,95567
 1.5500e+001 95720  2.2321e-002 -2.4098e-001 -3.4192e-002 33141 95861,95567,95671
 1.5500e+001 95697  2.7481e-002 -2.7222e-001 -4.3846e-002 33141 95541,95671,95567
 1.5500e+001 95815 -3.4266e-003  2.2590e-001 -2.3685e-001 33141 95619,95593,95789
 1.5500e+001 95838  6.1609e-002 -1.0209e-001 -7.8878e-002 33141 95619,95789,95645
 1.5500e+001 95887  7.5045e-002 -1.7509e-001 -9.2669e-002 33141 95645,95789,95861
 1.5500e+001 95910  6.2312e-002 -1.4674e-001 -3.1766e-002 33141 95645,95861,95671
 1.5500e+001 96060 -1.4375e-001 -3.5020e-001 -1.1491e-001 32487 95959,96011,95985
 1.5500e+001 96037  1.1830e-002 -3.4673e-001 -1.5616e-002 32487 95933,96011,95959
 1.5500e+001 96570 -2.0180e-001 -4.3959e-001  2.6956e-001 32033 96665,96593,96377
 1.5500e+001 96547 -1.6376e-001 -4.4400e-001 -8.7278e-002 32033 96737,96593,96325
 1.5500e+001 96524 -2.6425e-001 -5.7969e-001  1.7169e-001 32033 96665,96377,96351
 1.5500e+001 96501 -2.6831e-001 -6.6083e-001 -5.4629e-002 32033 96737,96325,96299
 1.5500e+001 96478 -2.8945e-001 -1.6680e-001 -3.8394e-002 32033 96247,96429,96299
 1.5500e+001 96455 -7.0384e-001 -1.2907e+000 -8.0333e-003 32033 96247,96299,96273
 1.5500e+001 96619  1.0580e-001 -2.0231e-001  3.3353e-001 32033 96809,96593,96403
 1.5500e+001 96642  3.1631e-001  3.5896e-001 -2.7827e-001 32033 96403,96593,96429
 1.5500e+001 96691  5.5598e-002 -7.7787e-001  9.3146e-002 32033 96325,96593,96665
 1.5500e+001 96714 -1.6500e-001 -1.0381e+000 -4.3036e-002 32033 96325,96665,96351
 1.5500e+001 96763 -2.8177e-001 -3.6695e-001  1.5340e-002 32033 96429,96593,96737
 1.5500e+001 96786 -3.2160e-001 -4.6470e-001  1.7956e-002 32033 96429,96737,96299
 1.5500e+001 96835 -2.1085e-002 -3.6154e-001  2.5958e-001 32033 96377,96593,96809
 1.5500e+001 97064 -5.2139e-003 -7.6252e-003  8.8488e-003 31671 97087,96989,96963
 1.5500e+001 97041  1.5456e-002 -5.0393e-003  2.5597e-002 31671 97087,96963,96937
 1.5500e+001 97113 -4.0943e-003 -2.9915e-002  2.7373e-002 31671 97159,97087,97015
 1.5500e+001 97136 -7.3228e-003 -5.1659e-002  1.4374e-002 31671 97015,97087,96937
 1.5500e+001 97185  2.0934e-002  6.2401e-002  6.8036e-003 31671 96989,97087,97159
 1.5500e+001 97563  7.7297e-003 -8.6459e-002 -1.1044e-002 31117 97586,97367,97341
 1.5500e+001 97540 -1.8507e-002 -6.5011e-002  1.2434e-002 31117 97658,97586,97341
 1.5500e+001 97517 -3.5212e-002 -9.1893e-002  5.0749e-003 31117 97658,97341,97315
 1.5500e+001 97494  3.7650e-002 -1.8342e-001 -2.9826e-002 31117 97289,97445,97315
 1.5500e+001 97471  3.0099e-002 -1.8497e-002 -9.0983e-003 31117 97367,97419,97393
 1.5500e+001 97612  2.0895e-002 -1.8607e-003 -2.5528e-002 31117 97419,97367,97586
 1.5500e+001 97635  5.2602e-002 -5.2589e-002  5.5172e-002 31117 97419,97586,97445
 1.5500e+001 97684  2.6455e-002 -1.1050e-001  2.9925e-002 31117 97445,97586,97658
 1.5500e+001 97707  5.0912e-003 -1.4311e-001  2.0449e-002 31117 97445,97658,97315
 1.5500e+001 98215  1.0198e-001 -7.3605e-002 -1.4820e-001 30563 98238,97996,97944
 1.5500e+001 98192 -9.4721e-002 -6.2180e-002 -1.6062e-001 30563 98310,98238,97944
 1.5500e+001 98169 -2.8488e-001 -2.4430e-001 -2.9703e-001 30563 98310,97944,97918
 1.5500e+001 98146  2.5919e-001 -6.0091e-002 -6.0972e-002 30563 97892,98074,97918
 1.5500e+001 98123  2.1484e-001 -1.5213e-001  8.8507e-002 30563 97996,98048,98022
 1.5500e+001 98100 -1.8242e-001 -1.7154e-001 -1.6572e-001 30563 97944,97996,97970
 1.5500e+001 98264  3.1010e-002 -1.1172e-002 -1.0322e-001 30563 98048,97996,98238
 1.5500e+001 98287  2.1406e-001  2.8741e-001  1.1641e-001 30563 98048,98238,98074
 1.5500e+001 98336  1.1480e-001 -8.7935e-002 -9.3869e-003 30563 98074,98238,98310
 1.5500e+001 98359 -2.4575e-002 -1.1170e-001 -1.0809e-001 30563 98074,98310,97918
 1.5500e+001 98607 -2.3402e-001 -8.5234e-002  1.5857e-002 30073 98630,98460,98408
 1.5500e+001 98584 -3.9754e-001 -1.6658e-001 -2.8338e-002 30073 98630,98408,98382
 1.5500e+001 98561 -7.5835e-002 -1.6413e-001 -2.9254e-002 30073 98382,98512,98486
 1.5500e+001 98538 -1.0576e-001 -1.2781e-001  1.0659e-001 30073 98408,98460,98434
 1.5500e+001 98656 -1.3996e-001 -1.9894e-001 -1.9213e-002 30073 98486,98460,98630
 1.5500e+001 98679 -2.4604e-001 -2.3652e-001 -5.2008e-002 30073 98486,98630,98382
 1.5500e+001 99157  1.0150e+000 -1.8644e-001  1.7269e-001 29669 99180,98837,98811
 1.5500e+001 99134  8.3679e-001 -1.5604e-001  3.9332e-001 29669 99324,99180,98811
 1.5500e+001 99111  6.2894e-001 -6.8702e-003  5.4013e-002 29669 99252,98863,98837
 1.5500e+001 99088  8.1591e-001 -2.7267e-001  4.2815e-001 29669 99324,98811,98993
 1.5500e+001 99065  6.2995e-001  2.0351e-001  1.0421e-001 29669 98863,98941,98915
 1.5500e+001 99042 -4.9158e-001  2.3811e-002  3.6453e-002 29669 98863,98915,98889
 1.5500e+001 99019  3.9567e-001 -4.1872e-001  6.0469e-001 29669 98785,98993,98811
 1.5500e+001 99206  6.9847e-001 -3.2086e-001  1.5329e-001 29669 99252,98837,99180
 1.5500e+001 99229  3.7118e-001 -2.3475e-001  4.7933e-001 29669 98941,99180,98967
 1.5500e+001 99278  6.2245e-001  2.0234e-001  1.0910e-001 29669 98941,98863,99252
 1.5500e+001 99301  8.3192e-001  7.4467e-002  2.4430e-001 29669 98941,99252,99180
 1.5500e+001 99350  8.0008e-001 -1.1438e-002  3.8113e-001 29669 98967,99180,99324
 1.5500e+001 99373  8.0798e-001 -1.0481e-001  3.9831e-001 29669 98967,99324,98993
 1.5500e+001 99958  4.7536e-001  4.2489e-001  1.8375e-001 29051 99981,99765,99739
 1.5500e+001 99935  1.4157e-001 -2.8167e-002  3.6809e-002 29051 99981,99739,99661
 1.5500e+001 99912  1.9846e-001 -1.2155e+000  5.2707e-002 29051 99765,99817,99791
 1.5500e+001 99889  2.3610e-001 -4.4346e-001 -3.4611e-002 29051 99635,99817,99661
 1.5500e+001 99866 -1.5622e-001 -4.3750e-002  2.5454e-001 29051 99661,99739,99687
 1.5500e+001 99843 -3.4687e-001 -5.3945e-003  1.6977e-001 29051 99687,99739,99713
 1.5500e+001 100007  6.6991e-001 -2.5380e-002  2.2286e-001 29051 99817,99765,99981
 1.5500e+001 100030  5.0962e-001 -2.2738e-001  1.5338e-001 29051 99817,99981,99661
 1.5500e+001 100278  4.3668e-001 -2.8542e-001  1.9101e-001 28525 100445,100301,100131
 1.5500e+001 100255  2.3242e-001  7.8606e-002  1.3213e-001 28525 100373,100301,100079
 1.5500e+001 100232  2.1564e-001 -2.2079e-001  1.7652e-001 28525 100373,100079,100053
 1.5500e+001 100209  2.5022e-001 -1.6077e-001  5.8549e-002 28525 100445,100131,100105
 1.5500e+001 100327  5.4850e-001 -2.3496e-001  3.1177e-001 28525 100517,100301,100157
 1.5500e+001 100350  4.9715e-001  5.1413e-001  3.6451e-001 28525 100157,100301,100183
 1.5500e+001 100399  2.0916e-001 -2.3206e-001  2.8453e-001 28525 100183,100301,100373
 1.5500e+001 100422  2.6124e-001 -4.4498e-001  3.2530e-001 28525 100183,100373,100053
 1.5500e+001 100471  1.8923e-001 -3.0536e-001 -1.1451e-001 28525 100079,100301,100445
 1.5500e+001 100494 -3.4433e-001 -4.2421e-001 -2.5586e-001 28525 100079,100445,100105
 1.5500e+001 100543  7.7797e-001  4.5173e-002  4.5936e-002 28525 100131,100301,100517
 1.5500e+001 101209 -5.9940e-001 -1.4716e-001 -4.5477e-002 28185 100938,101016,100990
 1.5500e+001 101186 -7.6171e-001 -3.7133e-002  4.7396e-002 28185 100912,101016,100938
 1.5500e+001 101163 -2.1232e-001  1.1850e-001  1.3981e-001 28185 100912,101068,101016
 1.5500e+001 101140 -7.0809e-001  1.7882e-001  1.0635e-001 28185 100886,101068,100912
 1.5500e+001 101117 -1.9988e-001  4.0296e-001  1.9098e-001 28185 101016,101068,101042
 1.5500e+001 101094 -1.7680e+000 -4.5924e-001 -9.3352e-002 28185 100938,100990,100964
 1.5500e+001 101408  1.7493e-001 -1.7506e-001 -1.0539e-001 27781 101503,101431,101310
 1.5500e+001 101385 -1.0944e-001  9.1322e-003 -3.5181e-001 27781 101431,101258,101232
 1.5500e+001 101362  2.0671e-001 -1.9251e-001 -1.2266e-001 27781 101503,101310,101284
 1.5500e+001 101457  7.3332e-001  6.9320e-002 -1.6395e-001 27781 101336,101310,101431
 1.5500e+001 101480  1.9002e-001  1.4195e-001 -3.7488e-001 27781 101575,101431,101232
 1.5500e+001 101529  3.4064e-001 -1.5319e-001 -2.9212e-001 27781 101258,101431,101503
 1.5500e+001 101552  2.3880e-001 -1.8396e-001 -1.4179e-001 27781 101705,101503,101284
 1.5500e+001 101601  3.8419e-001  4.6753e-001 -4.5826e-001 27781 101336,101431,101575
 1.5500e+001 101731 -7.6991e-002 -3.2254e-001 -3.0591e-001 27781 101258,101503,101705
 1.5500e+001 102237 -2.2180e-001 -1.6450e-001  3.9906e-002 27419 102476,102260,101992
 1.5500e+001 102214 -9.2320e-002 -2.8955e-001  4.6784e-003 27419 102260,101940,101914
 1.5500e+001 102191 -3.0545e-001 -3.6207e-001  3.3184e-002 27419 102404,102332,102096
 1.5500e+001 102168 -2.5921e-001 -3.5965e-001 -1.5711e-002 27419 102404,102096,102044
 1.5500e+001 102145 -1.9586e-001 -1.8591e-001  5.6111e-002 27419 102476,101992,101966
 1.5500e+001 102122 -1.8328e-001 -3.8574e-001 -1.9649e-002 27419 102044,102096,102070
 1.5500e+001 102286 -3.0321e-001 -2.7868e-001  7.5481e-002 27419 102018,101992,102260
 1.5500e+001 102309 -2.5066e-001 -2.4766e-001  9.0140e-003 27419 102332,102018,102260
 1.5500e+001 102358 -2.8692e-001 -5.1896e-001  1.3550e-001 27419 101914,102096,102332
 1.5500e+001 102381 -1.8634e-001 -3.9140e-001  4.7366e-002 27419 101914,102332,102260
 1.5500e+001 102430 -2.0453e-001 -3.3308e-001  1.0844e-002 27419 102018,102332,102404
 1.5500e+001 102453 -1.7612e-001 -3.3030e-001 -4.3067e-002 27419 102018,102404,102044
 1.5500e+001 102502 -1.3347e-001 -2.6143e-001  5.9635e-002 27419 101940,102260,102476
 1.5500e+001 102525  2.6096e-001 -6.3373e-002 -7.9910e-003 27419 101940,102476,101966
 1.5500e+001 103031 -5.9018e-001 -5.6806e-001  5.7552e-001 26715 102708,102786,102760
 1.5500e+001 103008  1.1462e-001 -4.1557e-001  1.9640e-001 26715 102708,102890,102786
 1.5500e+001 102985  5.7575e-001 -9.4393e-001  2.5314e-001 26715 102838,102890,102864
 1.5500e+001 102962  2.2876e-001 -2.6800e-001  2.7343e-001 26715 102786,102890,102838
 1.5500e+001 102939  1.0968e+000  1.4134e-001  5.8313e-001 26715 102786,102838,102812
 1.5500e+001 102916 -6.1017e-001 -2.0121e-002  1.0941e-001 26715 102708,102760,102734
 1.5500e+001 103279 -1.0447e-002 -1.7543e-002  4.1943e-002 26303 103302,103158,103080
 1.5500e+001 103256 -5.8194e-002  1.7113e-002  4.2498e-002 26303 103302,103080,103054
 1.5500e+001 103233 -1.0169e-001 -6.6171e-002  1.4570e-002 26303 103080,103158,103106
 1.5500e+001 103210  1.3723e-001 -9.3469e-004  1.9471e-002 26303 103106,103158,103132
 1.5500e+001 103328  7.4113e-002  1.3592e-002  2.7828e-002 26303 103184,103158,103302
 1.5500e+001 103351 -1.8568e-002  1.3873e-002  3.4905e-002 26303 103184,103302,103054
 1.5500e+001 103501 -1.2349e-001 -3.7228e-001 -5.9896e-003 25849 103374,103426,103400
 1.5500e+001 103478 -1.9554e-001 -3.0690e-001  2.7885e-002 25849 103374,103452,103426
 1.5500e+001 104090  1.1321e-001 -2.9836e-002  1.3790e-001 25445 103793,103871,103819
 1.5500e+001 104067  2.9459e-001  5.0726e-002  6.0059e-002 25445 103793,103949,103871
 1.5500e+001 104044  3.3862e-001  1.0618e-002  1.5549e-001 25445 103871,103949,103923
 1.5500e+001 104021  4.7145e-003  2.0662e-002 -3.0751e-002 25445 103819,103871,103845
 1.5500e+001 103998  3.9853e-001  1.4640e-001  1.6215e-001 25445 103767,103949,103793
 1.5500e+001 103975  3.8593e-001  5.7074e-002  1.7452e-001 25445 103871,103923,103897
 1.5500e+001 104419 -8.4106e-002 -1.0149e-001 -6.4283e-002 25083 104220,104298,104272
 1.5500e+001 104396 -1.9612e-001 -2.6547e-001 -8.4709e-003 25083 104220,104324,104298
 1.5500e+001 104373 -5.5779e-002 -7.2017e-002 -4.7593e-002 25083 104220,104272,104246
 1.5500e+001 104350 -1.7112e-001 -2.8904e-001 -1.2889e-002 25083 104194,104324,104220
 1.5500e+001 105102  8.9919e-002 -1.8180e-001  6.2446e-002 24793 104785,104863,104837
 1.5500e+001 105079  1.1732e-001 -2.4808e-001 -9.8626e-002 24793 104759,104863,104785
 1.5500e+001 105056  9.4309e-002 -2.6392e-002 -9.8655e-002 24793 104759,104915,104863
 1.5500e+001 105033  1.2234e-001 -1.4562e-001 -1.4701e-001 24793 104733,104915,104759
 1.5500e+001 105010  4.0446e-001  1.1605e-001 -1.5142e-001 24793 104863,104915,104889
 1.5500e+001 104987 -4.4459e-002  1.8793e-002 -2.7465e-001 24793 104681,104915,104733
 1.5500e+001 104964  5.2609e-003 -2.5847e-001  1.8309e-002 24793 104785,104837,104811
 1.5500e+001 104941 -1.8912e-002  2.4853e-001 -2.3737e-001 24793 104681,104733,104707
 1.5500e+001 105252  1.0938e+000  4.2721e-001  1.5273e-002 24389 105477,105275,105177
 1.5500e+001 105229  3.5972e-001  5.0460e-002  2.9430e-001 24389 105347,105275,105151
 1.5500e+001 105301  1.0570e+000  2.2111e-001  2.6023e-002 24389 105203,105177,105275
 1.5500e+001 105324  1.4068e+000  9.3111e-001  3.7193e-001 24389 105203,105275,105125
 1.5500e+001 105373  1.1131e+000  5.0818e-001  5.0829e-002 24389 105125,105275,105347
 1.5500e+001 105503  7.6548e-001 -2.2471e-001 -9.7872e-002 24389 105151,105275,105477
 1.5500e+001 106088 -2.5224e-001  2.6858e-001  3.1132e-001 23735 105791,105921,105895
 1.5500e+001 106065 -7.7909e-001  1.4137e-001  4.5381e-001 23735 105765,105921,105791
 1.5500e+001 106042 -7.7104e-002  5.1836e-001  2.8382e-001 23735 105765,105947,105921
 1.5500e+001 106019 -1.0006e+000 -2.7105e-002  3.8092e-001 23735 105817,105895,105869
 1.5500e+001 105996 -6.3180e-001  1.1358e-001  3.8918e-001 23735 105791,105895,105817
 1.5500e+001 105973 -5.8800e-001 -3.0009e-001  4.2241e-001 23735 105817,105869,105843
 1.5500e+001 106417  4.3248e-001  7.8418e-001 -1.0058e-001 23295 106218,106296,106270
 1.5500e+001 106394  3.9778e-001  3.7312e-001 -1.2365e-001 23295 106218,106322,106296
 1.5500e+001 106371  1.9068e-001  2.5819e-001 -1.8985e-001 23295 106218,106270,106244
 1.5500e+001 106348  5.4713e-001  4.3695e-001 -4.4971e-002 23295 106192,106322,106218
 1.5500e+001 106746 -2.0886e-001  2.4871e-001  2.6135e-001 23005 106521,106599,106547
 1.5500e+001 106723  2.9975e-001  7.4358e-001  6.0454e-002 23005 106521,106651,106599
 1.5500e+001 106700  4.3993e-001  1.0937e-001 -1.5120e-001 23005 106547,106599,106573
 1.5500e+001 106677  3.8865e-001  6.4268e-001  3.5639e-001 23005 106599,106651,106625
 1.5500e+001 107331 -9.5681e-002  2.7628e-001 -2.8741e-001 22601 107060,107190,107138
 1.5500e+001 107308 -8.4401e-001  8.1098e-001 -5.3535e-001 22601 107034,107190,107060
 1.5500e+001 107285 -1.9166e+000 -5.0785e-001 -3.4304e-001 22601 107060,107138,107112
 1.5500e+001 107262 -1.1989e+000  1.3626e+000  7.5297e-001 22601 107008,107190,107034
 1.5500e+001 107239  3.7808e-001 -2.7133e+000  1.3150e-001 22601 107060,107112,107086
 1.5500e+001 107216 -1.0029e+000  2.2774e+000  4.8757e-001 22601 107138,107190,107164
 1.5500e+001 107807 -1.2560e-001  9.1916e-002 -2.3973e-002 22031 107974,107902,107617
 1.5500e+001 107784 -1.3491e-001  2.2857e-001 -8.8906e-002 22031 107830,107565,107513
 1.5500e+001 107761 -1.1946e-002  5.0072e-002 -1.0945e-001 22031 108046,107830,107513
 1.5500e+001 107738 -7.2481e-002  1.9340e-001  1.2469e-002 22031 107974,107617,107591
 1.5500e+001 107715 -3.1843e-002  1.2641e-002 -1.2010e-001 22031 108046,107513,107461
 1.5500e+001 107692 -4.0552e-001  2.9424e-001 -1.4859e-001 22031 107513,107565,107539
 1.5500e+001 107669  1.0292e-001  2.0384e-001 -1.8985e-001 22031 107461,107513,107487
 1.5500e+001 107856 -1.9849e-001  1.4844e-001 -5.0874e-002 22031 107902,107565,107830
 1.5500e+001 107879 -6.1160e-002 -6.3574e-002 -1.5004e-003 22031 107643,107830,107435
 1.5500e+001 107928 -3.5517e-001  1.4667e-001 -1.7358e-001 22031 107643,107617,107902
 1.5500e+001 107951 -1.9485e-001  1.3612e-001  2.6415e-002 22031 107643,107902,107830
 1.5500e+001 108000 -1.5921e-001  2.3686e-001 -4.3835e-002 22031 107565,107902,107974
 1.5500e+001 108023 -1.5746e-001  2.1208e-001 -3.8343e-002 22031 107565,107974,107591
 1.5500e+001 108072  3.4934e-002  6.9659e-003 -5.1160e-002 22031 107435,107830,108046
 1.5500e+001 108095  7.6556e-003 -5.2794e-002 -6.3716e-002 22031 107435,108046,107461
 1.5500e+001 108196  6.4574e-002 -9.1182e-002  8.4769e-003 21783 108118,108170,108144
 1.5500e+001 108655  1.4138e-001  8.0997e-001  4.7757e-001 21379 108407,108485,108459
 1.5500e+001 108632  1.6943e+000  2.8019e-001  5.5575e-001 21379 108407,108511,108485
 1.5500e+001 108609  1.6669e+000  6.5950e-001  1.0067e+000 21379 108381,108511,108407
 1.5500e+001 108586  6.9900e-001  1.4315e+000 -5.2767e-002 21379 108381,108537,108511
 1.5500e+001 108563  4.2979e-001  1.0924e-001  2.1747e-001 21379 108407,108459,108433
 1.5500e+001 109082  1.6658e-001 -5.2305e-001 -3.7235e-002 20974 109105,108863,108811
 1.5500e+001 109059 -1.3245e-001 -6.5365e-001 -1.7272e-002 20974 109105,108811,108759
 1.5500e+001 109036  1.6860e-002 -1.4303e+000  1.5744e-001 20974 109177,108889,108863
 1.5500e+001 109013 -7.8310e-002 -4.9015e-001  3.3999e-002 20974 108811,108863,108837
 1.5500e+001 108990  1.2424e-001 -6.3036e-002 -1.7448e-002 20974 108759,108941,108915
 1.5500e+001 108967  7.7125e-002 -6.2701e-002 -1.9614e-003 20974 108759,108811,108785
 1.5500e+001 109131 -1.0855e-001 -1.1269e+000  4.1011e-002 20974 109177,108863,109105
 1.5500e+001 109154  2.3525e-002 -3.9505e-002 -4.2153e-002 20974 108915,109105,108759
 1.5500e+001 109203 -1.2903e-001 -1.1961e+000 -2.5100e-001 20974 108915,108889,109177
 1.5500e+001 109226  1.9630e-002 -4.0272e-001 -3.0571e-001 20974 108915,109177,109105
 1.5500e+001 109496 -2.8766e-001  5.8088e-002 -3.9730e-002 20470 109271,109375,109297
 1.5500e+001 109473 -2.5054e-001  9.1843e-002 -5.5240e-002 20470 109271,109401,109375
 1.5500e+001 109450 -3.4974e-001  1.6702e-003 -6.3309e-002 20470 109297,109375,109349
 1.5500e+001 109427 -5.1757e-001 -3.1745e-001  1.1049e-001 20470 109297,109349,109323
 1.5500e+001 109955  1.1099e-001  4.3435e-001  3.1017e-001 20123 110050,109733,109707
 1.5500e+001 109932 -1.6535e-001  3.1998e-001  2.7332e-001 20123 110050,109707,109681
 1.5500e+001 109909  1.7406e-001  1.8334e-001  2.4810e-001 20123 109978,109759,109733
 1.5500e+001 109886  7.3689e-002  1.5841e-001  2.3879e-001 20123 110122,109978,109733
 1.5500e+001 109863  1.8456e-001  7.6774e-002  2.0842e-001 20123 109785,109837,109811
 1.5500e+001 110004  1.7225e-001  1.9618e-001  2.0832e-001 20123 109785,109759,109978
 1.5500e+001 110027  1.5473e-001  1.7800e-001  1.8685e-001 20123 109785,109978,109837
 1.5500e+001 110076  9.4121e-003  2.4125e-001  1.9942e-001 20123 110122,109733,110050
 1.5500e+001 110099 -5.0665e-003  3.7349e-001  1.4983e-001 20123 109837,110050,109681
 1.5500e+001 110148  1.9645e-001  2.7465e-001  1.9034e-001 20123 109837,109978,110122
 1.5500e+001 110171  1.3982e-001  3.4873e-001  1.5069e-001 20123 109837,110122,110050
 1.5500e+001 110500  3.9888e-001 -1.8536e-002  1.8361e-002 19511 110301,110379,110353
 1.5500e+001 110477  9.4486e-001  4.2406e-001 -2.0922e-001 19511 110301,110405,110379
 1.5500e+001 110454  4.0807e-001  1.0929e-001  8.1253e-003 19511 110275,110405,110301
 1.5500e+001 110431  3.5865e-001 -9.2471e-002  4.9990e-002 19511 110301,110353,110327
 1.5500e+001 110957  2.8761e-001  1.2462e+000  1.9972e-001 19107 110683,110735,110709
 1.5500e+001 110934  5.3984e-001  8.0443e-001 -1.5352e-001 19107 110683,110813,110735
 1.5500e+001 110911  1.0047e+000  1.1923e+000  9.9876e-002 19107 110735,110813,110761
 1.5500e+001 110888  1.2813e+000  6.9457e-001  5.3363e-001 19107 110683,110839,110813
 1.5500e+001 110865  1.0255e+000  1.0600e+000 -1.8475e-001 19107 110761,110813,110787
 1.5500e+001 111335  7.7561e-001 -9.4903e-001  4.2965e-001 18653 111087,111165,111139
 1.5500e+001 111312  7.6031e-001 -1.4419e-002  1.6760e-001 18653 111087,111217,111165
 1.5500e+001 111289  1.7226e-001 -3.7550e-001  9.1514e-001 18653 111061,111217,111087
 1.5500e+001 111266  1.2978e+000 -1.1692e+000  1.3543e+000 18653 111087,111139,111113
 1.5500e+001 111243  6.5109e-001 -5.2376e-002 -1.4060e-001 18653 111165,111217,111191
 1.5500e+001 111735 -3.8780e-001 -2.8165e-001  1.1557e-001 18213 111461,111513,111487
 1.5500e+001 111712 -2.2628e-001 -2.8950e-001  5.1118e-002 18213 111461,111617,111513
 1.5500e+001 111689 -1.4409e-001 -9.1060e-002  7.7195e-002 18213 111513,111617,111591
 1.5500e+001 111666 -3.8515e-002 -1.5046e-001  1.0175e-001 18213 111513,111591,111539
 1.5500e+001 111643  1.0936e-001 -3.5489e-002  4.5063e-002 18213 111539,111591,111565
 1.5500e+001 111885 -4.2493e-001 -3.2008e+000 -6.3578e-002 17659 111784,111836,111810
 1.5500e+001 111862 -2.8498e-001 -2.2529e+000  3.2701e-001 17659 111758,111836,111784
 1.5500e+001 112287 -4.8020e-001 -2.4869e+000 -8.8200e-001 17411 112065,112169,112143
 1.5500e+001 112264 -1.4855e+000 -9.8678e-001 -7.9880e-001 17411 112039,112169,112065
 1.5500e+001 112241 -1.0991e+000 -5.1750e-001 -3.3987e-001 17411 112013,112169,112039
 1.5500e+001 112218  3.1052e+000 -1.8086e+000 -9.2066e-001 17411 112091,112143,112117
 1.5500e+001 112195 -4.5052e-002 -2.1305e+000 -2.0591e-001 17411 112065,112143,112091
 1.5500e+001 112508 -2.6535e-001  2.7704e-001  4.2364e-002 17007 112384,112436,112410
 1.5500e+001 112485 -1.6510e-001  3.7473e-001  8.4479e-002 17007 112332,112436,112384
 1.5500e+001 112462 -2.5604e-001  1.9793e-001  5.2146e-002 17007 112332,112384,112358
 1.5500e+001 112658 -6.7625e-001 -4.7639e-001  3.5418e-001 16553 112557,112609,112583
 1.5500e+001 112635 -1.2521e+000 -2.3644e-002  4.8712e-001 16553 112531,112609,112557
 1.5500e+001 112761  1.7753e-001 -7.9680e-001  3.9215e-002 16355 112683,112735,112709
 1.5500e+001 112913 -4.7518e-001  3.4850e-001  3.4852e-002 15949 112786,112838,112812
 1.5500e+001 112890 -1.8119e-001  8.6141e-001 -1.0085e-001 15949 112786,112864,112838
 1.5500e+001 113065  1.0615e-001 -3.6666e-001 -7.5318e-003 15609 112938,112990,112964
 1.5500e+001 113042 -7.9324e-002 -8.8389e-001 -2.5727e-001 15609 112938,113016,112990
 1.5500e+001 113420  4.7143e-001  3.3465e-001  1.1246e-001 15284 113247,113325,113299
 1.5500e+001 113397  4.5616e-001  2.9527e-001  4.0596e-002 15284 113195,113325,113247
 1.5500e+001 113374  3.2254e-001  2.3972e-001  4.4338e-002 15284 113195,113247,113221
 1.5500e+001 113351  3.8330e-001  4.8430e-001  1.0143e-001 15284 113247,113299,113273
 1.5500e+001 113521  1.3563e-001 -1.4281e-001  9.1514e-002 202 113443,113495,113469
 1.6000e+001 65564  2.3685e-002  2.7876e-002  1.5411e-003 65155 65414,65466,65440
 1.6000e+001 65541  1.3583e-002 -3.4022e-002 -4.8745e-003 65155 65414,65492,65466
 1.6000e+001 65518  1.0377e-002 -6.3163e-002  5.8908e-002 65155 65388,65492,65414
 1.6000e+001 65883  1.5099e-001 -7.3113e-001 -1.9033e-002 64957 65635,65739,65713
 1.6000e+001 65860  1.2413e-001 -1.0959e+000 -5.7673e-002 64957 65635,65765,65739
 1.6000e+001 65837 -8.8580e-002 -1.2120e+000  3.8264e-004 64957 65609,65765,65635
 1.6000e+001 65814  1.3102e-001 -8.9697e-001  2.4623e-001 64957 65635,65713,65687
 1.6000e+001 65791  8.0094e-003 -1.0641e+000  1.5985e-001 64957 65635,65687,65661
 1.6000e+001 65984 -6.8612e-002 -6.2185e-003  7.0675e-002 64781 65906,65958,65932
 1.6000e+001 66232 -3.2767e-001 -4.2518e-001  3.6816e-001 64469 66007,66059,66033
 1.6000e+001 66209  4.9659e-002 -4.1610e-001  4.2575e-001 64469 66007,66085,66059
 1.6000e+001 66186 -2.8329e-001 -1.1596e+000  5.7880e-001 64469 66007,66137,66085
 1.6000e+001 66163 -1.7563e-001 -1.5124e+000  1.2138e+000 64469 66085,66137,66111
 1.6000e+001 66504  7.9535e-003 -1.0454e+000  2.3631e-002 64271 66279,66383,66305
 1.6000e+001 66481  1.1651e-001 -1.0441e+000 -3.9148e-002 64271 66279,66409,66383
 1.6000e+001 66458  1.9325e-001 -1.3081e+000  2.3615e-002 64271 66305,66357,66331
 1.6000e+001 66435 -7.2965e-002 -1.1801e+000  5.8892e-002 64271 66305,66383,66357
 1.6000e+001 66705  4.1879e-001 -2.8805e+000  2.3523e-001 64073 66728,66581,66555
 1.6000e+001 66682  4.3184e-001 -2.0491e+000  4.4639e-001 64073 66728,66555,66529
 1.6000e+001 66659  2.2817e-001 -1.7989e+000 -3.4196e-001 64073 66581,66633,66607
 1.6000e+001 66754 -1.1470e-001 -2.0965e+000 -6.8144e-002 64073 66633,66581,66728
 1.6000e+001 66777  1.0376e-001 -1.0081e+000  2.2281e-002 64073 66633,66728,66529
 1.6000e+001 66951 -1.3434e-001 -4.1655e-001 -6.4836e-002 63783 66824,66876,66850
 1.6000e+001 66928  4.9140e-001 -3.5959e-001  1.8588e-001 63783 66824,66902,66876
 1.6000e+001 67201 -6.0799e-001 -1.3989e+000 -1.4675e-001 63585 66976,67080,67054
 1.6000e+001 67178 -1.0519e-001 -1.2072e+000  7.5043e-002 63585 66976,67106,67080
 1.6000e+001 67155  2.1329e-001 -1.6860e+000 -5.9504e-001 63585 66976,67054,67028
 1.6000e+001 67132 -1.1061e-003 -2.2115e+000 -5.3175e-001 63585 66976,67028,67002
 1.6000e+001 67654  7.9210e-002 -7.9380e-001 -1.9343e-002 63295 67357,67487,67383
 1.6000e+001 67631  8.2679e-002 -9.8801e-001  1.1315e-001 63295 67331,67487,67357
 1.6000e+001 67608 -5.9473e-002 -1.1592e+000 -1.9557e-002 63295 67331,67513,67487
 1.6000e+001 67585  8.9354e-004 -1.1748e+000  2.7539e-003 63295 67435,67487,67461
 1.6000e+001 67562 -5.9786e-002 -1.1965e+000  3.2570e-003 63295 67383,67487,67435
 1.6000e+001 67539  2.7671e-002 -1.1056e+000  3.9157e-002 63295 67383,67435,67409
 1.6000e+001 67853 -6.3999e-002 -1.0819e+000  2.8177e-003 62891 67876,67703,67677
 1.6000e+001 67830 -4.3115e-002 -1.1190e+000 -2.2674e-002 62891 67876,67677,67781
 1.6000e+001 67807  2.2434e-002 -9.4403e-001 -7.1952e-002 62891 67948,67729,67703
 1.6000e+001 67902 -2.4062e-002 -1.0630e+000  8.6431e-003 62891 67948,67703,67876
 1.6000e+001 67925 -1.6336e-001 -1.0469e+000  3.8355e-002 62891 67755,67876,67781
 1.6000e+001 67974 -7.4789e-002 -7.8556e-001 -7.5550e-002 62891 67755,67729,67948
 1.6000e+001 67997 -5.4892e-002 -8.4643e-001 -1.2427e-002 62891 67755,67948,67876
 1.6000e+001 68218  6.3491e-002 -1.9207e-002 -8.7471e-002 62693 68042,68120,68068
 1.6000e+001 68195 -5.2856e-003 -9.3259e-003 -8.5312e-005 62693 68042,68146,68120
 1.6000e+001 68172 -2.6247e-001  2.4077e-001 -4.5820e-002 62693 68068,68120,68094
 1.6000e+001 68468  2.4521e-001 -4.5991e-002  1.2223e-002 62289 68491,68295,68269
 1.6000e+001 68445  1.8214e-002 -7.8227e-002 -1.3074e-001 62289 68563,68491,68269
 1.6000e+001 68422  2.4034e-002  3.4958e-002 -4.7112e-002 62289 68563,68269,68243
 1.6000e+001 68399 -1.8886e-001 -1.8242e-001  3.5182e-002 62289 68295,68347,68321
 1.6000e+001 68517  9.7436e-002 -2.3307e-001 -6.0718e-002 62289 68347,68295,68491
 1.6000e+001 68540 -1.8086e-001 -7.7469e-002 -2.1056e-001 62289 68347,68491,68373
 1.6000e+001 68589  6.5844e-002  1.4346e-001 -1.1765e-001 62289 68373,68491,68563
 1.6000e+001 68612  1.9063e-002  1.8210e-001 -3.3603e-002 62289 68373,68563,68243
 1.6000e+001 68911 -7.8149e-002 -1.0601e+000 -2.8784e-003 62091 69222,68934,68741
 1.6000e+001 68888  9.5185e-002 -1.0254e+000 -4.2470e-002 62091 69006,68934,68689
 1.6000e+001 68865  1.2179e-001 -1.0106e+000 -2.7103e-003 62091 69006,68689,68663
 1.6000e+001 68842 -1.2065e-001 -1.0703e+000 -1.2692e-001 62091 69078,68793,68767
 1.6000e+001 68819 -1.9290e-001 -1.1274e+000  1.5136e-001 62091 69222,68741,68715
 1.6000e+001 68960 -1.7705e-001 -1.0679e+000  8.4758e-003 62091 68767,68741,68934
 1.6000e+001 68983 -5.7877e-002 -1.1127e+000 -3.7235e-002 62091 69078,68767,68934
 1.6000e+001 69032  8.6783e-002 -1.0345e+000 -2.6381e-002 62091 69150,69006,68637
 1.6000e+001 69055  8.0138e-002 -1.0446e+000 -1.9394e-002 62091 68637,69006,68663
 1.6000e+001 69104 -3.0452e-002 -8.5975e-001 -6.7351e-002 62091 68637,68793,69078
 1.6000e+001 69127  6.0571e-002 -9.9974e-001 -1.1447e-002 62091 69150,68637,69078
 1.6000e+001 69176  2.9645e-002 -1.0462e+000 -4.5565e-002 62091 68934,69006,69150
 1.6000e+001 69199 -2.4038e-002 -1.0294e+000 -2.2641e-002 62091 68934,69150,69078
 1.6000e+001 69248 -4.3500e-003 -9.0477e-001 -2.9041e-002 62091 68689,68934,69222
 1.6000e+001 69271 -2.9250e-002 -8.5606e-001  7.9811e-002 62091 68689,69222,68715
 1.6000e+001 69521 -2.9623e-001  1.5041e-001  1.3446e-002 61893 69544,69348,69296
 1.6000e+001 69498 -7.1077e-002  1.8935e-001  5.6306e-002 61893 69544,69296,69400
 1.6000e+001 69475  7.7073e-002  2.0290e-001  3.5958e-002 61893 69296,69426,69400
 1.6000e+001 69452 -2.3413e-001 -4.3966e-001 -1.1025e-001 61893 69296,69348,69322
 1.6000e+001 69570 -1.7769e-001  5.4198e-002  1.8652e-001 61893 69374,69348,69544
 1.6000e+001 69593  2.1800e-001  1.8956e-001  2.1881e-001 61893 69374,69544,69400
 1.6000e+001 70046  5.9309e-002 -8.5131e-001 -9.9911e-003 61467 69749,69905,69879
 1.6000e+001 70023  1.2957e-001 -6.6810e-001  1.9056e-001 61467 69723,69905,69749
 1.6000e+001 70000  4.1534e-002 -9.0911e-001 -3.0874e-002 61467 70069,69827,69775
 1.6000e+001 69977 -1.0543e-001 -1.2956e+000  1.0020e-001 61467 70069,69775,69749
 1.6000e+001 69954 -4.3264e-002 -6.6386e-001 -3.0588e-002 61467 70141,69853,69827
 1.6000e+001 69931  7.6547e-002 -1.1803e+000 -3.5352e-001 61467 69775,69827,69801
 1.6000e+001 70095  3.6214e-003 -7.2939e-001 -7.3123e-002 61467 70141,69827,70069
 1.6000e+001 70118  4.9417e-002 -8.9526e-001 -5.7325e-004 61467 69879,70069,69749
 1.6000e+001 70167  2.8385e-003 -7.6366e-001 -2.6607e-002 61467 69879,69853,70141
 1.6000e+001 70190 -1.9387e-002 -9.1888e-001 -6.9980e-002 61467 69879,70141,70069
 1.6000e+001 70291 -9.7067e-002 -1.5078e+000 -1.7411e-001 61013 70213,70265,70239
 1.6000e+001 70441  8.7238e-002 -2.4784e-002 -6.1374e-002 60651 70340,70392,70366
 1.6000e+001 70418  1.6096e-001 -2.2157e-003 -3.2233e-003 60651 70314,70392,70340
 1.6000e+001 70642  9.1446e-002 -6.6677e-001 -2.0539e-001 60311 70665,70492,70466
 1.6000e+001 70619 -1.3625e-001 -1.2459e+000 -2.8488e-001 60311 70665,70466,70570
 1.6000e+001 70596 -3.3822e+000 -1.4803e-001  3.1701e-001 60311 70492,70544,70518
 1.6000e+001 70691  5.8772e-002 -8.2766e-002  3.9298e-001 60311 70544,70492,70665
 1.6000e+001 70714 -3.0768e-001 -9.6647e-001  3.2710e-001 60311 70544,70665,70570
 1.6000e+001 70964  3.0700e-001 -1.2352e+000  1.3753e-001 59907 70987,70765,70739
 1.6000e+001 70941  2.9777e-001 -1.2790e+000 -4.7753e-002 59907 71059,70987,70739
 1.6000e+001 70918  1.6480e-001 -1.4655e+000  1.0554e-002 59907 71059,70739,70869
 1.6000e+001 70895  1.5947e-001 -1.0736e+000  8.6441e-003 59907 70817,70869,70843
 1.6000e+001 71013  1.2479e+000 -7.7397e-001  5.7697e-001 59907 70791,70765,70987
 1.6000e+001 71036  4.0641e-001 -1.4339e+000  1.9110e-001 59907 70791,70987,70817
 1.6000e+001 71085  1.3594e-001 -1.1691e+000 -3.7451e-002 59907 70817,70987,71059
 1.6000e+001 71108  1.3136e-001 -1.2085e+000 -3.4404e-002 59907 70817,71059,70869
 1.6000e+001 71441 -4.7846e-001 -7.4086e-001  5.3290e-001 59417 71464,71242,71216
 1.6000e+001 71418 -2.9066e-001 -4.3492e-001  8.2453e-001 59417 71464,71216,71320
 1.6000e+001 71395 -5.3290e-001 -3.7644e-001  9.1702e-001 59417 71216,71346,71320
 1.6000e+001 71372 -5.5174e-001 -8.6242e-001  4.1505e-001 59417 71268,71320,71294
 1.6000e+001 71490 -7.2223e-001 -8.0517e-001  2.1866e-001 59417 71268,71242,71464
 1.6000e+001 71513 -6.8508e-001 -4.0762e-001  5.0995e-001 59417 71268,71464,71320
 1.6000e+001 71712  1.5182e+000  1.3978e+000  4.5720e-001 58913 71562,71614,71588
 1.6000e+001 71689  9.2603e-001  1.0613e+000  3.2091e-001 58913 71536,71614,71562
 1.6000e+001 71666  5.3962e-001  2.0804e+000 -1.7160e-001 58913 71536,71640,71614
 1.6000e+001 72171 -8.5925e-001 -2.0902e+000  1.0390e-001 58409 72194,72027,72001
 1.6000e+001 72148 -8.0389e-001 -2.5539e+000 -1.0887e-001 58409 72194,72001,71949
 1.6000e+001 72125 -5.3131e-001 -1.3860e+000 -2.9070e-002 58409 71923,72053,71949
 1.6000e+001 72102 -9.3310e-001 -2.4863e+000 -2.7724e-001 58409 71949,72001,71975
 1.6000e+001 72079 -2.8620e-001 -9.7043e-001  3.1750e-001 58409 71897,72053,71923
 1.6000e+001 72220 -6.9362e-001 -1.9333e+000  3.0935e-001 58409 72053,72027,72194
 1.6000e+001 72243 -6.2110e-001 -2.2263e+000  7.1975e-002 58409 72053,72194,71949
 1.6000e+001 72491  8.6335e-001  1.3667e+000  2.9463e-001 57855 72514,72318,72292
 1.6000e+001 72468  1.2737e+000  1.3632e+000  5.2570e-001 57855 72514,72292,72266
 1.6000e+001 72445  7.6887e-001  1.3424e+000  4.0268e-001 57855 72318,72396,72370
 1.6000e+001 72422  5.7063e-001  1.3308e+000  3.0388e-001 57855 72318,72370,72344
 1.6000e+001 72540  8.1911e-001  1.5298e+000  3.9634e-001 57855 72396,72318,72514
 1.6000e+001 72563  8.5854e-001  1.6595e+000  4.7481e-001 57855 72396,72514,72266
 1.6000e+001 72811 -2.7835e-001 -2.2057e+000  1.1644e+000 57401 72612,72690,72638
 1.6000e+001 72788 -2.1970e+000 -3.0165e+000  1.5646e+000 57401 72586,72690,72612
 1.6000e+001 72765  3.7208e+000 -3.8245e+000  1.2277e-001 57401 72638,72690,72664
 1.6000e+001 72742  3.0078e-001 -1.1837e+000  7.2392e-001 57401 72586,72716,72690
 1.6000e+001 73144 -5.4469e-002 -1.0051e+000 -3.2779e-002 57004 72919,72997,72945
 1.6000e+001 73121 -1.4118e-001 -1.2351e+000  3.8583e-002 57004 72919,73049,72997
 1.6000e+001 73098 -1.8330e-001 -8.8978e-001 -1.3330e-001 57004 72945,72997,72971
 1.6000e+001 73075 -1.1300e-001 -1.1996e+000  6.5028e-002 57004 72997,73049,73023
 1.6000e+001 73650 -6.0020e-001 -3.2572e+000  6.3962e-002 56592 73673,73379,73353
 1.6000e+001 73627 -7.6260e-001 -2.4519e+000  1.1594e+000 56592 73673,73353,73327
 1.6000e+001 73604  6.5790e-001 -1.7280e+000  1.0557e+000 56592 73745,73509,73483
 1.6000e+001 73581  1.1292e+000 -1.7992e+000  5.2597e-001 56592 73379,73457,73405
 1.6000e+001 73558  1.5107e+000 -1.8758e+000  1.0087e+000 56592 73379,73483,73457
 1.6000e+001 73535  2.2752e+000 -1.0783e+000  8.3349e-001 56592 73405,73457,73431
 1.6000e+001 73699 -4.7351e-002 -2.4372e+000  6.9269e-001 56592 73483,73379,73673
 1.6000e+001 73722  5.2108e-001 -2.3569e+000  1.2862e+000 56592 73745,73483,73673
 1.6000e+001 73771  3.1980e-001 -3.8021e-001  5.6078e-001 56592 73327,73509,73745
 1.6000e+001 73794 -1.8557e-001 -1.1854e+000  9.5825e-001 56592 73327,73745,73673
 1.6000e+001 74123  3.4592e-001  2.4517e-001 -5.8507e-001 56152 74146,74002,73924
 1.6000e+001 74100  5.5332e-001  2.2280e-001 -4.6816e-001 56152 74146,73924,73898
 1.6000e+001 74077  1.2500e+000  7.1352e-001 -8.1951e-001 56152 73924,74002,73976
 1.6000e+001 74054  6.3295e-001 -6.8564e-001  3.3258e-001 56152 73924,73976,73950
 1.6000e+001 74172  1.5257e-001  4.7573e-001 -4.5725e-001 56152 74028,74002,74146
 1.6000e+001 74195  4.5682e-001  3.7669e-001 -3.4109e-001 56152 74028,74146,73898
 1.6000e+001 74345  1.1923e+000 -3.2810e-001 -6.3962e-001 55634 74218,74270,74244
 1.6000e+001 74322 -2.9934e-001 -3.8689e-001 -2.4569e-001 55634 74218,74296,74270
 1.6000e+001 74823 -1.2862e-001 -2.6135e+000  4.5840e-001 55016 74918,74846,74581
 1.6000e+001 74800 -4.6385e-001 -2.7513e+000  1.4830e-001 55016 74846,74477,74633
 1.6000e+001 74777 -7.8649e-001 -3.2107e+000  7.0756e-001 55016 74918,74581,74555
 1.6000e+001 74754 -8.1691e-001 -2.3255e+000  2.4938e-001 55016 74990,74503,74477
 1.6000e+001 74731 -4.1814e-001 -3.2072e+000 -5.7960e-001 55016 74451,74633,74477
 1.6000e+001 74708 -1.3441e+000 -2.2290e+000 -8.9825e-001 55016 74451,74659,74633
 1.6000e+001 74685 -1.7636e+000 -1.5306e+000  1.5032e+000 55016 74503,74555,74529
 1.6000e+001 74872 -4.6834e-001 -3.4473e+000  4.1784e-001 55016 74607,74581,74846
 1.6000e+001 74895 -2.5622e-001 -2.9874e+000  2.4148e-001 55016 74607,74846,74633
 1.6000e+001 74944 -1.0169e+000 -3.0563e+000  2.9689e-001 55016 74477,74846,74918
 1.6000e+001 74967 -8.0996e-001 -2.4506e+000  3.2686e-001 55016 74990,74477,74918
 1.6000e+001 75016 -8.4394e-001 -2.3102e+000  6.5067e-001 55016 74555,74503,74990
 1.6000e+001 75039 -9.5815e-001 -2.7010e+000  7.1708e-001 55016 74555,74990,74918
 1.6000e+001 75287 -8.7157e-001 -6.3894e+000  9.8304e-001 54726 75310,75140,75114
 1.6000e+001 75264 -1.3942e+000 -5.3950e+000  6.7623e-001 54726 75310,75114,75088
 1.6000e+001 75241  2.0273e-001 -4.3491e+000  1.3219e-001 54726 75088,75192,75166
 1.6000e+001 75218 -7.6915e-001 -9.5278e-001  8.5534e-001 54726 75062,75192,75088
 1.6000e+001 75336 -1.3528e-001 -5.7760e+000  4.5539e-001 54726 75166,75140,75310
 1.6000e+001 75359 -1.1847e+000 -4.8927e+000  3.7696e-001 54726 75166,75310,75088
 1.6000e+001 75946 -1.2909e-001 -4.8597e-001 -1.7113e-001 54322 75969,75701,75649
 1.6000e+001 75923  1.2543e-001 -3.6307e-001 -2.1616e-001 54322 75969,75649,75623
 1.6000e+001 75900 -3.2878e-002 -3.5154e-001 -2.9710e-002 54322 76041,75753,75701
 1.6000e+001 75877 -7.3108e-002 -7.7818e-001 -4.0711e-002 54322 75623,75805,75779
 1.6000e+001 75854 -6.6248e-002 -4.4252e-001  1.6591e-001 54322 75701,75753,75727
 1.6000e+001 75831 -7.7364e-003 -1.3926e-001 -6.6884e-002 54322 75649,75701,75675
 1.6000e+001 75995  5.8088e-002 -4.0052e-001 -1.0445e-001 54322 76041,75701,75969
 1.6000e+001 76018  7.1284e-002 -5.1961e-001 -1.1545e-001 54322 75779,75969,75623
 1.6000e+001 76067 -9.1930e-002 -4.8148e-001  4.0693e-003 54322 75779,75753,76041
 1.6000e+001 76090 -2.5497e-002 -5.7492e-001 -6.9873e-002 54322 75779,76041,75969
 1.6000e+001 76468 -2.8328e-002 -5.1478e-001 -7.1570e-002 53868 76491,76272,76220
 1.6000e+001 76445  5.9718e-002 -5.3143e-001 -2.5245e-002 53868 76491,76220,76324
 1.6000e+001 76422 -2.5286e-002 -7.0603e-001 -9.5367e-002 53868 76220,76272,76246
 1.6000e+001 76399  1.0563e-001 -5.7405e-001 -4.6462e-002 53868 76194,76324,76220
 1.6000e+001 76376  5.3163e-001 -4.0307e-001  6.3933e-002 53868 76194,76350,76324
 1.6000e+001 76517  2.1159e-002 -4.7666e-001 -2.1575e-002 53868 76298,76272,76491
 1.6000e+001 76540  1.0901e-001 -5.0479e-001  2.0709e-002 53868 76298,76491,76324
 1.6000e+001 76690  2.8992e-003 -6.7816e-001  6.7180e-002 53356 76589,76641,76615
 1.6000e+001 76667 -1.9846e-001 -8.7092e-001 -2.0217e-002 53356 76563,76641,76589
 1.6000e+001 76938  1.9620e-001  3.8961e-001  9.7777e-002 53009 77105,76961,76765
 1.6000e+001 76915 -7.4343e-002 -1.5270e+000 -6.0259e-001 53009 76961,76713,76843
 1.6000e+001 76892 -2.4613e-001 -7.0723e-001  6.6361e-002 53009 77033,76817,76791
 1.6000e+001 76869  5.6385e-001  1.7733e+000 -9.2824e-002 53009 77105,76765,76739
 1.6000e+001 76987 -2.6219e-001 -6.6192e-001 -1.7565e-001 53009 76791,76765,76961
 1.6000e+001 77010 -1.9767e-001 -4.1018e-001 -2.0792e-001 53009 77033,76791,76961
 1.6000e+001 77059  2.0012e-001 -4.5643e-001 -1.9852e-001 53009 76843,76817,77033
 1.6000e+001 77082  1.5644e-001 -3.3259e-001 -4.5480e-001 53009 76843,77033,76961
 1.6000e+001 77131  8.2241e-001 -6.9499e-003 -1.0245e+000 53009 76713,76961,77105
 1.6000e+001 77154  1.0078e+000  5.0888e-001 -1.2362e+000 53009 76713,77105,76739
 1.6000e+001 77355  5.7399e-001 -4.1645e+000  4.8762e-001 52390 77378,77257,77231
 1.6000e+001 77332  6.9439e-001 -5.3008e+000  6.5652e-001 52390 77378,77231,77179
 1.6000e+001 77309  1.3881e+000 -3.9235e+000  4.0831e-001 52390 77179,77231,77205
 1.6000e+001 77404  8.7099e-001 -5.0815e+000  1.0622e+000 52390 77283,77257,77378
 1.6000e+001 77427  7.6910e-001 -6.6088e+000  1.1391e+000 52390 77283,77378,77179
 1.6000e+001 77677 -1.1434e+000  1.2860e+000 -1.4912e+000 51986 77700,77504,77478
 1.6000e+001 77654 -2.2050e-001  1.2528e+000 -1.3273e+000 51986 77700,77478,77452
 1.6000e+001 77631  4.0766e-001  1.2036e+000 -1.3961e+000 51986 77772,77556,77530
 1.6000e+001 77608  3.5173e+000  2.2351e+000 -2.2770e+000 51986 77452,77582,77556
 1.6000e+001 77726 -3.6734e-001  1.6071e+000 -9.6622e-001 51986 77530,77504,77700
 1.6000e+001 77749  3.6843e-001  1.1890e+000 -1.1221e+000 51986 77772,77530,77700
 1.6000e+001 77798  9.2468e-002  1.0499e+000 -1.3111e+000 51986 77452,77556,77772
 1.6000e+001 77821 -7.4236e-002  1.0408e+000 -1.0762e+000 51986 77452,77772,77700
 1.6000e+001 78282 -1.0034e+000 -2.7397e+000  1.8154e-001 51738 78008,78138,78060
 1.6000e+001 78259 -1.1564e+000 -3.5745e+000  2.3108e+000 51738 78008,78164,78138
 1.6000e+001 78236 -7.2188e-001 -1.5410e+000  7.1350e-001 51738 78086,78138,78112
 1.6000e+001 78213 -7.2333e-001 -1.3808e+000  6.4805e-001 51738 78060,78138,78086
 1.6000e+001 78190  2.9549e-002 -3.8464e+000 -4.4882e-001 51738 78008,78060,78034
 1.6000e+001 78432  2.1236e-001 -4.1955e-001  2.0955e-002 51148 78305,78357,78331
 1.6000e+001 78409  1.3421e-001 -3.0368e-001  2.6032e-002 51148 78305,78383,78357
 1.6000e+001 78891 -1.3347e-001 -5.9164e-001 -6.2612e-002 50808 78914,78695,78669
 1.6000e+001 78868 -5.6209e-002 -4.0050e-001 -3.9983e-002 50808 78914,78669,78643
 1.6000e+001 78845 -5.8916e-002 -5.3518e-001 -3.2149e-001 50808 78643,78773,78747
 1.6000e+001 78822 -2.6935e-002 -5.7574e-001 -3.0503e-001 50808 78617,78773,78643
 1.6000e+001 78799 -2.9419e-001 -5.9277e-001 -1.2372e-001 50808 78695,78747,78721
 1.6000e+001 78940 -2.0010e-001 -4.6063e-001 -1.9150e-001 50808 78747,78695,78914
 1.6000e+001 78963 -1.3258e-001 -3.5550e-001 -1.6226e-001 50808 78747,78914,78643
 1.6000e+001 79260  7.5266e-002 -5.5721e-001 -4.1568e-002 50468 79283,79090,79012
 1.6000e+001 79237  2.5676e-001 -5.2696e-001  1.1931e-002 50468 79283,79012,78986
 1.6000e+001 79214 -1.1810e-001 -6.4201e-001 -6.4613e-002 50468 79012,79090,79038
 1.6000e+001 79191  1.1779e-001 -4.6040e-001  9.7042e-002 50468 78986,79142,79116
 1.6000e+001 79168 -2.6171e-002 -6.3970e-001 -9.8797e-002 50468 79038,79090,79064
 1.6000e+001 79309 -1.2095e-001 -5.0429e-001 -6.1754e-002 50468 79116,79090,79283
 1.6000e+001 79332  1.0642e-001 -4.2839e-001  8.4408e-003 50468 79116,79283,78986
 1.6000e+001 79889  8.0284e-001  1.1282e+000 -4.9412e-001 50064 79569,79725,79699
 1.6000e+001 79866  9.3514e-001  1.2036e+000 -4.0667e-001 50064 79543,79725,79569
 1.6000e+001 79843  8.6330e-001  7.0672e-001 -5.4452e-001 50064 79621,79699,79673
 1.6000e+001 79820  1.0921e+000  1.2179e+000 -8.4333e-001 50064 79595,79699,79621
 1.6000e+001 79797  1.5995e+000  1.3479e+000 -6.4384e-001 50064 79569,79699,79595
 1.6000e+001 79774  4.0132e-001  1.2183e+000 -2.3218e-001 50064 79517,79725,79543
 1.6000e+001 79751  4.9466e-001  7.1253e-001 -5.8434e-001 50064 79621,79673,79647
 1.6000e+001 80169  1.0584e+000  1.5464e+000 -6.8897e-001 49724 80019,80097,80071
 1.6000e+001 80146  9.6569e-001  1.9505e+000 -7.8891e-001 49724 79993,80097,80019
 1.6000e+001 80123  7.0685e-001  1.4478e+000 -8.1222e-001 49724 80019,80071,80045
 1.6000e+001 80626  1.3568e-001  3.3769e-001  2.4513e-001 49277 80352,80482,80378
 1.6000e+001 80603 -2.3564e-001  2.2593e-001 -2.8622e-002 49277 80352,80508,80482
 1.6000e+001 80580 -1.4544e-001 -3.9519e-001  5.2854e-002 49277 80378,80482,80456
 1.6000e+001 80557 -1.1144e-001 -7.3542e-001  3.4542e-001 49277 80378,80430,80404
 1.6000e+001 80534 -3.6593e-002 -3.0372e-001  2.5901e-001 49277 80378,80456,80430
 1.6000e+001 81230  7.5464e-001 -3.3846e-001  1.7316e-001 48716 81253,80835,80809
 1.6000e+001 81207  6.6275e-001 -3.2544e-001  5.7021e-001 48716 81397,81253,80809
 1.6000e+001 81184  1.1755e-001  2.5779e-001 -6.7806e-002 48716 81325,80913,80887
 1.6000e+001 81161 -1.0180e-001 -3.9192e-001  7.4440e-001 48716 81397,80809,81017
 1.6000e+001 81138 -1.3213e-001  5.0374e-001 -1.5383e-001 48716 81469,80965,80913
 1.6000e+001 81115 -1.1418e-001 -5.7695e-001  2.2865e-001 48716 80835,80887,80861
 1.6000e+001 81092  9.0093e-001 -3.9994e-001  1.4009e+000 48716 80809,81043,81017
 1.6000e+001 81069 -3.3430e-003  2.9238e-001 -3.2231e-001 48716 80913,80965,80939
 1.6000e+001 81279  2.6105e-001 -3.5342e-001  3.4411e-003 48716 80887,80835,81253
 1.6000e+001 81302  9.0824e-002  2.6107e-001 -2.6809e-002 48716 81325,80887,81253
 1.6000e+001 81351  1.8916e-001  4.0163e-001 -3.0433e-002 48716 81469,80913,81325
 1.6000e+001 81374  3.4201e-002  5.8992e-001  1.3067e-001 48716 80991,81325,81253
 1.6000e+001 81423 -4.4629e-001  8.2329e-002  6.5364e-001 48716 80991,81253,81397
 1.6000e+001 81446 -1.3118e+000 -1.0637e-001  9.0021e-001 48716 80991,81397,81017
 1.6000e+001 81495 -6.3766e-001  4.3692e-001 -1.2377e-001 48716 80991,80965,81469
 1.6000e+001 81518 -3.7939e-001  2.8845e-001 -1.6447e-003 48716 80991,81469,81325
 1.6000e+001 81717 -4.6513e-002 -5.7384e-001  6.7917e-002 48262 81740,81567,81541
 1.6000e+001 81694 -1.7441e-001 -5.7354e-001  1.3584e-002 48262 81740,81541,81645
 1.6000e+001 81671 -1.2471e-001 -6.2282e-001 -2.1025e-002 48262 81567,81619,81593
 1.6000e+001 81766 -1.2712e-001 -5.8389e-001 -6.5091e-003 48262 81619,81567,81740
 1.6000e+001 81789 -2.6658e-001 -6.1378e-001 -7.0148e-002 48262 81619,81740,81645
 1.6000e+001 81939  9.4777e-001  1.1281e+000 -4.6780e-001 47957 82034,81962,81864
 1.6000e+001 81916  7.2593e-001  8.4219e-001 -1.3883e-001 47957 82166,81962,81838
 1.6000e+001 81988 -5.0191e-001  1.0532e+000 -5.0913e-001 47957 82294,81962,81890
 1.6000e+001 82011  6.4870e-001  1.7582e+000  3.0599e-001 47957 81890,81962,81812
 1.6000e+001 82060  8.6193e-001  1.6475e+000  6.9350e-003 47957 81838,81962,82034
 1.6000e+001 82192  9.3623e-001  9.7591e-001  3.1883e-001 47957 81812,81962,82166
 1.6000e+001 82320  3.4070e-002  1.0969e+000 -6.3248e-001 47957 81864,81962,82294
 1.6000e+001 82549  1.8149e-002 -6.3665e-001 -1.6910e-001 47617 82448,82500,82474
 1.6000e+001 82526  3.0428e-001 -8.1769e-001  2.1429e-003 47617 82422,82500,82448
 1.6000e+001 82902 -4.8962e-001 -1.2941e+000  4.1747e-002 47255 82729,82807,82755
 1.6000e+001 82879 -2.3846e-001 -2.0991e+000  2.9061e-001 47255 82703,82807,82729
 1.6000e+001 82856 -9.8459e-001 -1.3546e+000  5.9555e-001 47255 82755,82807,82781
 1.6000e+001 82833  8.6664e-001 -1.6257e+000  4.0185e-001 47255 82677,82807,82703
 1.6000e+001 83182  3.6074e-001 -9.3165e-001  1.8293e-001 46680 83032,83084,83058
 1.6000e+001 83159  5.0071e-001 -3.6234e-001  1.8713e-001 46680 83205,83084,83032
 1.6000e+001 83136  7.5627e-001 -1.3124e-001 -3.6953e-002 46680 83006,83110,83084
 1.6000e+001 83231  2.9597e-001 -4.8318e-001  1.3728e-001 46680 83006,83084,83205
 1.6000e+001 83737 -7.4804e-001 -3.2729e-001  8.9195e-003 46290 83832,83760,83492
 1.6000e+001 83714 -5.8996e-001 -2.5804e-002 -1.2622e-001 46290 83760,83440,83414
 1.6000e+001 83691 -4.6502e-001 -5.0595e-001 -4.2547e-002 46290 83832,83492,83466
 1.6000e+001 83668 -6.3056e-001 -1.0566e+000  1.9603e-001 46290 83492,83570,83544
 1.6000e+001 83645 -5.4067e-001 -2.0623e-001 -2.8147e-001 46290 83414,83596,83570
 1.6000e+001 83622 -7.7590e-001 -7.9950e-001  4.1348e-001 46290 83492,83544,83518
 1.6000e+001 83786 -7.6864e-001 -3.1131e-001  3.7074e-002 46290 83570,83492,83760
 1.6000e+001 83809 -7.1913e-001 -4.3833e-001 -1.5549e-001 46290 83570,83760,83414
 1.6000e+001 83858 -3.8434e-001 -1.2928e-001  1.0681e-001 46290 83440,83760,83832
 1.6000e+001 83881  1.2571e-001 -2.5162e-001 -8.3238e-003 46290 83440,83832,83466
 1.6000e+001 84161 -1.4996e-001 -8.2281e-001  3.6489e-001 45829 84011,84063,84037
 1.6000e+001 84138  2.8336e-002 -4.8919e-001  1.0931e-001 45829 84011,84089,84063
 1.6000e+001 84115  3.9597e-002 -4.8168e-001  1.6202e-001 45829 83985,84089,84011
 1.6000e+001 84311  3.6982e-001  3.2991e-001  4.1097e-002 45631 84184,84236,84210
 1.6000e+001 84288 -1.1770e-002 -7.8142e-001 -5.4948e-002 45631 84184,84262,84236
 1.6000e+001 84657 -7.7761e-002 -4.9551e-001 -1.8633e-002 45155 84680,84490,84412
 1.6000e+001 84634 -1.4398e-001 -4.4980e-001 -2.5548e-003 45155 84680,84412,84360
 1.6000e+001 84611 -1.3156e-001 -5.3122e-001  1.8903e-002 45155 84412,84490,84438
 1.6000e+001 84588  3.6182e-002 -3.4260e-001 -3.8584e-002 45155 84334,84516,84360
 1.6000e+001 84565 -1.7894e-001 -5.2077e-001 -1.2966e-001 45155 84360,84412,84386
 1.6000e+001 84542 -1.0658e-001 -4.3667e-001  7.2633e-002 45155 84438,84490,84464
 1.6000e+001 84706 -5.0976e-002 -4.5752e-001 -3.1867e-002 45155 84516,84490,84680
 1.6000e+001 84729 -1.0101e-001 -3.9855e-001 -2.3074e-002 45155 84516,84680,84360
 1.6000e+001 85077  2.0657e-001 -1.8718e-001  5.9731e-002 44508 85100,84754,84910
 1.6000e+001 85054  2.2716e-001  1.4266e-001  1.0415e-001 44508 84754,84936,84910
 1.6000e+001 85031  5.6427e-002 -3.4319e-001  2.1037e-001 44508 85100,84910,84884
 1.6000e+001 85008 -1.2761e-001 -3.9376e-001  1.0180e-001 44508 84780,84884,84832
 1.6000e+001 84985  1.2617e-001  6.9414e-002 -1.1424e-001 44508 84780,84832,84806
 1.6000e+001 84962  6.4472e-001  1.4498e-001 -1.3483e-001 44508 84832,84884,84858
 1.6000e+001 85126  8.3585e-002  5.1647e-002 -5.6222e-002 44508 84780,84754,85100
 1.6000e+001 85149 -2.9410e-002 -1.0600e-001  8.1413e-002 44508 84780,85100,84884
 1.6000e+001 85482 -4.1864e-001 -6.8923e-001 -1.0078e-002 44104 85335,85387,85361
 1.6000e+001 85459 -3.6078e-001 -1.0405e+000  3.1437e-002 44104 85309,85387,85335
 1.6000e+001 85436 -1.5946e-001 -8.0560e-001  1.5871e-001 44104 85257,85387,85309
 1.6000e+001 85413 -3.0146e-001 -1.4180e+000  1.0195e-001 44104 85257,85309,85283
 1.6000e+001 85811 -9.2343e-002 -3.3859e-001 -2.9458e-002 43600 85586,85664,85612
 1.6000e+001 85788 -1.6335e-001 -4.2664e-001  1.1853e-002 43600 85586,85690,85664
 1.6000e+001 85765  4.7245e-002 -3.3544e-001 -2.4330e-002 43600 85586,85716,85690
 1.6000e+001 85742 -4.3181e-002 -3.3012e-001 -1.1211e-002 43600 85612,85664,85638
 1.6000e+001 86010  2.2242e-003 -3.9484e-001 -7.0574e-002 43224 85886,85938,85912
 1.6000e+001 85987  1.0224e-001 -3.0899e-002 -1.1407e-001 43224 85834,85938,85886
 1.6000e+001 85964 -2.6336e-001 -4.3781e-001  4.2338e-002 43224 85834,85886,85860
 1.6000e+001 86420  1.8208e+000  9.3625e-001 -3.1046e-001 42820 86195,86299,86221
 1.6000e+001 86397  1.3730e+000  8.7096e-001 -9.3718e-001 42820 86195,86325,86299
 1.6000e+001 86374  1.1938e+000  1.0943e+000 -1.9844e-002 42820 86221,86299,86273
 1.6000e+001 86351  1.0906e+000  6.2421e-001  9.4678e-002 42820 86221,86273,86247
 1.6000e+001 86749  3.6250e-001 -2.8684e-001 -1.3604e-001 42223 86550,86602,86576
 1.6000e+001 86726  1.0677e+000 -6.0805e-001  1.2122e-002 42223 86550,86628,86602
 1.6000e+001 86703  7.1695e-002 -9.4898e-001  3.0721e-001 42223 86524,86628,86550
 1.6000e+001 86680  6.1328e-001 -1.8332e-002  8.2188e-002 42223 86524,86654,86628
 1.6000e+001 87078  6.1140e-001 -2.7882e-001  2.3245e-001 41883 87173,87101,86905
 1.6000e+001 87055  4.7118e-001  3.9103e-001 -2.3237e-002 41883 87101,86879,86853
 1.6000e+001 87032  9.1756e-002 -4.5022e-003  1.3324e-002 41883 86853,86983,86931
 1.6000e+001 87009 -9.4195e-003 -4.2653e-001  1.3867e-001 41883 86931,86983,86957
 1.6000e+001 87127  7.3506e-001 -1.3786e-001  8.1882e-003 41883 86931,86905,87101
 1.6000e+001 87150  1.8933e-001 -2.6619e-001 -2.9956e-002 41883 86931,87101,86853
 1.6000e+001 87199  1.3150e-001 -2.3493e-001  2.1121e-001 41883 86879,87101,87173
 1.6000e+001 87558 -1.5336e-001  4.0006e-001 -6.0574e-002 41471 87382,87460,87408
 1.6000e+001 87535 -7.4432e-001 -2.9780e-002 -2.5183e-001 41471 87382,87486,87460
 1.6000e+001 87512 -2.1522e-001  4.1931e-001 -9.0371e-002 41471 87408,87460,87434
 1.6000e+001 87806  1.4612e-001 -2.7557e-001  6.4303e-002 41017 87829,87607,87581
 1.6000e+001 87783  1.0466e-001 -4.0099e-001  9.7567e-002 41017 87829,87581,87685
 1.6000e+001 87760  2.9715e-001 -1.5325e-001  1.1866e-002 41017 87581,87711,87685
 1.6000e+001 87737  3.1640e-001 -8.0312e-001  4.2469e-002 41017 87633,87685,87659
 1.6000e+001 87855  1.4010e-001 -3.1847e-001  1.5913e-001 41017 87633,87607,87829
 1.6000e+001 87878  8.9320e-002 -4.5107e-001  1.9485e-001 41017 87633,87829,87685
 1.6000e+001 88258 -1.5163e-002  7.7167e-003 -8.7837e-003 40613 88281,88036,88010
 1.6000e+001 88235 -1.5683e-004 -9.0046e-003 -1.4529e-002 40613 88281,88010,88088
 1.6000e+001 88212  6.5074e-004 -6.5806e-003 -1.6164e-002 40613 87984,88088,88010
 1.6000e+001 88189  6.6894e-003  1.0223e-002 -2.4968e-002 40613 87984,88114,88088
 1.6000e+001 88166 -1.7425e-002 -1.8306e-002 -1.3796e-002 40613 87984,88140,88114
 1.6000e+001 88307 -6.1667e-003  2.1670e-002  2.3718e-004 40613 88062,88036,88281
 1.6000e+001 88330  7.9629e-003 -1.4612e-003 -3.8179e-003 40613 88062,88281,88088
 1.6000e+001 88649 -1.8942e-002 -8.8342e-002  5.1119e-003 40095 88375,88505,88401
 1.6000e+001 88626 -1.7237e-002 -6.0895e-002 -8.7044e-003 40095 88375,88531,88505
 1.6000e+001 88603  2.9266e-003 -1.3329e-001 -2.1121e-002 40095 88401,88505,88479
 1.6000e+001 88580  9.1542e-002 -2.7881e-001  2.9649e-002 40095 88427,88479,88453
 1.6000e+001 88557 -4.9982e-002 -2.7646e-001  9.4430e-003 40095 88401,88479,88427
 1.6000e+001 89078  1.0999e+000 -1.3044e-001 -1.1833e-001 39897 89101,88833,88807
 1.6000e+001 89055  6.8167e-001 -5.3687e-001 -3.1465e-001 39897 89101,88807,88911
 1.6000e+001 89032  8.0294e-001 -2.8174e-002 -3.0886e-001 39897 88781,88911,88807
 1.6000e+001 89009  9.4319e-003 -6.3206e-001 -7.2870e-001 39897 88781,88937,88911
 1.6000e+001 88986  2.0878e+000  3.6422e-001 -3.5214e-001 39897 88833,88885,88859
 1.6000e+001 88963  5.8478e-001  3.9390e-003 -4.5816e-001 39897 88755,88937,88781
 1.6000e+001 89127  1.5229e+000 -6.3498e-001 -5.9781e-001 39897 88885,88833,89101
 1.6000e+001 89150  7.7443e-001 -1.2742e+000 -8.8211e-001 39897 88885,89101,88911
 1.6000e+001 89300 -6.9040e-001 -9.7477e-001  1.4557e-001 39607 89453,89323,89199
 1.6000e+001 89277 -1.1176e+000 -8.1475e-001  5.0576e-002 39607 89525,89453,89199
 1.6000e+001 89349 -6.7666e-001 -9.9394e-001 -7.8840e-002 39607 89225,89199,89323
 1.6000e+001 89479 -7.8333e-001 -6.0144e-001  1.5696e-001 39607 89251,89323,89453
 1.6000e+001 89502 -4.2071e-001 -2.3202e-001  4.3276e-001 39607 89251,89453,89173
 1.6000e+001 89551 -1.3268e-001 -4.6179e-001  4.6422e-002 39607 89173,89453,89525
 1.6000e+001 90264 -6.6252e-001 -1.7383e+000 -1.3731e-001 39039 89996,90074,90048
 1.6000e+001 90241 -3.7818e-001 -7.5733e-001 -1.0563e-001 39039 89918,90074,89996
 1.6000e+001 90218 -5.4111e-001 -9.6261e-001 -3.1526e-002 39039 89918,89996,89944
 1.6000e+001 90195 -4.7156e-001 -7.8054e-001 -8.4191e-002 39039 89892,90074,89918
 1.6000e+001 90172  8.4494e-002 -1.7590e+000 -2.2503e-001 39039 89996,90048,90022
 1.6000e+001 90149 -1.0754e+000  3.2887e-001 -1.0575e-001 39039 89892,90100,90074
 1.6000e+001 90126 -8.3476e-001 -1.0945e+000  8.4743e-002 39039 89944,89996,89970
 1.6000e+001 90770 -9.7250e-002 -4.1103e-001  1.3028e-002 38635 90473,90603,90577
 1.6000e+001 90747 -1.4912e-002 -3.6373e-001 -1.6520e-002 38635 90447,90603,90473
 1.6000e+001 90724 -1.9503e-002 -4.3695e-001 -4.5042e-002 38635 90499,90577,90551
 1.6000e+001 90701 -1.5206e-001 -5.4101e-001  4.1817e-002 38635 90473,90577,90499
 1.6000e+001 90678 -7.7040e-002 -6.2582e-001 -7.8099e-003 38635 90499,90551,90525
 1.6000e+001 90655 -1.9258e-001 -4.1298e-001  5.0786e-002 38635 90447,90629,90603
 1.6000e+001 90871 -1.5388e-002 -3.7582e-001 -9.6473e-002 38231 90793,90845,90819
 1.6000e+001 91458 -7.9044e-003 -2.1713e-001 -1.2072e-002 37534 91161,91317,91291
 1.6000e+001 91435 -1.8387e-001 -1.3600e-001  6.1274e-002 37534 91135,91317,91161
 1.6000e+001 91412 -3.1347e-001 -1.1164e+000 -2.3774e-001 37534 91187,91291,91239
 1.6000e+001 91389 -7.6962e-002 -1.1028e+000  1.2072e-001 37534 91161,91291,91187
 1.6000e+001 91366 -7.2402e-002 -8.3906e-001 -1.2786e-001 37534 91239,91291,91265
 1.6000e+001 91343  4.3873e-001 -1.2084e+000 -5.6036e-001 37534 91187,91239,91213
 1.6000e+001 91915 -2.9547e-001 -8.5424e-001  1.4811e-001 37080 91938,91745,91667
 1.6000e+001 91892  7.9412e-003 -8.0402e-001  5.1963e-002 37080 91938,91667,91797
 1.6000e+001 91869  2.0353e-001 -3.0545e-001  1.0314e-001 37080 91641,91797,91667
 1.6000e+001 91846 -2.8688e-001 -9.6066e-001  3.2282e-002 37080 91667,91719,91693
 1.6000e+001 91823 -1.9854e-001 -7.2695e-001  9.4001e-002 37080 91667,91745,91719
 1.6000e+001 91964 -4.4677e-001 -9.7830e-001  4.1413e-001 37080 91771,91745,91938
 1.6000e+001 91987 -1.4573e-001 -8.2175e-001  2.8220e-001 37080 91771,91938,91797
 1.6000e+001 92235 -1.6804e-001 -4.0040e-001 -2.2638e-002 36397 92036,92088,92062
 1.6000e+001 92212 -1.0747e-001 -3.7482e-001 -4.6817e-002 36397 92036,92114,92088
 1.6000e+001 92189 -1.1062e-002 -2.9823e-001  1.1195e-002 36397 92036,92140,92114
 1.6000e+001 92166 -6.8068e-003 -3.9974e-001 -1.4561e-002 36397 92010,92140,92036
 1.6000e+001 92694  1.4267e-001  3.6270e-003 -2.7970e-002 36057 92446,92498,92472
 1.6000e+001 92671  1.7619e-001 -3.0768e-002  5.8942e-002 36057 92446,92550,92498
 1.6000e+001 92648 -4.3320e-002 -3.8035e-001  1.6163e-001 36057 92446,92576,92550
 1.6000e+001 92625  1.3779e-001 -1.0651e-002 -2.9262e-001 36057 92420,92576,92446
 1.6000e+001 92602  3.3330e-002  1.5101e-002  1.6764e-001 36057 92498,92550,92524
 1.6000e+001 93023 -1.5844e-001 -3.4960e-001 -3.4647e-002 35717 92876,92928,92902
 1.6000e+001 93000 -1.2268e-001 -3.8468e-001 -4.8216e-002 35717 92824,92928,92876
 1.6000e+001 92977 -2.1227e-002 -3.8602e-001 -1.2867e-002 35717 92798,92928,92824
 1.6000e+001 92954 -1.6369e-001 -5.2730e-001 -1.1244e-001 35717 92824,92876,92850
 1.6000e+001 93499  3.5905e-001 -4.5442e-001  2.2341e-001 35405 93522,93309,93257
 1.6000e+001 93476  3.7020e-001 -4.0588e-001  2.1800e-001 35405 93666,93522,93257
 1.6000e+001 93453  3.6396e-001 -1.1306e+000  2.3452e-001 35405 93594,93127,93335
 1.6000e+001 93430  2.5584e-001 -4.3683e-001  2.1063e-001 35405 93666,93257,93231
 1.6000e+001 93407  4.6532e-002 -1.4576e+000  3.2785e-002 35405 93127,93179,93153
 1.6000e+001 93384 -4.0280e-001 -3.2277e-001  4.4997e-001 35405 93179,93231,93205
 1.6000e+001 93361  4.2973e-001  2.6173e-001 -5.7501e-003 35405 93257,93309,93283
 1.6000e+001 93548  5.5107e-001 -2.9775e-001  4.2530e-001 35405 93335,93309,93522
 1.6000e+001 93571  3.8330e-001 -6.3769e-001  3.0905e-001 35405 93594,93335,93522
 1.6000e+001 93620  4.3724e-001 -6.1212e-001  1.5772e-001 35405 93179,93127,93594
 1.6000e+001 93643  2.4366e-001 -4.0320e-001  1.7403e-001 35405 93738,93594,93522
 1.6000e+001 93692  2.4439e-001 -4.0536e-001  1.7049e-001 35405 93738,93522,93666
 1.6000e+001 93715  1.9724e-001 -4.1221e-001  1.4697e-001 35405 93179,93666,93231
 1.6000e+001 93764  2.4127e-001 -4.0891e-001  1.7374e-001 35405 93179,93594,93738
 1.6000e+001 93787  2.4248e-001 -4.1074e-001  1.7086e-001 35405 93179,93738,93666
 1.6000e+001 94372  8.2417e-001 -7.6385e-002  5.2186e-002 34951 94395,94127,94075
 1.6000e+001 94349  1.0883e+000 -1.2918e-001  1.5748e-001 34951 94395,94075,94231
 1.6000e+001 94326  1.3288e+000 -3.6709e-001 -3.4044e-001 34951 94049,94231,94075
 1.6000e+001 94303  8.0852e-001  3.6224e-001  1.4928e-001 34951 94075,94127,94101
 1.6000e+001 94280  1.5273e+000  7.2539e-001  6.3477e-001 34951 94127,94205,94153
 1.6000e+001 94257  1.1891e+000 -2.6780e-001  6.7679e-001 34951 94153,94205,94179
 1.6000e+001 94421  1.0321e+000 -1.1596e-001  2.0314e-001 34951 94205,94127,94395
 1.6000e+001 94444  1.5053e+000 -3.4351e-002  3.0038e-001 34951 94205,94395,94231
 1.6000e+001 94692  3.0338e-002 -4.3493e-002  1.0992e-002 34397 94715,94519,94467
 1.6000e+001 94669  3.0396e-002 -2.6575e-002  1.3550e-002 34397 94715,94467,94597
 1.6000e+001 94646  4.7744e-002  3.7291e-002  7.1130e-003 34397 94545,94597,94571
 1.6000e+001 94623 -6.7752e-002 -2.7855e-001  2.1085e-002 34397 94467,94519,94493
 1.6000e+001 94741  2.1205e-002 -9.0128e-002  4.4276e-003 34397 94545,94519,94715
 1.6000e+001 94764  4.1940e-002 -4.0380e-002  8.4602e-003 34397 94545,94715,94597
 1.6000e+001 94985  6.2326e-002 -1.4089e-001  1.3783e-003 33985 94835,94913,94887
 1.6000e+001 94962 -9.1715e-002 -5.4640e-001  7.2206e-002 33985 94809,94913,94835
 1.6000e+001 94939 -3.7266e-002 -1.5998e-001  1.5315e-002 33985 94835,94887,94861
 1.6000e+001 95186 -4.2841e-002 -6.0940e-001 -1.9567e-001 33645 95281,95209,95036
 1.6000e+001 95163  3.7514e-001 -6.2007e-001  3.6743e-002 33645 95209,95010,95088
 1.6000e+001 95140  3.6430e-001 -3.1995e-001 -6.9086e-004 33645 95010,95114,95088
 1.6000e+001 95235 -2.5247e-001 -7.6570e-001 -3.1839e-001 33645 95062,95036,95209
 1.6000e+001 95258 -1.8447e-001 -8.4093e-001  2.5983e-001 33645 95413,95209,95088
 1.6000e+001 95307  2.9100e-001 -2.4260e-002 -4.0248e-001 33645 95010,95209,95281
 1.6000e+001 95439  1.6222e-001 -4.5946e-001  1.1020e-001 33645 95062,95209,95413
 1.6000e+001 95766 -1.6825e-001 -1.3679e-001 -2.8118e-001 33141 95789,95593,95567
 1.6000e+001 95743  2.6247e-002 -2.6909e-001 -8.9376e-002 33141 95861,95789,95567
 1.6000e+001 95720  1.4210e-002 -2.3912e-001 -3.3861e-002 33141 95861,95567,95671
 1.6000e+001 95697  1.9897e-002 -2.7049e-001 -4.3507e-002 33141 95541,95671,95567
 1.6000e+001 95815 -1.1011e-002  2.3341e-001 -2.4050e-001 33141 95619,95593,95789
 1.6000e+001 95838  5.5335e-002 -9.8203e-002 -8.0769e-002 33141 95619,95789,95645
 1.6000e+001 95887  6.8868e-002 -1.7081e-001 -9.4456e-002 33141 95645,95789,95861
 1.6000e+001 95910  5.5649e-002 -1.4145e-001 -3.1369e-002 33141 95645,95861,95671
 1.6000e+001 96060 -1.5550e-001 -3.4802e-001 -1.1674e-001 32487 95959,96011,95985
 1.6000e+001 96037  1.6367e-003 -3.4004e-001 -1.7053e-002 32487 95933,96011,95959
 1.6000e+001 96570 -2.0645e-001 -4.3738e-001  2.6199e-001 32033 96665,96593,96377
 1.6000e+001 96547 -1.7202e-001 -4.3383e-001 -1.0079e-001 32033 96737,96593,96325
 1.6000e+001 96524 -2.6899e-001 -5.7888e-001  1.6303e-001 32033 96665,96377,96351
 1.6000e+001 96501 -2.6868e-001 -6.3910e-001 -7.2080e-002 32033 96737,96325,96299
 1.6000e+001 96478 -2.9218e-001 -1.7559e-001 -6.0756e-002 32033 96247,96429,96299
 1.6000e+001 96455 -6.8641e-001 -1.2710e+000 -4.1371e-002 32033 96247,96299,96273
 1.6000e+001 96619  1.0835e-001 -1.9909e-001  3.2187e-001 32033 96809,96593,96403
 1.6000e+001 96642  3.2194e-001  3.7041e-001 -2.9903e-001 32033 96403,96593,96429
 1.6000e+001 96691  5.2566e-002 -7.7903e-001  8.4363e-002 32033 96325,96593,96665
 1.6000e+001 96714 -1.6942e-001 -1.0418e+000 -5.3218e-002 32033 96325,96665,96351
 1.6000e+001 96763 -2.7987e-001 -3.5973e-001 -3.6868e-003 32033 96429,96593,96737
 1.6000e+001 96786 -3.1674e-001 -4.5340e-001 -3.2570e-003 32033 96429,96737,96299
 1.6000e+001 96835 -2.3193e-002 -3.5677e-001  2.4890e-001 32033 96377,96593,96809
 1.6000e+001 97064  4.9971e-003 -6.0438e-002 -1.2402e-002 31671 97087,96989,96963
 1.6000e+001 97041 -3.0897e-002 -8.5165e-002  1.4933e-002 31671 97087,96963,96937
 1.6000e+001 97113  2.8082e-002 -2.8055e-002 -3.4912e-002 31671 97159,97087,97015
 1.6000e+001 97136  2.0197e-002  4.0653e-002  8.3201e-003 31671 97015,97087,96937
 1.6000e+001 97185 -1.1825e-002 -1.0085e-001 -1.3912e-002 31671 96989,97087,97159
 1.6000e+001 97563  3.5095e-002 -3.3333e-002 -2.5479e-004 31117 97586,97367,97341
 1.6000e+001 97540  1.9798e-002 -2.3540e-002  1.1214e-002 31117 97658,97586,97341
 1.6000e+001 97517  3.9990e-003 -2.0549e-002  4.7246e-003 31117 97658,97341,97315
 1.6000e+001 97494  7.9255e-002 -8.9821e-003  7.1628e-003 31117 97289,97445,97315
 1.6000e+001 97471  3.8168e-002  3.1261e-002 -6.8718e-003 31117 97367,97419,97393
 1.6000e+001 97612  3.1258e-002  3.7285e-003 -3.9516e-003 31117 97419,97367,97586
 1.6000e+001 97635  5.6143e-002 -1.1191e-002  2.7354e-002 31117 97419,97586,97445
 1.6000e+001 97684  4.8426e-002 -2.7321e-002  1.2115e-002 31117 97445,97586,97658
 1.6000e+001 97707  3.0075e-002 -2.6632e-002  5.1580e-003 31117 97445,97658,97315
 1.6000e+001 98215  9.0747e-002 -7.6079e-002 -1.5350e-001 30563 98238,97996,97944
 1.6000e+001 98192 -1.1012e-001 -6.7018e-002 -1.6704e-001 30563 98310,98238,97944
 1.6000e+001 98169 -3.0428e-001 -2.5455e-001 -3.0575e-001 30563 98310,97944,97918
 1.6000e+001 98146  2.4751e-001 -6.2670e-002 -6.3016e-002 30563 97892,98074,97918
 1.6000e+001 98123  2.0552e-001 -1.4876e-001  8.3177e-002 30563 97996,98048,98022
 1.6000e+001 98100 -1.9676e-001 -1.7250e-001 -1.7509e-001 30563 97944,97996,97970
 1.6000e+001 98264  1.9478e-002 -1.5409e-002 -1.0850e-001 30563 98048,97996,98238
 1.6000e+001 98287  2.0443e-001  2.8769e-001  1.1469e-001 30563 98048,98238,98074
 1.6000e+001 98336  1.0267e-001 -9.4402e-002 -1.1698e-002 30563 98074,98238,98310
 1.6000e+001 98359 -3.9063e-002 -1.1930e-001 -1.1193e-001 30563 98074,98310,97918
 1.6000e+001 98607 -2.4608e-001 -8.3099e-002  1.5779e-002 30073 98630,98460,98408
 1.6000e+001 98584 -4.1177e-001 -1.6258e-001 -2.8224e-002 30073 98630,98408,98382
 1.6000e+001 98561 -8.5488e-002 -1.5712e-001 -3.1743e-002 30073 98382,98512,98486
 1.6000e+001 98538 -1.1754e-001 -1.2631e-001  1.0728e-001 30073 98408,98460,98434
 1.6000e+001 98656 -1.5121e-001 -1.9573e-001 -1.9643e-002 30073 98486,98460,98630
 1.6000e+001 98679 -2.5885e-001 -2.3091e-001 -5.2494e-002 30073 98486,98630,98382
 1.6000e+001 99157  9.4510e-001 -1.6741e-001  1.6364e-001 29669 99180,98837,98811
 1.6000e+001 99134  7.7049e-001 -1.3475e-001  3.8104e-001 29669 99324,99180,98811
 1.6000e+001 99111  5.6004e-001 -3.0333e-004  4.7904e-002 29669 99252,98863,98837
 1.6000e+001 99088  7.5082e-001 -2.4551e-001  4.1410e-001 29669 99324,98811,98993
 1.6000e+001 99065  5.2270e-001  1.7773e-001  8.6920e-002 29669 98863,98941,98915
 1.6000e+001 99042 -5.4930e-001  1.4215e-002  1.6328e-002 29669 98863,98915,98889
 1.6000e+001 99019  3.6771e-001 -3.7604e-001  5.8925e-001 29669 98785,98993,98811
 1.6000e+001 99206  6.3145e-001 -3.0050e-001  1.4243e-001 29669 99252,98837,99180
 1.6000e+001 99229  3.2062e-001 -2.1067e-001  4.5891e-001 29669 98941,99180,98967
 1.6000e+001 99278  5.5994e-001  1.9869e-001  1.0112e-001 29669 98941,98863,99252
 1.6000e+001 99301  7.6540e-001  7.6929e-002  2.3102e-001 29669 98941,99252,99180
 1.6000e+001 99350  7.3568e-001  2.5393e-003  3.6949e-001 29669 98967,99180,99324
 1.6000e+001 99373  7.4331e-001 -8.6183e-002  3.8579e-001 29669 98967,99324,98993
 1.6000e+001 99958  4.5860e-001  3.7445e-001  1.6464e-001 29051 99981,99765,99739
 1.6000e+001 99935  1.4952e-001 -2.8612e-002  2.7746e-002 29051 99981,99739,99661
 1.6000e+001 99912  2.0517e-001 -1.1296e+000  4.3289e-002 29051 99765,99817,99791
 1.6000e+001 99889  2.4199e-001 -4.0547e-001 -4.5100e-002 29051 99635,99817,99661
 1.6000e+001 99866 -1.2316e-001 -4.0649e-002  2.2755e-001 29051 99661,99739,99687
 1.6000e+001 99843 -3.0201e-001 -1.0656e-002  1.5324e-001 29051 99687,99739,99713
 1.6000e+001 100007  6.4163e-001 -2.9192e-002  1.9782e-001 29051 99817,99765,99981
 1.6000e+001 100030  4.8886e-001 -2.0610e-001  1.3213e-001 29051 99817,99981,99661
 1.6000e+001 100278  4.5241e-001 -2.5921e-001  1.8923e-001 28525 100445,100301,100131
 1.6000e+001 100255  2.2360e-001  9.6853e-002  1.2629e-001 28525 100373,100301,100079
 1.6000e+001 100232  1.9912e-001 -1.9096e-001  1.6283e-001 28525 100373,100079,100053
 1.6000e+001 100209  2.6509e-001 -1.3386e-001  5.6057e-002 28525 100445,100131,100105
 1.6000e+001 100327  6.0500e-001 -2.1105e-001  2.9913e-001 28525 100517,100301,100157
 1.6000e+001 100350  4.9677e-001  5.0934e-001  3.3115e-001 28525 100157,100301,100183
 1.6000e+001 100399  2.1537e-001 -2.0395e-001  2.7443e-001 28525 100183,100301,100373
 1.6000e+001 100422  2.5604e-001 -4.0812e-001  3.0864e-001 28525 100183,100373,100053
 1.6000e+001 100471  2.0351e-001 -2.7886e-001 -1.1827e-001 28525 100079,100301,100445
 1.6000e+001 100494 -3.3310e-001 -3.9846e-001 -2.6032e-001 28525 100079,100445,100105
 1.6000e+001 100543  8.0809e-001  5.5030e-002  3.8941e-002 28525 100131,100301,100517
 1.6000e+001 101209 -6.3215e-001 -1.3993e-001 -5.0376e-002 28185 100938,101016,100990
 1.6000e+001 101186 -7.9872e-001 -4.0234e-002  3.6430e-002 28185 100912,101016,100938
 1.6000e+001 101163 -2.2309e-001  1.2632e-001  1.2773e-001 28185 100912,101068,101016
 1.6000e+001 101140 -7.6879e-001  1.5350e-001  7.8997e-002 28185 100886,101068,100912
 1.6000e+001 101117 -2.1548e-001  3.9860e-001  1.8005e-001 28185 101016,101068,101042
 1.6000e+001 101094 -1.8546e+000 -4.7491e-001 -9.2756e-002 28185 100938,100990,100964
 1.6000e+001 101408  1.6982e-001 -1.7439e-001 -1.0762e-001 27781 101503,101431,101310
 1.6000e+001 101385 -1.1609e-001  1.2450e-002 -3.5526e-001 27781 101431,101258,101232
 1.6000e+001 101362  2.0313e-001 -1.9341e-001 -1.2623e-001 27781 101503,101310,101284
 1.6000e+001 101457  7.3055e-001  7.1562e-002 -1.6698e-001 27781 101336,101310,101431
 1.6000e+001 101480  1.8716e-001  1.4764e-001 -3.8048e-001 27781 101575,101431,101232
 1.6000e+001 101529  3.3654e-001 -1.5265e-001 -2.9559e-001 27781 101258,101431,101503
 1.6000e+001 101552  2.3361e-001 -1.8902e-001 -1.4488e-001 27781 101705,101503,101284
 1.6000e+001 101601  3.7925e-001  4.7026e-001 -4.6282e-001 27781 101336,101431,101575
 1.6000e+001 101731 -8.2325e-002 -3.2248e-001 -3.0949e-001 27781 101258,101503,101705
 1.6000e+001 102237 -2.3459e-001 -1.6841e-001  3.9903e-002 27419 102476,102260,101992
 1.6000e+001 102214 -1.0353e-001 -2.9354e-001  3.6552e-003 27419 102260,101940,101914
 1.6000e+001 102191 -3.1742e-001 -3.6532e-001  3.4276e-002 27419 102404,102332,102096
 1.6000e+001 102168 -2.7032e-001 -3.6209e-001 -1.5235e-002 27419 102404,102096,102044
 1.6000e+001 102145 -2.0815e-001 -1.9019e-001  5.6391e-002 27419 102476,101992,101966
 1.6000e+001 102122 -1.9264e-001 -3.8486e-001 -2.0290e-002 27419 102044,102096,102070
 1.6000e+001 102286 -3.1908e-001 -2.8443e-001  7.6920e-002 27419 102018,101992,102260
 1.6000e+001 102309 -2.6296e-001 -2.5167e-001  8.8854e-003 27419 102332,102018,102260
 1.6000e+001 102358 -2.9969e-001 -5.2481e-001  1.3682e-001 27419 101914,102096,102332
 1.6000e+001 102381 -1.9898e-001 -3.9546e-001  4.7067e-002 27419 101914,102332,102260
 1.6000e+001 102430 -2.1507e-001 -3.3665e-001  1.0212e-002 27419 102018,102332,102404
 1.6000e+001 102453 -1.8576e-001 -3.3251e-001 -4.4389e-002 27419 102018,102404,102044
 1.6000e+001 102502 -1.4572e-001 -2.6483e-001  5.9851e-002 27419 101940,102260,102476
 1.6000e+001 102525  2.5039e-001 -6.6594e-002 -7.1556e-003 27419 101940,102476,101966
 1.6000e+001 103031 -5.2526e-001 -5.2626e-001  5.2365e-001 26715 102708,102786,102760
 1.6000e+001 103008  1.2406e-001 -3.7673e-001  1.7512e-001 26715 102708,102890,102786
 1.6000e+001 102985  5.6897e-001 -8.6118e-001  2.2507e-001 26715 102838,102890,102864
 1.6000e+001 102962  2.2580e-001 -2.6591e-001  2.5375e-001 26715 102786,102890,102838
 1.6000e+001 102939  1.0622e+000  1.3031e-001  5.6633e-001 26715 102786,102838,102812
 1.6000e+001 102916 -5.4236e-001 -1.9262e-002  9.5078e-002 26715 102708,102760,102734
 1.6000e+001 103279  3.8179e-003 -2.4938e-002  3.3668e-002 26303 103302,103158,103080
 1.6000e+001 103256 -3.8230e-002  1.7620e-002  3.7036e-002 26303 103302,103080,103054
 1.6000e+001 103233 -8.6912e-002 -7.0148e-002  1.4253e-002 26303 103080,103158,103106
 1.6000e+001 103210  1.2456e-001 -1.3548e-002  1.7801e-002 26303 103106,103158,103132
 1.6000e+001 103328  6.9363e-002  1.7239e-002  1.5142e-002 26303 103184,103158,103302
 1.6000e+001 103351 -9.5231e-003  3.0952e-002  2.8514e-002 26303 103184,103302,103054
 1.6000e+001 103501 -1.4229e-001 -3.7727e-001 -3.9749e-003 25849 103374,103426,103400
 1.6000e+001 103478 -2.0798e-001 -3.0626e-001  2.7074e-002 25849 103374,103452,103426
 1.6000e+001 104090  1.0424e-001 -3.0485e-002  1.3303e-001 25445 103793,103871,103819
 1.6000e+001 104067  2.8483e-001  4.6956e-002  5.5552e-002 25445 103793,103949,103871
 1.6000e+001 104044  3.3177e-001  1.0921e-002  1.5308e-001 25445 103871,103949,103923
 1.6000e+001 104021 -8.3872e-003  1.8902e-002 -3.6573e-002 25445 103819,103871,103845
 1.6000e+001 103998  3.9465e-001  1.4722e-001  1.6187e-001 25445 103767,103949,103793
 1.6000e+001 103975  3.7938e-001  5.4717e-002  1.7134e-001 25445 103871,103923,103897
 1.6000e+001 104419 -9.2150e-002 -1.0444e-001 -6.5251e-002 25083 104220,104298,104272
 1.6000e+001 104396 -2.0801e-001 -2.7091e-001 -8.1869e-003 25083 104220,104324,104298
 1.6000e+001 104373 -6.3234e-002 -7.7013e-002 -4.7527e-002 25083 104220,104272,104246
 1.6000e+001 104350 -1.8453e-001 -2.9328e-001 -1.2407e-002 25083 104194,104324,104220
 1.6000e+001 105102  8.3820e-002 -1.8568e-001  5.8831e-002 24793 104785,104863,104837
 1.6000e+001 105079  1.1002e-001 -2.5496e-001 -1.0239e-001 24793 104759,104863,104785
 1.6000e+001 105056  8.4377e-002 -3.1850e-002 -1.0337e-001 24793 104759,104915,104863
 1.6000e+001 105033  1.1098e-001 -1.4798e-001 -1.4992e-001 24793 104733,104915,104759
 1.6000e+001 105010  3.9532e-001  1.1049e-001 -1.5398e-001 24793 104863,104915,104889
 1.6000e+001 104987 -5.8894e-002  1.4666e-002 -2.7928e-001 24793 104681,104915,104733
 1.6000e+001 104964 -1.3815e-003 -2.6243e-001  1.4354e-002 24793 104785,104837,104811
 1.6000e+001 104941 -3.3575e-002  2.4458e-001 -2.4176e-001 24793 104681,104733,104707
 1.6000e+001 105252  1.0552e+000  4.1487e-001  8.5035e-003 24389 105477,105275,105177
 1.6000e+001 105229  3.5157e-001  6.9551e-002  2.7751e-001 24389 105347,105275,105151
 1.6000e+001 105301  1.0268e+000  2.2349e-001  1.5627e-002 24389 105203,105177,105275
 1.6000e+001 105324  1.3587e+000  9.2086e-001  3.5601e-001 24389 105203,105275,105125
 1.6000e+001 105373  1.0672e+000  4.9104e-001  4.8825e-002 24389 105125,105275,105347
 1.6000e+001 105503  7.4506e-001 -1.9549e-001 -1.0107e-001 24389 105151,105275,105477
 1.6000e+001 106088 -2.6654e-001  2.7223e-001  3.1703e-001 23735 105791,105921,105895
 1.6000e+001 106065 -8.2331e-001  1.3320e-001  4.5959e-001 23735 105765,105921,105791
 1.6000e+001 106042 -7.7629e-002  5.1978e-001  2.8455e-001 23735 105765,105947,105921
 1.6000e+001 106019 -1.0433e+000 -3.3261e-002  3.9188e-001 23735 105817,105895,105869
 1.6000e+001 105996 -6.6299e-001  1.1018e-001  3.9841e-001 23735 105791,105895,105817
 1.6000e+001 105973 -6.2289e-001 -2.8845e-001  4.2712e-001 23735 105817,105869,105843
 1.6000e+001 106417  4.2571e-001  7.9828e-001 -1.0712e-001 23295 106218,106296,106270
 1.6000e+001 106394  3.8611e-001  3.7201e-001 -1.2890e-001 23295 106218,106322,106296
 1.6000e+001 106371  1.7502e-001  2.5283e-001 -1.9950e-001 23295 106218,106270,106244
 1.6000e+001 106348  5.3961e-001  4.3761e-001 -4.6920e-002 23295 106192,106322,106218
 1.6000e+001 106746 -1.9140e-001  2.5588e-001  2.4960e-001 23005 106521,106599,106547
 1.6000e+001 106723  3.1058e-001  7.3382e-001  5.3297e-002 23005 106521,106651,106599
 1.6000e+001 106700  4.3377e-001  1.1523e-001 -1.5509e-001 23005 106547,106599,106573
 1.6000e+001 106677  4.0554e-001  6.4330e-001  3.5333e-001 23005 106599,106651,106625
 1.6000e+001 107331 -7.7371e-002  2.3608e-001 -2.5696e-001 22601 107060,107190,107138
 1.6000e+001 107308 -7.5869e-001  7.3362e-001 -4.8619e-001 22601 107034,107190,107060
 1.6000e+001 107285 -1.6965e+000 -4.6264e-001 -3.1405e-001 22601 107060,107138,107112
 1.6000e+001 107262 -1.0827e+000  1.2474e+000  6.8785e-001 22601 107008,107190,107034
 1.6000e+001 107239  2.8825e-001 -2.4543e+000  1.3553e-001 22601 107060,107112,107086
 1.6000e+001 107216 -9.0024e-001  2.0549e+000  4.3520e-001 22601 107138,107190,107164
 1.6000e+001 107807 -1.3624e-001  8.8994e-002 -2.5330e-002 22031 107974,107902,107617
 1.6000e+001 107784 -1.4819e-001  2.2713e-001 -9.1594e-002 22031 107830,107565,107513
 1.6000e+001 107761 -2.3670e-002  4.7142e-002 -1.1222e-001 22031 108046,107830,107513
 1.6000e+001 107738 -8.1936e-002  1.9223e-001  1.2678e-002 22031 107974,107617,107591
 1.6000e+001 107715 -4.3923e-002  8.3829e-003 -1.2243e-001 22031 108046,107513,107461
 1.6000e+001 107692 -4.3152e-001  2.9573e-001 -1.5400e-001 22031 107513,107565,107539
 1.6000e+001 107669  9.0613e-002  2.0034e-001 -1.9172e-001 22031 107461,107513,107487
 1.6000e+001 107856 -2.1243e-001  1.4660e-001 -5.3013e-002 22031 107902,107565,107830
 1.6000e+001 107879 -7.3290e-002 -6.7792e-002 -2.0167e-003 22031 107643,107830,107435
 1.6000e+001 107928 -3.7105e-001  1.4908e-001 -1.7885e-001 22031 107643,107617,107902
 1.6000e+001 107951 -2.0806e-001  1.3423e-001  2.6300e-002 22031 107643,107902,107830
 1.6000e+001 108000 -1.7220e-001  2.3640e-001 -4.5148e-002 22031 107565,107902,107974
 1.6000e+001 108023 -1.6998e-001  2.1085e-001 -3.9183e-002 22031 107565,107974,107591
 1.6000e+001 108072  2.3477e-002  2.3072e-003 -5.2124e-002 22031 107435,107830,108046
 1.6000e+001 108095 -4.6341e-003 -5.9558e-002 -6.4218e-002 22031 107435,108046,107461
 1.6000e+001 108196  5.6909e-002 -8.5249e-002  1.2101e-002 21783 108118,108170,108144
 1.6000e+001 108655  1.3747e-001  7.8281e-001  4.5864e-001 21379 108407,108485,108459
 1.6000e+001 108632  1.6245e+000  2.4129e-001  5.4538e-001 21379 108407,108511,108485
 1.6000e+001 108609  1.6125e+000  5.6616e-001  9.2686e-001 21379 108381,108511,108407
 1.6000e+001 108586  6.8435e-001  1.3136e+000 -9.6088e-002 21379 108381,108537,108511
 1.6000e+001 108563  4.1306e-001  1.0689e-001  2.0935e-001 21379 108407,108459,108433
 1.6000e+001 109082  1.4202e-001 -4.6735e-001 -3.5051e-002 20974 109105,108863,108811
 1.6000e+001 109059 -1.2573e-001 -5.8448e-001 -1.5935e-002 20974 109105,108811,108759
 1.6000e+001 109036  1.0281e-002 -1.2808e+000  1.4136e-001 20974 109177,108889,108863
 1.6000e+001 109013 -8.0654e-002 -4.4699e-001  3.0695e-002 20974 108811,108863,108837
 1.6000e+001 108990  1.0387e-001 -6.1546e-002 -1.3343e-002 20974 108759,108941,108915
 1.6000e+001 108967  5.9484e-002 -5.7750e-002 -3.8263e-003 20974 108759,108811,108785
 1.6000e+001 109131 -1.0424e-001 -1.0075e+000  3.5516e-002 20974 109177,108863,109105
 1.6000e+001 109154  1.4623e-002 -3.4916e-002 -3.8673e-002 20974 108915,109105,108759
 1.6000e+001 109203 -1.1655e-001 -1.0703e+000 -2.2341e-001 20974 108915,108889,109177
 1.6000e+001 109226  1.3805e-002 -3.5945e-001 -2.7464e-001 20974 108915,109177,109105
 1.6000e+001 109496 -2.9983e-001  5.5792e-002 -4.0150e-002 20470 109271,109375,109297
 1.6000e+001 109473 -2.6237e-001  9.1096e-002 -5.6461e-002 20470 109271,109401,109375
 1.6000e+001 109450 -3.6327e-001 -3.5447e-003 -6.4629e-002 20470 109297,109375,109349
 1.6000e+001 109427 -5.3423e-001 -3.2946e-001  1.1292e-001 20470 109297,109349,109323
 1.6000e+001 109955  1.0299e-001  4.4839e-001  3.1761e-001 20123 110050,109733,109707
 1.6000e+001 109932 -1.8103e-001  3.2438e-001  2.7570e-001 20123 110050,109707,109681
 1.6000e+001 109909  1.6784e-001  1.8626e-001  2.5378e-001 20123 109978,109759,109733
 1.6000e+001 109886  6.2152e-002  1.5754e-001  2.4282e-001 20123 110122,109978,109733
 1.6000e+001 109863  1.8153e-001  7.7525e-002  2.0815e-001 20123 109785,109837,109811
 1.6000e+001 110004  1.6455e-001  1.9682e-001  2.1123e-001 20123 109785,109759,109978
 1.6000e+001 110027  1.4577e-001  1.7714e-001  1.8785e-001 20123 109785,109978,109837
 1.6000e+001 110076 -4.5241e-003  2.4333e-001  2.0198e-001 20123 110122,109733,110050
 1.6000e+001 110099 -1.7530e-002  3.7294e-001  1.4817e-001 20123 109837,110050,109681
 1.6000e+001 110148  1.8952e-001  2.7789e-001  1.9263e-001 20123 109837,109978,110122
 1.6000e+001 110171  1.3081e-001  3.5466e-001  1.5153e-001 20123 109837,110122,110050
 1.6000e+001 110500  4.0231e-001 -1.3340e-002  1.3310e-002 19511 110301,110379,110353
 1.6000e+001 110477  9.4919e-001  4.3206e-001 -2.1472e-001 19511 110301,110405,110379
 1.6000e+001 110454  4.0277e-001  1.1210e-001  5.4970e-003 19511 110275,110405,110301
 1.6000e+001 110431  3.6283e-001 -8.0437e-002  5.2325e-002 19511 110301,110353,110327
 1.6000e+001 110957  2.2593e-001  1.1899e+000  1.4762e-001 19107 110683,110735,110709
 1.6000e+001 110934  4.7460e-001  7.0352e-001 -2.1504e-001 19107 110683,110813,110735
 1.6000e+001 110911  9.3664e-001  1.1309e+000  3.0345e-002 19107 110735,110813,110761
 1.6000e+001 110888  1.1434e+000  5.7032e-001  4.6299e-001 19107 110683,110839,110813
 1.6000e+001 110865  9.4384e-001  9.8338e-001 -2.2770e-001 19107 110761,110813,110787
 1.6000e+001 111335  6.8393e-001 -8.9387e-001  3.8654e-001 18653 111087,111165,111139
 1.6000e+001 111312  7.0907e-001 -2.2296e-002  1.3734e-001 18653 111087,111217,111165
 1.6000e+001 111289  1.5089e-001 -3.6533e-001  8.4886e-001 18653 111061,111217,111087
 1.6000e+001 111266  1.1348e+000 -1.1198e+000  1.2058e+000 18653 111087,111139,111113
 1.6000e+001 111243  6.0627e-001 -6.4154e-002 -1.4424e-001 18653 111165,111217,111191
 1.6000e+001 111735 -4.1028e-001 -2.8435e-001  1.1304e-001 18213 111461,111513,111487
 1.6000e+001 111712 -2.4983e-001 -2.9694e-001  4.9141e-002 18213 111461,111617,111513
 1.6000e+001 111689 -1.6829e-001 -1.0043e-001  7.3491e-002 18213 111513,111617,111591
 1.6000e+001 111666 -5.5762e-002 -1.5604e-001  1.0051e-001 18213 111513,111591,111539
 1.6000e+001 111643  8.9592e-002 -4.4389e-002  4.4944e-002 18213 111539,111591,111565
 1.6000e+001 111885 -3.5027e-001 -2.9164e+000 -3.9115e-002 17659 111784,111836,111810
 1.6000e+001 111862 -2.2105e-001 -2.0514e+000  3.1734e-001 17659 111758,111836,111784
 1.6000e+001 112287 -4.3367e-001 -2.2818e+000 -8.0647e-001 17411 112065,112169,112143
 1.6000e+001 112264 -1.3069e+000 -8.8175e-001 -7.4671e-001 17411 112039,112169,112065
 1.6000e+001 112241 -9.1687e-001 -4.2588e-001 -2.6608e-001 17411 112013,112169,112039
 1.6000e+001 112218  2.9761e+000 -1.6427e+000 -8.7791e-001 17411 112091,112143,112117
 1.6000e+001 112195 -2.8976e-002 -1.9266e+000 -2.0059e-001 17411 112065,112143,112091
 1.6000e+001 112508 -2.7770e-001  2.7693e-001  4.3156e-002 17007 112384,112436,112410
 1.6000e+001 112485 -1.7610e-001  3.7602e-001  8.5869e-002 17007 112332,112436,112384
 1.6000e+001 112462 -2.6844e-001  1.9640e-001  5.3058e-002 17007 112332,112384,112358
 1.6000e+001 112658 -7.1652e-001 -4.7429e-001  3.4662e-001 16553 112557,112609,112583
 1.6000e+001 112635 -1.2875e+000 -3.6039e-002  4.7456e-001 16553 112531,112609,112557
 1.6000e+001 112761  1.4800e-001 -7.1723e-001  3.4614e-002 16355 112683,112735,112709
 1.6000e+001 112913 -4.9168e-001  3.4976e-001  3.5497e-002 15949 112786,112838,112812
 1.6000e+001 112890 -1.9199e-001  8.7227e-001 -1.0300e-001 15949 112786,112864,112838
 1.6000e+001 113065  8.4824e-002 -3.3534e-001 -6.8654e-003 15609 112938,112990,112964
 1.6000e+001 113042 -7.9024e-002 -7.9465e-001 -2.2867e-001 15609 112938,113016,112990
 1.6000e+001 113420  4.6938e-001  3.3664e-001  1.1383e-001 15284 113247,113325,113299
 1.6000e+001 113397  4.5379e-001  2.9652e-001  4.2205e-002 15284 113195,113325,113247
 1.6000e+001 113374  3.2238e-001  2.4259e-001  4.4575e-002 15284 113195,113247,113221
 1.6000e+001 113351  3.8434e-001  4.9273e-001  1.0441e-001 15284 113247,113299,113273
 1.6000e+001 113521  1.1893e-001 -1.2454e-001  7.6291e-002 202 113443,113495,113469
 1.6500e+001 65564  1.3888e-001 -1.2802e-001  3.5767e-002 65155 65414,65466,65440
 1.6500e+001 65541  1.7861e-001  3.5056e-002  4.2377e-002 65155 65414,65492,65466
 1.6500e+001 65518  1.6846e-002 -9.7004e-003 -1.5869e-002 65155 65388,65492,65414
 1.6500e+001 65883  1.5004e-001 -7.4951e-001 -1.4827e-002 64957 65635,65739,65713
 1.6500e+001 65860  1.2893e-001 -1.1136e+000 -5.7251e-002 64957 65635,65765,65739
 1.6500e+001 65837 -8.8250e-002 -1.2295e+000 -3.0188e-003 64957 65609,65765,65635
 1.6500e+001 65814  1.3312e-001 -9.0795e-001  2.4997e-001 64957 65635,65713,65687
 1.6500e+001 65791  7.9073e-003 -1.0789e+000  1.6150e-001 64957 65635,65687,65661
 1.6500e+001 65984 -4.2137e-002  1.9368e-002  4.2131e-002 64781 65906,65958,65932
 1.6500e+001 66232 -3.4104e-001 -4.2645e-001  3.7952e-001 64469 66007,66059,66033
 1.6500e+001 66209  5.7698e-002 -4.3791e-001  4.3499e-001 64469 66007,66085,66059
 1.6500e+001 66186 -2.6840e-001 -1.1688e+000  5.7307e-001 64469 66007,66137,66085
 1.6500e+001 66163 -1.4380e-001 -1.4676e+000  1.1945e+000 64469 66085,66137,66111
 1.6500e+001 66504  1.2207e-002 -1.0726e+000  2.5165e-002 64271 66279,66383,66305
 1.6500e+001 66481  1.1755e-001 -1.0705e+000 -3.4527e-002 64271 66279,66409,66383
 1.6500e+001 66458  2.0514e-001 -1.3536e+000  2.8078e-002 64271 66305,66357,66331
 1.6500e+001 66435 -7.8138e-002 -1.2202e+000  6.4540e-002 64271 66305,66383,66357
 1.6500e+001 66705  4.0174e-001 -2.8826e+000  2.3366e-001 64073 66728,66581,66555
 1.6500e+001 66682  3.9496e-001 -2.0550e+000  4.4088e-001 64073 66728,66555,66529
 1.6500e+001 66659  2.2469e-001 -1.8061e+000 -3.4031e-001 64073 66581,66633,66607
 1.6500e+001 66754 -1.1718e-001 -2.1042e+000 -6.7831e-002 64073 66633,66581,66728
 1.6500e+001 66777  8.8601e-002 -1.0153e+000  1.6951e-002 64073 66633,66728,66529
 1.6500e+001 66951 -1.3433e-001 -4.2280e-001 -6.4971e-002 63783 66824,66876,66850
 1.6500e+001 66928  4.9379e-001 -3.5571e-001  1.8698e-001 63783 66824,66902,66876
 1.6500e+001 67201 -6.0481e-001 -1.4068e+000 -1.3967e-001 63585 66976,67080,67054
 1.6500e+001 67178 -1.0596e-001 -1.2161e+000  7.4866e-002 63585 66976,67106,67080
 1.6500e+001 67155  2.1136e-001 -1.6842e+000 -5.8470e-001 63585 66976,67054,67028
 1.6500e+001 67132 -6.4373e-003 -2.2142e+000 -5.3137e-001 63585 66976,67028,67002
 1.6500e+001 67654  8.3347e-002 -8.2437e-001 -1.9204e-002 63295 67357,67487,67383
 1.6500e+001 67631  8.8249e-002 -1.0276e+000  1.2152e-001 63295 67331,67487,67357
 1.6500e+001 67608 -6.1378e-002 -1.2098e+000 -2.0445e-002 63295 67331,67513,67487
 1.6500e+001 67585  1.5885e-003 -1.2297e+000  4.9151e-003 63295 67435,67487,67461
 1.6500e+001 67562 -6.1220e-002 -1.2500e+000  2.9037e-003 63295 67383,67487,67435
 1.6500e+001 67539  2.8237e-002 -1.1491e+000  4.1459e-002 63295 67383,67435,67409
 1.6500e+001 67853 -5.9176e-002 -1.1120e+000  4.4408e-003 62891 67876,67703,67677
 1.6500e+001 67830 -4.1854e-002 -1.1511e+000 -1.8617e-002 62891 67876,67677,67781
 1.6500e+001 67807  2.2336e-002 -9.7084e-001 -7.2494e-002 62891 67948,67729,67703
 1.6500e+001 67902 -2.3504e-002 -1.0943e+000  1.1604e-002 62891 67948,67703,67876
 1.6500e+001 67925 -1.6955e-001 -1.0765e+000  4.4892e-002 62891 67755,67876,67781
 1.6500e+001 67974 -7.5393e-002 -8.0607e-001 -7.5348e-002 62891 67755,67729,67948
 1.6500e+001 67997 -5.3120e-002 -8.6948e-001 -9.1271e-003 62891 67755,67948,67876
 1.6500e+001 68218  7.0152e-002 -1.4040e-002 -7.9718e-002 62693 68042,68120,68068
 1.6500e+001 68195  2.1520e-002 -2.8472e-003 -8.0654e-003 62693 68042,68146,68120
 1.6500e+001 68172 -2.4209e-001  2.1440e-001 -3.6665e-002 62693 68068,68120,68094
 1.6500e+001 68468  3.4330e-001 -3.5505e-002  2.5013e-002 62289 68491,68295,68269
 1.6500e+001 68445  7.8669e-002 -7.6375e-002 -1.3390e-001 62289 68563,68491,68269
 1.6500e+001 68422  8.3012e-002  2.8057e-002 -5.6525e-002 62289 68563,68269,68243
 1.6500e+001 68399 -2.6415e-001 -2.1369e-001  9.6168e-003 62289 68295,68347,68321
 1.6500e+001 68517  1.6093e-001 -2.1260e-001 -7.5143e-002 62289 68347,68295,68491
 1.6500e+001 68540 -1.7919e-001 -7.7267e-002 -2.2096e-001 62289 68347,68491,68373
 1.6500e+001 68589  1.2313e-001  1.2819e-001 -1.2223e-001 62289 68373,68491,68563
 1.6500e+001 68612  7.8929e-002  1.6366e-001 -4.4342e-002 62289 68373,68563,68243
 1.6500e+001 68911 -7.3564e-002 -1.0935e+000 -1.3436e-003 62091 69222,68934,68741
 1.6500e+001 68888  1.1056e-001 -1.0626e+000 -4.0996e-002 62091 69006,68934,68689
 1.6500e+001 68865  1.4133e-001 -1.0446e+000  4.2878e-003 62091 69006,68689,68663
 1.6500e+001 68842 -1.2237e-001 -1.1098e+000 -1.3067e-001 62091 69078,68793,68767
 1.6500e+001 68819 -1.9064e-001 -1.1616e+000  1.5171e-001 62091 69222,68741,68715
 1.6500e+001 68960 -1.8101e-001 -1.1053e+000  1.2060e-002 62091 68767,68741,68934
 1.6500e+001 68983 -5.5927e-002 -1.1539e+000 -3.6900e-002 62091 69078,68767,68934
 1.6500e+001 69032  1.0003e-001 -1.0734e+000 -2.3913e-002 62091 69150,69006,68637
 1.6500e+001 69055  9.2457e-002 -1.0842e+000 -1.5114e-002 62091 68637,69006,68663
 1.6500e+001 69104 -2.9318e-002 -8.9256e-001 -6.4655e-002 62091 68637,68793,69078
 1.6500e+001 69127  7.1288e-002 -1.0359e+000 -7.5670e-003 62091 69150,68637,69078
 1.6500e+001 69176  3.7696e-002 -1.0854e+000 -4.4771e-002 62091 68934,69006,69150
 1.6500e+001 69199 -2.1277e-002 -1.0679e+000 -1.9583e-002 62091 68934,69150,69078
 1.6500e+001 69248 -1.6496e-004 -9.4030e-001 -2.8943e-002 62091 68689,68934,69222
 1.6500e+001 69271 -2.4796e-002 -8.9186e-001  7.9213e-002 62091 68689,69222,68715
 1.6500e+001 69521 -2.9755e-001  1.2778e-001  8.3672e-003 61893 69544,69348,69296
 1.6500e+001 69498 -7.8989e-002  1.7004e-001  4.5090e-002 61893 69544,69296,69400
 1.6500e+001 69475  6.1724e-002  1.8709e-001  2.8973e-002 61893 69296,69426,69400
 1.6500e+001 69452 -2.0167e-001 -4.3076e-001 -1.3290e-001 61893 69296,69348,69322
 1.6500e+001 69570 -1.8249e-001  2.6957e-002  1.7932e-001 61893 69374,69348,69544
 1.6500e+001 69593  2.0389e-001  1.6287e-001  2.0473e-001 61893 69374,69544,69400
 1.6500e+001 70046  6.4455e-002 -8.8351e-001 -9.3235e-003 61467 69749,69905,69879
 1.6500e+001 70023  1.3498e-001 -6.9467e-001  1.9829e-001 61467 69723,69905,69749
 1.6500e+001 70000  5.0051e-002 -9.3801e-001 -3.0737e-002 61467 70069,69827,69775
 1.6500e+001 69977 -1.0691e-001 -1.3447e+000  1.0743e-001 61467 70069,69775,69749
 1.6500e+001 69954 -4.0983e-002 -6.7797e-001 -3.0904e-002 61467 70141,69853,69827
 1.6500e+001 69931  8.8001e-002 -1.2141e+000 -3.6432e-001 61467 69775,69827,69801
 1.6500e+001 70095  8.9659e-003 -7.4752e-001 -7.6057e-002 61467 70141,69827,70069
 1.6500e+001 70118  5.5400e-002 -9.2415e-001 -6.3782e-004 61467 69879,70069,69749
 1.6500e+001 70167  7.6599e-003 -7.8384e-001 -2.6617e-002 61467 69879,69853,70141
 1.6500e+001 70190 -1.5682e-002 -9.4853e-001 -7.2604e-002 61467 69879,70141,70069
 1.6500e+001 70291 -1.0096e-001 -1.5663e+000 -1.8033e-001 61013 70213,70265,70239
 1.6500e+001 70441  2.1501e-001 -5.4034e-002 -1.1044e-001 60651 70340,70392,70366
 1.6500e+001 70418  3.3996e-001 -1.7189e-001  2.9140e-002 60651 70314,70392,70340
 1.6500e+001 70642  8.3940e-002 -6.9391e-001 -1.9156e-001 60311 70665,70492,70466
 1.6500e+001 70619 -1.4202e-001 -1.2725e+000 -2.7789e-001 60311 70665,70466,70570
 1.6500e+001 70596 -3.3644e+000 -1.6440e-001  3.2519e-001 60311 70492,70544,70518
 1.6500e+001 70691  5.9040e-002 -1.0884e-001  4.0527e-001 60311 70544,70492,70665
 1.6500e+001 70714 -3.0568e-001 -9.9113e-001  3.3214e-001 60311 70544,70665,70570
 1.6500e+001 70964  3.1333e-001 -1.2718e+000  1.4516e-001 59907 70987,70765,70739
 1.6500e+001 70941  3.0537e-001 -1.3131e+000 -4.4449e-002 59907 71059,70987,70739
 1.6500e+001 70918  1.7533e-001 -1.4999e+000  1.2728e-002 59907 71059,70739,70869
 1.6500e+001 70895  1.7846e-001 -1.0961e+000  9.7639e-003 59907 70817,70869,70843
 1.6500e+001 71013  1.2643e+000 -8.0643e-001  5.8338e-001 59907 70791,70765,70987
 1.6500e+001 71036  4.1687e-001 -1.4670e+000  1.9467e-001 59907 70791,70987,70817
 1.6500e+001 71085  1.4731e-001 -1.2026e+000 -3.3489e-002 59907 70817,70987,71059
 1.6500e+001 71108  1.4405e-001 -1.2434e+000 -3.0917e-002 59907 70817,71059,70869
 1.6500e+001 71441 -5.5947e-001 -7.6252e-001  5.8300e-001 59417 71464,71242,71216
 1.6500e+001 71418 -3.8548e-001 -4.6799e-001  8.2939e-001 59417 71464,71216,71320
 1.6500e+001 71395 -5.5491e-001 -4.2192e-001  8.9390e-001 59417 71216,71346,71320
 1.6500e+001 71372 -5.4944e-001 -8.5897e-001  4.3368e-001 59417 71268,71320,71294
 1.6500e+001 71490 -7.7245e-001 -8.1471e-001  2.7705e-001 59417 71268,71242,71464
 1.6500e+001 71513 -7.1491e-001 -4.1815e-001  5.2026e-001 59417 71268,71464,71320
 1.6500e+001 71712  1.5005e+000  1.3624e+000  4.5792e-001 58913 71562,71614,71588
 1.6500e+001 71689  8.9710e-001  1.0164e+000  3.1618e-001 58913 71536,71614,71562
 1.6500e+001 71666  5.2850e-001  2.0183e+000 -1.6774e-001 58913 71536,71640,71614
 1.6500e+001 72171 -9.9218e-001 -2.1748e+000  2.1750e-001 58409 72194,72027,72001
 1.6500e+001 72148 -8.6603e-001 -2.5461e+000 -3.5465e-002 58409 72194,72001,71949
 1.6500e+001 72125 -5.3526e-001 -1.3824e+000  7.6588e-003 58409 71923,72053,71949
 1.6500e+001 72102 -1.0771e+000 -2.5424e+000 -1.5665e-001 58409 71949,72001,71975
 1.6500e+001 72079 -1.3390e-001 -9.7472e-001  2.9045e-001 58409 71897,72053,71923
 1.6500e+001 72220 -7.4663e-001 -2.0083e+000  3.6933e-001 58409 72053,72027,72194
 1.6500e+001 72243 -6.4403e-001 -2.2758e+000  1.0504e-001 58409 72053,72194,71949
 1.6500e+001 72491  8.4651e-001  1.3271e+000  2.8531e-001 57855 72514,72318,72292
 1.6500e+001 72468  1.2420e+000  1.3117e+000  5.2530e-001 57855 72514,72292,72266
 1.6500e+001 72445  7.4947e-001  1.3035e+000  3.8997e-001 57855 72318,72396,72370
 1.6500e+001 72422  5.5912e-001  1.3117e+000  2.9423e-001 57855 72318,72370,72344
 1.6500e+001 72540  8.0321e-001  1.4915e+000  3.8654e-001 57855 72396,72318,72514
 1.6500e+001 72563  8.4053e-001  1.6251e+000  4.6777e-001 57855 72396,72514,72266
 1.6500e+001 72811 -2.8110e-001 -2.2365e+000  1.1620e+000 57401 72612,72690,72638
 1.6500e+001 72788 -2.1970e+000 -3.0462e+000  1.5610e+000 57401 72586,72690,72612
 1.6500e+001 72765  3.7312e+000 -3.8502e+000  1.2226e-001 57401 72638,72690,72664
 1.6500e+001 72742  2.9406e-001 -1.2313e+000  7.2576e-001 57401 72586,72716,72690
 1.6500e+001 73144 -4.9798e-002 -1.0403e+000 -2.9928e-002 57004 72919,72997,72945
 1.6500e+001 73121 -1.4092e-001 -1.2806e+000  4.4692e-002 57004 72919,73049,72997
 1.6500e+001 73098 -1.8841e-001 -9.2085e-001 -1.3493e-001 57004 72945,72997,72971
 1.6500e+001 73075 -1.1384e-001 -1.2554e+000  7.6928e-002 57004 72997,73049,73023
 1.6500e+001 73650 -4.8988e-001 -3.2624e+000  1.6901e-001 56592 73673,73379,73353
 1.6500e+001 73627 -5.5885e-001 -2.4793e+000  1.1928e+000 56592 73673,73353,73327
 1.6500e+001 73604  5.4315e-001 -1.7208e+000  1.0234e+000 56592 73745,73509,73483
 1.6500e+001 73581  9.9047e-001 -2.0481e+000  5.7669e-001 56592 73379,73457,73405
 1.6500e+001 73558  1.5073e+000 -2.0820e+000  1.0850e+000 56592 73379,73483,73457
 1.6500e+001 73535  2.3405e+000 -1.2525e+000  9.0962e-001 56592 73405,73457,73431
 1.6500e+001 73699  2.0190e-002 -2.5508e+000  8.0522e-001 56592 73483,73379,73673
 1.6500e+001 73722  5.0512e-001 -2.4772e+000  1.2926e+000 56592 73745,73483,73673
 1.6500e+001 73771  3.0922e-001 -2.7779e-001  5.8651e-001 56592 73327,73509,73745
 1.6500e+001 73794 -4.0502e-002 -1.1590e+000  1.0356e+000 56592 73327,73745,73673
 1.6500e+001 74123  3.2003e-001  2.3677e-001 -5.8991e-001 56152 74146,74002,73924
 1.6500e+001 74100  5.2525e-001  2.0552e-001 -4.6328e-001 56152 74146,73924,73898
 1.6500e+001 74077  1.2283e+000  7.1970e-001 -8.2928e-001 56152 73924,74002,73976
 1.6500e+001 74054  6.1160e-001 -6.7802e-001  3.4325e-001 56152 73924,73976,73950
 1.6500e+001 74172  1.3826e-001  4.8587e-001 -4.6701e-001 56152 74028,74002,74146
 1.6500e+001 74195  4.3480e-001  3.6799e-001 -3.3923e-001 56152 74028,74146,73898
 1.6500e+001 74345  1.4658e+000 -3.0524e-001 -7.8502e-001 55634 74218,74270,74244
 1.6500e+001 74322 -2.8746e-001 -5.3062e-001 -2.9948e-001 55634 74218,74296,74270
 1.6500e+001 74823 -1.2544e-001 -2.6683e+000  4.7817e-001 55016 74918,74846,74581
 1.6500e+001 74800 -4.4852e-001 -2.7552e+000  1.7427e-001 55016 74846,74477,74633
 1.6500e+001 74777 -8.1574e-001 -3.2406e+000  7.2517e-001 55016 74918,74581,74555
 1.6500e+001 74754 -8.5481e-001 -2.3800e+000  2.5437e-001 55016 74990,74503,74477
 1.6500e+001 74731 -4.1723e-001 -3.2229e+000 -5.6333e-001 55016 74451,74633,74477
 1.6500e+001 74708 -1.3502e+000 -2.2180e+000 -8.9157e-001 55016 74451,74659,74633
 1.6500e+001 74685 -1.8818e+000 -1.5042e+000  1.4920e+000 55016 74503,74555,74529
 1.6500e+001 74872 -4.7929e-001 -3.5109e+000  4.7506e-001 55016 74607,74581,74846
 1.6500e+001 74895 -2.0042e-001 -3.0257e+000  2.8555e-001 55016 74607,74846,74633
 1.6500e+001 74944 -1.0259e+000 -3.0880e+000  3.3394e-001 55016 74477,74846,74918
 1.6500e+001 74967 -8.2527e-001 -2.5022e+000  3.6236e-001 55016 74990,74477,74918
 1.6500e+001 75016 -9.5869e-001 -2.4004e+000  6.1331e-001 55016 74555,74503,74990
 1.6500e+001 75039 -1.0395e+000 -2.7614e+000  7.1607e-001 55016 74555,74990,74918
 1.6500e+001 75287 -8.9216e-001 -6.4202e+000  9.8345e-001 54726 75310,75140,75114
 1.6500e+001 75264 -1.4167e+000 -5.4242e+000  6.7566e-001 54726 75310,75114,75088
 1.6500e+001 75241  1.7891e-001 -4.3777e+000  1.3920e-001 54726 75088,75192,75166
 1.6500e+001 75218 -7.7984e-001 -9.6857e-001  8.6756e-001 54726 75062,75192,75088
 1.6500e+001 75336 -1.5263e-001 -5.8054e+000  4.5559e-001 54726 75166,75140,75310
 1.6500e+001 75359 -1.2059e+000 -4.9216e+000  3.7638e-001 54726 75166,75310,75088
 1.6500e+001 75946 -1.1962e-001 -4.8710e-001 -1.8338e-001 54322 75969,75701,75649
 1.6500e+001 75923  1.4967e-001 -3.5648e-001 -2.3140e-001 54322 75969,75649,75623
 1.6500e+001 75900 -1.7961e-002 -3.4808e-001 -3.4951e-002 54322 76041,75753,75701
 1.6500e+001 75877 -5.9391e-002 -7.9098e-001 -4.4852e-002 54322 75623,75805,75779
 1.6500e+001 75854 -5.2442e-002 -4.3936e-001  1.6027e-001 54322 75701,75753,75727
 1.6500e+001 75831  5.8316e-003 -1.2796e-001 -7.4386e-002 54322 75649,75701,75675
 1.6500e+001 75995  7.8188e-002 -3.9899e-001 -1.1313e-001 54322 76041,75701,75969
 1.6500e+001 76018  9.2996e-002 -5.2110e-001 -1.2330e-001 54322 75779,75969,75623
 1.6500e+001 76067 -8.2467e-002 -4.8314e-001  9.7945e-004 54322 75779,75753,76041
 1.6500e+001 76090 -1.1019e-002 -5.7998e-001 -7.6056e-002 54322 75779,76041,75969
 1.6500e+001 76468 -2.3699e-002 -5.1733e-001 -7.5047e-002 53868 76491,76272,76220
 1.6500e+001 76445  6.4504e-002 -5.3608e-001 -2.6557e-002 53868 76491,76220,76324
 1.6500e+001 76422 -1.8499e-002 -7.0658e-001 -9.9928e-002 53868 76220,76272,76246
 1.6500e+001 76399  1.1134e-001 -5.8702e-001 -5.1714e-002 53868 76194,76324,76220
 1.6500e+001 76376  5.5322e-001 -4.0960e-001  6.2168e-002 53868 76194,76350,76324
 1.6500e+001 76517  2.6442e-002 -4.7598e-001 -2.5878e-002 53868 76298,76272,76491
 1.6500e+001 76540  1.1399e-001 -5.0691e-001  1.8572e-002 53868 76298,76491,76324
 1.6500e+001 76690  5.9721e-003 -6.7852e-001  6.7054e-002 53356 76589,76641,76615
 1.6500e+001 76667 -1.9831e-001 -8.8723e-001 -2.1684e-002 53356 76563,76641,76589
 1.6500e+001 76938  2.0830e-001  3.6393e-001  9.5777e-002 53009 77105,76961,76765
 1.6500e+001 76915 -6.4501e-002 -1.5547e+000 -6.0346e-001 53009 76961,76713,76843
 1.6500e+001 76892 -2.2274e-001 -7.2366e-001  5.6677e-002 53009 77033,76817,76791
 1.6500e+001 76869  5.8083e-001  1.7437e+000 -8.6548e-002 53009 77105,76765,76739
 1.6500e+001 76987 -2.5067e-001 -6.9471e-001 -1.7887e-001 53009 76791,76765,76961
 1.6500e+001 77010 -1.7744e-001 -4.3596e-001 -2.1481e-001 53009 77033,76791,76961
 1.6500e+001 77059  2.1802e-001 -4.7730e-001 -1.9911e-001 53009 76843,76817,77033
 1.6500e+001 77082  1.7389e-001 -3.5692e-001 -4.5269e-001 53009 76843,77033,76961
 1.6500e+001 77131  8.2269e-001 -3.4854e-002 -1.0222e+000 53009 76713,76961,77105
 1.6500e+001 77154  1.0082e+000  4.7841e-001 -1.2267e+000 53009 76713,77105,76739
 1.6500e+001 77355  5.5602e-001 -4.1795e+000  4.8428e-001 52390 77378,77257,77231
 1.6500e+001 77332  6.8830e-001 -5.3321e+000  6.6135e-001 52390 77378,77231,77179
 1.6500e+001 77309  1.3842e+000 -3.9496e+000  4.1298e-001 52390 77179,77231,77205
 1.6500e+001 77404  8.4171e-001 -5.1067e+000  1.0637e+000 52390 77283,77257,77378
 1.6500e+001 77427  7.5161e-001 -6.6518e+000  1.1489e+000 52390 77283,77378,77179
 1.6500e+001 77677 -1.1757e+000  1.2560e+000 -1.4948e+000 51986 77700,77504,77478
 1.6500e+001 77654 -2.4100e-001  1.2295e+000 -1.3336e+000 51986 77700,77478,77452
 1.6500e+001 77631  4.1195e-001  1.1854e+000 -1.4057e+000 51986 77772,77556,77530
 1.6500e+001 77608  3.5177e+000  2.2128e+000 -2.2777e+000 51986 77452,77582,77556
 1.6500e+001 77726 -3.9366e-001  1.5420e+000 -9.5813e-001 51986 77530,77504,77700
 1.6500e+001 77749  3.6671e-001  1.1586e+000 -1.1252e+000 51986 77772,77530,77700
 1.6500e+001 77798  8.6910e-002  1.0250e+000 -1.3100e+000 51986 77452,77556,77772
 1.6500e+001 77821 -8.4930e-002  1.0126e+000 -1.0695e+000 51986 77452,77772,77700
 1.6500e+001 78282 -9.9184e-001 -3.0365e+000  1.3465e-001 51738 78008,78138,78060
 1.6500e+001 78259 -1.3126e+000 -3.9691e+000  2.3416e+000 51738 78008,78164,78138
 1.6500e+001 78236 -6.8868e-001 -1.7480e+000  7.2001e-001 51738 78086,78138,78112
 1.6500e+001 78213 -6.5850e-001 -1.5114e+000  6.5981e-001 51738 78060,78138,78086
 1.6500e+001 78190 -3.8905e-002 -3.9127e+000 -4.3723e-001 51738 78008,78060,78034
 1.6500e+001 78432  2.1202e-001 -4.1089e-001  1.9890e-002 51148 78305,78357,78331
 1.6500e+001 78409  1.3601e-001 -3.0207e-001  2.5356e-002 51148 78305,78383,78357
 1.6500e+001 78891 -1.3357e-001 -5.8904e-001 -8.6139e-002 50808 78914,78695,78669
 1.6500e+001 78868 -5.8995e-002 -4.0551e-001 -6.6592e-002 50808 78914,78669,78643
 1.6500e+001 78845 -5.2228e-002 -5.4306e-001 -3.4390e-001 50808 78643,78773,78747
 1.6500e+001 78822 -2.7032e-002 -5.9689e-001 -3.3029e-001 50808 78617,78773,78643
 1.6500e+001 78799 -2.8638e-001 -5.9102e-001 -1.4009e-001 50808 78695,78747,78721
 1.6500e+001 78940 -1.9291e-001 -4.6262e-001 -2.0923e-001 50808 78747,78695,78914
 1.6500e+001 78963 -1.3070e-001 -3.6240e-001 -1.8281e-001 50808 78747,78914,78643
 1.6500e+001 79260  8.2225e-002 -5.3900e-001 -4.7488e-002 50468 79283,79090,79012
 1.6500e+001 79237  2.6951e-001 -5.1714e-001  6.4923e-003 50468 79283,79012,78986
 1.6500e+001 79214 -1.1280e-001 -6.2432e-001 -6.8444e-002 50468 79012,79090,79038
 1.6500e+001 79191  1.2786e-001 -4.5666e-001  9.4588e-002 50468 78986,79142,79116
 1.6500e+001 79168 -3.0536e-002 -6.2377e-001 -1.0075e-001 50468 79038,79090,79064
 1.6500e+001 79309 -1.1617e-001 -4.9084e-001 -6.5648e-002 50468 79116,79090,79283
 1.6500e+001 79332  1.1682e-001 -4.2399e-001  4.7393e-003 50468 79116,79283,78986
 1.6500e+001 79889  9.1034e-001  1.2495e+000 -4.1737e-001 50064 79569,79725,79699
 1.6500e+001 79866  1.0454e+000  1.2853e+000 -3.1910e-001 50064 79543,79725,79569
 1.6500e+001 79843  9.5568e-001  9.9597e-001 -4.1887e-001 50064 79621,79699,79673
 1.6500e+001 79820  1.1133e+000  1.3349e+000 -7.9908e-001 50064 79595,79699,79621
 1.6500e+001 79797  1.6582e+000  1.4383e+000 -5.8629e-001 50064 79569,79699,79595
 1.6500e+001 79774  5.5390e-001  1.2971e+000 -1.6004e-001 50064 79517,79725,79543
 1.6500e+001 79751  4.7588e-001  6.9939e-001 -5.6001e-001 50064 79621,79673,79647
 1.6500e+001 80169  1.0410e+000  1.5223e+000 -6.8941e-001 49724 80019,80097,80071
 1.6500e+001 80146  9.5501e-001  1.9324e+000 -7.8595e-001 49724 79993,80097,80019
 1.6500e+001 80123  6.7687e-001  1.4064e+000 -7.8067e-001 49724 80019,80071,80045
 1.6500e+001 80626  1.7376e-001  3.6355e-001  2.3796e-001 49277 80352,80482,80378
 1.6500e+001 80603 -1.9371e-001  2.5258e-001 -3.0723e-002 49277 80352,80508,80482
 1.6500e+001 80580 -1.1201e-001 -3.5368e-001  4.7410e-002 49277 80378,80482,80456
 1.6500e+001 80557 -7.2187e-002 -6.9093e-001  3.3248e-001 49277 80378,80430,80404
 1.6500e+001 80534 -1.7438e-002 -2.6851e-001  2.5243e-001 49277 80378,80456,80430
 1.6500e+001 81230  6.5649e-001 -2.9099e-001  1.9757e-001 48716 81253,80835,80809
 1.6500e+001 81207  5.5441e-001 -3.2953e-001  5.4740e-001 48716 81397,81253,80809
 1.6500e+001 81184  1.0367e-001  2.7945e-001 -1.9243e-002 48716 81325,80913,80887
 1.6500e+001 81161 -1.3787e-001 -4.3444e-001  7.1356e-001 48716 81397,80809,81017
 1.6500e+001 81138 -1.4863e-001  4.6385e-001 -1.1851e-001 48716 81469,80965,80913
 1.6500e+001 81115 -1.4025e-001 -4.0362e-001  2.8788e-001 48716 80835,80887,80861
 1.6500e+001 81092  9.9051e-001 -4.2244e-001  1.4179e+000 48716 80809,81043,81017
 1.6500e+001 81069  3.1790e-002  2.5880e-001 -2.9126e-001 48716 80913,80965,80939
 1.6500e+001 81279  2.1769e-001 -3.0970e-001  5.2574e-002 48716 80887,80835,81253
 1.6500e+001 81302  2.8748e-002  2.5962e-001  1.3102e-002 48716 81325,80887,81253
 1.6500e+001 81351  1.5174e-001  3.8213e-001 -2.7271e-003 48716 81469,80913,81325
 1.6500e+001 81374  3.1916e-003  6.0080e-001  1.4459e-001 48716 80991,81325,81253
 1.6500e+001 81423 -4.7649e-001  1.0687e-001  6.4565e-001 48716 80991,81253,81397
 1.6500e+001 81446 -1.2706e+000 -1.2220e-001  8.8026e-001 48716 80991,81397,81017
 1.6500e+001 81495 -6.2757e-001  4.2762e-001 -1.0176e-001 48716 80991,80965,81469
 1.6500e+001 81518 -3.8727e-001  3.0020e-001  1.1661e-002 48716 80991,81469,81325
 1.6500e+001 81717 -4.9667e-002 -5.6692e-001  6.4590e-002 48262 81740,81567,81541
 1.6500e+001 81694 -1.7682e-001 -5.6752e-001  1.1642e-002 48262 81740,81541,81645
 1.6500e+001 81671 -1.2637e-001 -6.0874e-001 -2.1724e-002 48262 81567,81619,81593
 1.6500e+001 81766 -1.2970e-001 -5.7602e-001 -9.5796e-003 48262 81619,81567,81740
 1.6500e+001 81789 -2.6808e-001 -6.0611e-001 -7.1725e-002 48262 81619,81740,81645
 1.6500e+001 81939  9.5642e-001  1.2129e+000 -4.9087e-001 47957 82034,81962,81864
 1.6500e+001 81916  7.1325e-001  8.7448e-001 -1.3998e-001 47957 82166,81962,81838
 1.6500e+001 81988 -5.7048e-001  1.0699e+000 -5.3551e-001 47957 82294,81962,81890
 1.6500e+001 82011  6.3196e-001  1.8019e+000  3.1758e-001 47957 81890,81962,81812
 1.6500e+001 82060  8.4551e-001  1.7064e+000  8.4112e-003 47957 81838,81962,82034
 1.6500e+001 82192  9.2423e-001  1.0097e+000  3.3026e-001 47957 81812,81962,82166
 1.6500e+001 82320  2.4570e-002  1.1543e+000 -6.3836e-001 47957 81864,81962,82294
 1.6500e+001 82549  1.6112e-002 -6.2255e-001 -1.6723e-001 47617 82448,82500,82474
 1.6500e+001 82526  2.9601e-001 -8.1729e-001  1.6454e-003 47617 82422,82500,82448
 1.6500e+001 82902 -6.6406e-001 -1.2177e+000  1.3935e-001 47255 82729,82807,82755
 1.6500e+001 82879 -4.2153e-001 -2.1034e+000  3.9239e-001 47255 82703,82807,82729
 1.6500e+001 82856 -1.0447e+000 -1.1727e+000  6.0337e-001 47255 82755,82807,82781
 1.6500e+001 82833  7.3190e-001 -1.6092e+000  5.0850e-001 47255 82677,82807,82703
 1.6500e+001 83182  3.3820e-001 -8.7178e-001  1.6595e-001 46680 83032,83084,83058
 1.6500e+001 83159  4.6554e-001 -3.0087e-001  1.6123e-001 46680 83205,83084,83032
 1.6500e+001 83136  7.4312e-001 -1.2129e-001 -6.5743e-002 46680 83006,83110,83084
 1.6500e+001 83231  2.6334e-001 -4.5272e-001  8.8644e-002 46680 83006,83084,83205
 1.6500e+001 83737 -7.3497e-001 -2.2461e-001  7.2663e-002 46290 83832,83760,83492
 1.6500e+001 83714 -5.4399e-001  2.7517e-001 -1.2899e-001 46290 83760,83440,83414
 1.6500e+001 83691 -3.7650e-001 -4.4586e-001  6.7922e-003 46290 83832,83492,83466
 1.6500e+001 83668 -5.7972e-001 -9.6082e-001  2.2516e-001 46290 83492,83570,83544
 1.6500e+001 83645 -4.9560e-001 -1.4497e-001 -3.0346e-001 46290 83414,83596,83570
 1.6500e+001 83622 -7.2678e-001 -7.1149e-001  4.3724e-001 46290 83492,83544,83518
 1.6500e+001 83786 -7.0876e-001 -1.6573e-001  6.6382e-002 46290 83570,83492,83760
 1.6500e+001 83809 -7.3304e-001 -3.6919e-001 -1.9092e-001 46290 83570,83760,83414
 1.6500e+001 83858 -2.8552e-001  1.0276e-001  2.1883e-001 46290 83440,83760,83832
 1.6500e+001 83881  2.8062e-001 -1.6063e-001  1.0925e-001 46290 83440,83832,83466
 1.6500e+001 84161 -1.0843e-001 -7.7591e-001  3.5213e-001 45829 84011,84063,84037
 1.6500e+001 84138  4.3475e-002 -4.5677e-001  1.0218e-001 45829 84011,84089,84063
 1.6500e+001 84115  6.8268e-002 -4.4355e-001  1.5320e-001 45829 83985,84089,84011
 1.6500e+001 84311  1.9783e-001 -2.4630e-001 -4.0777e-002 45631 84184,84236,84210
 1.6500e+001 84288 -1.5406e-001 -1.0674e+000  8.1671e-003 45631 84184,84262,84236
 1.6500e+001 84657 -8.1355e-002 -4.7723e-001 -1.9954e-002 45155 84680,84490,84412
 1.6500e+001 84634 -1.4437e-001 -4.3397e-001 -4.7443e-003 45155 84680,84412,84360
 1.6500e+001 84611 -1.3610e-001 -5.1370e-001  1.8606e-002 45155 84412,84490,84438
 1.6500e+001 84588  3.2379e-002 -3.3020e-001 -4.0357e-002 45155 84334,84516,84360
 1.6500e+001 84565 -1.8030e-001 -5.0716e-001 -1.3221e-001 45155 84360,84412,84386
 1.6500e+001 84542 -1.1165e-001 -4.2456e-001  6.9162e-002 45155 84438,84490,84464
 1.6500e+001 84706 -5.5757e-002 -4.4132e-001 -3.2514e-002 45155 84516,84490,84680
 1.6500e+001 84729 -1.0336e-001 -3.8543e-001 -2.4203e-002 45155 84516,84680,84360
 1.6500e+001 85077  2.2045e-001 -1.5813e-001  6.1441e-002 44508 85100,84754,84910
 1.6500e+001 85054  2.5105e-001  1.5462e-001  9.5626e-002 44508 84754,84936,84910
 1.6500e+001 85031  7.2173e-002 -3.1332e-001  2.1191e-001 44508 85100,84910,84884
 1.6500e+001 85008 -1.0271e-001 -3.5865e-001  9.9950e-002 44508 84780,84884,84832
 1.6500e+001 84985  1.5090e-001  1.0721e-001 -1.1131e-001 44508 84780,84832,84806
 1.6500e+001 84962  6.5248e-001  1.6008e-001 -1.2693e-001 44508 84832,84884,84858
 1.6500e+001 85126  9.9000e-002  7.9922e-002 -5.3391e-002 44508 84780,84754,85100
 1.6500e+001 85149 -1.2553e-002 -7.7090e-002  8.4109e-002 44508 84780,85100,84884
 1.6500e+001 85482 -4.2850e-001 -6.8437e-001 -2.2208e-002 44104 85335,85387,85361
 1.6500e+001 85459 -3.6516e-001 -1.0200e+000  1.5492e-002 44104 85309,85387,85335
 1.6500e+001 85436 -1.6180e-001 -7.8082e-001  1.4339e-001 44104 85257,85387,85309
 1.6500e+001 85413 -3.0356e-001 -1.3618e+000  9.6342e-002 44104 85257,85309,85283
 1.6500e+001 85811 -9.1936e-002 -3.1606e-001 -3.5207e-002 43600 85586,85664,85612
 1.6500e+001 85788 -1.6033e-001 -4.0498e-001  3.2376e-003 43600 85586,85690,85664
 1.6500e+001 85765  4.3081e-002 -3.2445e-001 -2.7926e-002 43600 85586,85716,85690
 1.6500e+001 85742 -5.4900e-002 -3.1520e-001 -1.2208e-002 43600 85612,85664,85638
 1.6500e+001 86010 -8.2620e-003 -3.8401e-001 -7.7135e-002 43224 85886,85938,85912
 1.6500e+001 85987  9.3362e-002 -1.3441e-002 -1.2169e-001 43224 85834,85938,85886
 1.6500e+001 85964 -2.8255e-001 -4.1764e-001  3.8593e-002 43224 85834,85886,85860
 1.6500e+001 86420  1.8433e+000  9.4014e-001 -3.0305e-001 42820 86195,86299,86221
 1.6500e+001 86397  1.3852e+000  8.8561e-001 -9.5117e-001 42820 86195,86325,86299
 1.6500e+001 86374  1.2083e+000  1.1372e+000 -8.1059e-003 42820 86221,86299,86273
 1.6500e+001 86351  1.0968e+000  6.3917e-001  1.1009e-001 42820 86221,86273,86247
 1.6500e+001 86749  3.7723e-001 -2.6391e-001 -1.3191e-001 42223 86550,86602,86576
 1.6500e+001 86726  1.0865e+000 -5.9800e-001  2.2028e-002 42223 86550,86628,86602
 1.6500e+001 86703  7.7238e-002 -9.4565e-001  3.1297e-001 42223 86524,86628,86550
 1.6500e+001 86680  6.1852e-001 -1.7270e-002  8.7602e-002 42223 86524,86654,86628
 1.6500e+001 87078  6.5076e-001 -2.5428e-001  2.6121e-001 41883 87173,87101,86905
 1.6500e+001 87055  4.9158e-001  4.2140e-001  2.4718e-002 41883 87101,86879,86853
 1.6500e+001 87032  1.1042e-001  2.6615e-002  1.8904e-002 41883 86853,86983,86931
 1.6500e+001 87009  7.1505e-004 -3.9233e-001  1.2614e-001 41883 86931,86983,86957
 1.6500e+001 87127  7.8188e-001 -1.0585e-001  2.1884e-002 41883 86931,86905,87101
 1.6500e+001 87150  2.0938e-001 -2.3288e-001 -2.4981e-002 41883 86931,87101,86853
 1.6500e+001 87199  2.2519e-001 -1.9392e-001  2.4964e-001 41883 86879,87101,87173
 1.6500e+001 87558 -6.0966e-002  4.0856e-001 -5.7253e-002 41471 87382,87460,87408
 1.6500e+001 87535 -5.8717e-001 -7.2245e-003 -2.4617e-001 41471 87382,87486,87460
 1.6500e+001 87512 -1.6618e-001  3.4528e-001 -1.0542e-001 41471 87408,87460,87434
 1.6500e+001 87806  1.5081e-001 -2.5133e-001  6.9793e-002 41017 87829,87607,87581
 1.6500e+001 87783  1.0890e-001 -3.7552e-001  1.0013e-001 41017 87829,87581,87685
 1.6500e+001 87760  3.0371e-001 -1.2341e-001  1.3185e-002 41017 87581,87711,87685
 1.6500e+001 87737  3.1871e-001 -7.7362e-001  4.5454e-002 41017 87633,87685,87659
 1.6500e+001 87855  1.4685e-001 -2.9311e-001  1.6397e-001 41017 87633,87607,87829
 1.6500e+001 87878  9.6234e-002 -4.2419e-001  1.9671e-001 41017 87633,87829,87685
 1.6500e+001 88258 -2.8984e-002 -1.9077e-003  6.0567e-003 40613 88281,88036,88010
 1.6500e+001 88235  2.2563e-003 -2.8326e-002 -6.0830e-003 40613 88281,88010,88088
 1.6500e+001 88212 -4.0907e-003 -5.5687e-002  1.2714e-002 40613 87984,88088,88010
 1.6500e+001 88189  1.9950e-002  7.5449e-003 -1.1537e-002 40613 87984,88114,88088
 1.6500e+001 88166 -1.8317e-002  1.1861e-002 -1.0340e-002 40613 87984,88140,88114
 1.6500e+001 88307 -5.6354e-003  1.6025e-002  1.5082e-002 40613 88062,88036,88281
 1.6500e+001 88330  2.9742e-002 -1.3248e-002  3.4696e-003 40613 88062,88281,88088
 1.6500e+001 88649  2.1245e-002 -6.6677e-002 -6.7982e-003 40095 88375,88505,88401
 1.6500e+001 88626  4.5521e-003 -4.4295e-002 -1.8921e-002 40095 88375,88531,88505
 1.6500e+001 88603 -6.2641e-003 -1.1051e-001 -2.8682e-002 40095 88401,88505,88479
 1.6500e+001 88580  8.4964e-002 -6.4428e-002  9.0804e-002 40095 88427,88479,88453
 1.6500e+001 88557 -4.1375e-002 -1.9667e-001 -9.3007e-003 40095 88401,88479,88427
 1.6500e+001 89078  1.1318e+000 -9.3425e-002 -1.0506e-001 39897 89101,88833,88807
 1.6500e+001 89055  7.1656e-001 -5.2007e-001 -3.1356e-001 39897 89101,88807,88911
 1.6500e+001 89032  8.6010e-001  2.8561e-003 -2.9517e-001 39897 88781,88911,88807
 1.6500e+001 89009  1.1793e-002 -6.3256e-001 -7.2999e-001 39897 88781,88937,88911
 1.6500e+001 88986  2.1174e+000  3.8606e-001 -3.5102e-001 39897 88833,88885,88859
 1.6500e+001 88963  6.3125e-001  3.2054e-002 -4.3687e-001 39897 88755,88937,88781
 1.6500e+001 89127  1.5556e+000 -6.1883e-001 -5.9036e-001 39897 88885,88833,89101
 1.6500e+001 89150  8.0294e-001 -1.2862e+000 -8.8814e-001 39897 88885,89101,88911
 1.6500e+001 89300 -6.7205e-001 -9.5653e-001  1.5245e-001 39607 89453,89323,89199
 1.6500e+001 89277 -1.1011e+000 -8.1301e-001  5.4805e-002 39607 89525,89453,89199
 1.6500e+001 89349 -6.5277e-001 -9.7327e-001 -7.1459e-002 39607 89225,89199,89323
 1.6500e+001 89479 -7.7835e-001 -5.9938e-001  1.6960e-001 39607 89251,89323,89453
 1.6500e+001 89502 -3.9788e-001 -2.3159e-001  4.3626e-001 39607 89251,89453,89173
 1.6500e+001 89551 -1.0151e-001 -4.5009e-001  4.5189e-002 39607 89173,89453,89525
 1.6500e+001 90264 -6.4149e-001 -1.7203e+000 -1.3910e-001 39039 89996,90074,90048
 1.6500e+001 90241 -3.5216e-001 -7.4639e-001 -1.0270e-001 39039 89918,90074,89996
 1.6500e+001 90218 -5.0754e-001 -9.3872e-001 -3.1729e-002 39039 89918,89996,89944
 1.6500e+001 90195 -4.1275e-001 -7.5886e-001 -8.4598e-002 39039 89892,90074,89918
 1.6500e+001 90172  1.0622e-001 -1.7351e+000 -2.2343e-001 39039 89996,90048,90022
 1.6500e+001 90149 -1.0956e+000  3.4895e-001 -8.6344e-002 39039 89892,90100,90074
 1.6500e+001 90126 -8.0376e-001 -1.0722e+000  9.2935e-002 39039 89944,89996,89970
 1.6500e+001 90770 -9.7692e-002 -3.9056e-001  9.2082e-003 38635 90473,90603,90577
 1.6500e+001 90747 -2.5503e-002 -3.4963e-001 -1.5555e-002 38635 90447,90603,90473
 1.6500e+001 90724 -2.9019e-002 -4.2153e-001 -4.0249e-002 38635 90499,90577,90551
 1.6500e+001 90701 -1.5096e-001 -5.1573e-001  3.7090e-002 38635 90473,90577,90499
 1.6500e+001 90678 -7.8346e-002 -5.9923e-001 -6.6748e-003 38635 90499,90551,90525
 1.6500e+001 90655 -1.9190e-001 -3.9751e-001  4.7577e-002 38635 90447,90629,90603
 1.6500e+001 90871 -2.0458e-002 -3.6083e-001 -9.5759e-002 38231 90793,90845,90819
 1.6500e+001 91458  5.9838e-003 -1.9341e-001 -5.7563e-003 37534 91161,91317,91291
 1.6500e+001 91435 -1.7637e-001 -1.2225e-001  6.2133e-002 37534 91135,91317,91161
 1.6500e+001 91412 -2.8552e-001 -1.0917e+000 -2.3581e-001 37534 91187,91291,91239
 1.6500e+001 91389 -5.5282e-002 -1.0814e+000  1.2518e-001 37534 91161,91291,91187
 1.6500e+001 91366 -4.9427e-002 -8.1211e-001 -1.2570e-001 37534 91239,91291,91265
 1.6500e+001 91343  4.7128e-001 -1.1776e+000 -5.6043e-001 37534 91187,91239,91213
 1.6500e+001 91915 -2.8392e-001 -8.2603e-001  1.5006e-001 37080 91938,91745,91667
 1.6500e+001 91892  1.5715e-002 -7.7711e-001  5.4128e-002 37080 91938,91667,91797
 1.6500e+001 91869  2.0755e-001 -2.8607e-001  1.0397e-001 37080 91641,91797,91667
 1.6500e+001 91846 -2.8066e-001 -9.3329e-001  3.8667e-002 37080 91667,91719,91693
 1.6500e+001 91823 -1.9567e-001 -7.0771e-001  9.9793e-002 37080 91667,91745,91719
 1.6500e+001 91964 -4.3405e-001 -9.5019e-001  4.1286e-001 37080 91771,91745,91938
 1.6500e+001 91987 -1.3628e-001 -7.9517e-001  2.8154e-001 37080 91771,91938,91797
 1.6500e+001 92235 -1.7463e-001 -3.8509e-001 -2.1826e-002 36397 92036,92088,92062
 1.6500e+001 92212 -1.1385e-001 -3.5697e-001 -4.6190e-002 36397 92036,92114,92088
 1.6500e+001 92189 -1.8555e-002 -2.8241e-001  9.4843e-003 36397 92036,92140,92114
 1.6500e+001 92166 -2.1382e-002 -3.7621e-001 -1.5279e-002 36397 92010,92140,92036
 1.6500e+001 92694  1.5586e-001  3.6672e-003 -2.8141e-002 36057 92446,92498,92472
 1.6500e+001 92671  1.8670e-001 -3.9663e-002  6.0422e-002 36057 92446,92550,92498
 1.6500e+001 92648 -5.7595e-002 -3.9986e-001  1.7182e-001 36057 92446,92576,92550
 1.6500e+001 92625  1.4635e-001 -6.3153e-003 -3.0517e-001 36057 92420,92576,92446
 1.6500e+001 92602  3.2562e-002  1.8380e-002  1.8736e-001 36057 92498,92550,92524
 1.6500e+001 93023 -1.6537e-001 -3.3074e-001 -3.5092e-002 35717 92876,92928,92902
 1.6500e+001 93000 -1.2631e-001 -3.6445e-001 -4.8034e-002 35717 92824,92928,92876
 1.6500e+001 92977 -3.4065e-002 -3.7020e-001 -1.1347e-002 35717 92798,92928,92824
 1.6500e+001 92954 -1.6177e-001 -4.9898e-001 -1.1956e-001 35717 92824,92876,92850
 1.6500e+001 93499  3.8859e-001 -4.3238e-001  2.2688e-001 35405 93522,93309,93257
 1.6500e+001 93476  3.8910e-001 -3.8526e-001  2.2590e-001 35405 93666,93522,93257
 1.6500e+001 93453  3.8759e-001 -1.1208e+000  2.4385e-001 35405 93594,93127,93335
 1.6500e+001 93430  2.7653e-001 -4.1598e-001  2.1890e-001 35405 93666,93257,93231
 1.6500e+001 93407  9.1242e-002 -1.4260e+000  4.9436e-002 35405 93127,93179,93153
 1.6500e+001 93384 -3.6991e-001 -2.8654e-001  4.5132e-001 35405 93179,93231,93205
 1.6500e+001 93361  4.5562e-001  2.7735e-001 -3.8874e-003 35405 93257,93309,93283
 1.6500e+001 93548  5.6214e-001 -2.8458e-001  4.2557e-001 35405 93335,93309,93522
 1.6500e+001 93571  3.9791e-001 -6.1992e-001  3.1714e-001 35405 93594,93335,93522
 1.6500e+001 93620  4.7232e-001 -5.9575e-001  1.6290e-001 35405 93179,93127,93594
 1.6500e+001 93643  2.6657e-001 -3.8202e-001  1.8087e-001 35405 93738,93594,93522
 1.6500e+001 93692  2.6389e-001 -3.8459e-001  1.7862e-001 35405 93738,93522,93666
 1.6500e+001 93715  2.1705e-001 -3.9070e-001  1.5419e-001 35405 93179,93666,93231
 1.6500e+001 93764  2.6515e-001 -3.8613e-001  1.7860e-001 35405 93179,93594,93738
 1.6500e+001 93787  2.6536e-001 -3.8732e-001  1.7700e-001 35405 93179,93738,93666
 1.6500e+001 94372  8.5221e-001 -6.5823e-002  4.4948e-002 34951 94395,94127,94075
 1.6500e+001 94349  1.1140e+000 -1.2380e-001  1.5391e-001 34951 94395,94075,94231
 1.6500e+001 94326  1.4043e+000 -3.5768e-001 -3.6691e-001 34951 94049,94231,94075
 1.6500e+001 94303  8.8059e-001  4.0161e-001  1.1494e-001 34951 94075,94127,94101
 1.6500e+001 94280  1.5376e+000  7.5264e-001  6.2906e-001 34951 94127,94205,94153
 1.6500e+001 94257  1.2047e+000 -2.3183e-001  6.7387e-001 34951 94153,94205,94179
 1.6500e+001 94421  1.0573e+000 -9.5503e-002  1.9230e-001 34951 94205,94127,94395
 1.6500e+001 94444  1.5230e+000 -2.1294e-002  2.9492e-001 34951 94205,94395,94231
 1.6500e+001 94692  2.4532e-002 -7.6924e-002  1.6024e-002 34397 94715,94519,94467
 1.6500e+001 94669  1.9883e-002 -5.8299e-002  2.2030e-002 34397 94715,94467,94597
 1.6500e+001 94646  2.9821e-003 -9.6261e-003 -7.1191e-004 34397 94545,94597,94571
 1.6500e+001 94623 -7.4674e-002 -3.2100e-001  4.0690e-002 34397 94467,94519,94493
 1.6500e+001 94741  4.2489e-003 -1.3268e-001  5.0156e-003 34397 94545,94519,94715
 1.6500e+001 94764  2.7389e-002 -7.5186e-002  1.5597e-002 34397 94545,94715,94597
 1.6500e+001 94985  1.3030e-001 -4.7990e-002  1.5515e-002 33985 94835,94913,94887
 1.6500e+001 94962  1.0064e-002 -3.4923e-001  4.9495e-002 33985 94809,94913,94835
 1.6500e+001 94939  3.2082e-002 -7.3096e-002  3.1391e-002 33985 94835,94887,94861
 1.6500e+001 95186 -3.0051e-002 -5.8289e-001 -1.9367e-001 33645 95281,95209,95036
 1.6500e+001 95163  3.7726e-001 -5.9913e-001  3.9514e-002 33645 95209,95010,95088
 1.6500e+001 95140  3.6956e-001 -3.0136e-001  1.5487e-003 33645 95010,95114,95088
 1.6500e+001 95235 -2.4414e-001 -7.3692e-001 -3.0970e-001 33645 95062,95036,95209
 1.6500e+001 95258 -1.7154e-001 -8.1547e-001  2.6126e-001 33645 95413,95209,95088
 1.6500e+001 95307  2.9320e-001 -1.1060e-002 -3.9542e-001 33645 95010,95209,95281
 1.6500e+001 95439  1.6285e-001 -4.4709e-001  1.1683e-001 33645 95062,95209,95413
 1.6500e+001 95766 -1.7206e-001 -1.1043e-001 -2.8574e-001 33141 95789,95593,95567
 1.6500e+001 95743  2.3937e-002 -2.4671e-001 -8.9562e-002 33141 95861,95789,95567
 1.6500e+001 95720  1.1063e-002 -2.1605e-001 -3.2412e-002 33141 95861,95567,95671
 1.6500e+001 95697  1.9293e-002 -2.5038e-001 -4.2794e-002 33141 95541,95671,95567
 1.6500e+001 95815 -1.2891e-002  2.6749e-001 -2.4533e-001 33141 95619,95593,95789
 1.6500e+001 95838  5.5495e-002 -7.0851e-002 -8.2332e-002 33141 95619,95789,95645
 1.6500e+001 95887  6.8559e-002 -1.4537e-001 -9.6526e-002 33141 95645,95789,95861
 1.6500e+001 95910  5.2810e-002 -1.1606e-001 -3.1681e-002 33141 95645,95861,95671
 1.6500e+001 96060 -1.6602e-001 -3.2365e-001 -1.1644e-001 32487 95959,96011,95985
 1.6500e+001 96037 -1.1887e-002 -3.1167e-001 -1.9228e-002 32487 95933,96011,95959
 1.6500e+001 96570 -1.8685e-001 -4.0767e-001  2.6097e-001 32033 96665,96593,96377
 1.6500e+001 96547 -1.5333e-001 -4.0009e-001 -1.0106e-001 32033 96737,96593,96325
 1.6500e+001 96524 -2.4965e-001 -5.4796e-001  1.6303e-001 32033 96665,96377,96351
 1.6500e+001 96501 -2.4521e-001 -5.9579e-001 -7.3955e-002 32033 96737,96325,96299
 1.6500e+001 96478 -2.6638e-001 -1.5175e-001 -6.2883e-002 32033 96247,96429,96299
 1.6500e+001 96455 -6.5683e-001 -1.2474e+000 -4.7573e-002 32033 96247,96299,96273
 1.6500e+001 96619  1.2953e-001 -1.7370e-001  3.1811e-001 32033 96809,96593,96403
 1.6500e+001 96642  3.4222e-001  3.9355e-001 -3.0110e-001 32033 96403,96593,96429
 1.6500e+001 96691  7.1149e-002 -7.4648e-001  8.4174e-002 32033 96325,96593,96665
 1.6500e+001 96714 -1.5010e-001 -1.0071e+000 -5.2163e-002 32033 96325,96665,96351
 1.6500e+001 96763 -2.5577e-001 -3.2938e-001 -8.5365e-003 32033 96429,96593,96737
 1.6500e+001 96786 -2.9084e-001 -4.1886e-001 -8.3755e-003 32033 96429,96737,96299
 1.6500e+001 96835 -2.7221e-003 -3.2656e-001  2.4758e-001 32033 96377,96593,96809
 1.6500e+001 97064 -1.4641e-002 -4.0590e-002 -1.6923e-002 31671 97087,96989,96963
 1.6500e+001 97041  1.9774e-002 -4.9595e-002  4.8186e-002 31671 97087,96963,96937
 1.6500e+001 97113  1.7295e-002 -6.4536e-002  2.2904e-002 31671 97159,97087,97015
 1.6500e+001 97136  2.0699e-002 -4.0236e-002  3.7456e-002 31671 97015,97087,96937
 1.6500e+001 97185  4.0524e-002  8.2875e-002 -5.7485e-003 31671 96989,97087,97159
 1.6500e+001 97563  4.3311e-002 -3.2776e-002 -9.5048e-003 31117 97586,97367,97341
 1.6500e+001 97540  2.9777e-002 -1.9908e-002  4.0466e-003 31117 97658,97586,97341
 1.6500e+001 97517  1.4355e-002 -1.8232e-002 -2.3080e-003 31117 97658,97341,97315
 1.6500e+001 97494  5.7484e-002 -5.5087e-002 -3.9143e-002 31117 97289,97445,97315
 1.6500e+001 97471  1.2421e-003 -3.9628e-002 -1.4395e-002 31117 97367,97419,97393
 1.6500e+001 97612  2.2239e-002  5.3310e-003 -8.5760e-003 31117 97419,97367,97586
 1.6500e+001 97635  6.9302e-002 -3.2307e-003  2.5121e-002 31117 97419,97586,97445
 1.6500e+001 97684  6.0072e-002 -2.2198e-002  4.3043e-003 31117 97445,97586,97658
 1.6500e+001 97707  4.2139e-002 -2.2730e-002 -2.5425e-003 31117 97445,97658,97315
 1.6500e+001 98215  9.6391e-002 -5.6595e-002 -1.5279e-001 30563 98238,97996,97944
 1.6500e+001 98192 -1.0092e-001 -4.4540e-002 -1.6505e-001 30563 98310,98238,97944
 1.6500e+001 98169 -2.9169e-001 -2.3383e-001 -2.9947e-001 30563 98310,97944,97918
 1.6500e+001 98146  2.4957e-001 -4.1765e-002 -5.6665e-002 30563 97892,98074,97918
 1.6500e+001 98123  2.0838e-001 -1.1211e-001  7.4234e-002 30563 97996,98048,98022
 1.6500e+001 98100 -1.8307e-001 -1.4694e-001 -1.7886e-001 30563 97944,97996,97970
 1.6500e+001 98264  2.7618e-002  5.7686e-003 -1.0905e-001 30563 98048,97996,98238
 1.6500e+001 98287  2.0748e-001  3.0737e-001  1.1425e-001 30563 98048,98238,98074
 1.6500e+001 98336  1.0435e-001 -7.5058e-002 -9.3172e-003 30563 98074,98238,98310
 1.6500e+001 98359 -3.2969e-002 -1.0139e-001 -1.0600e-001 30563 98074,98310,97918
 1.6500e+001 98607 -2.5498e-001 -5.9142e-002  1.6274e-002 30073 98630,98460,98408
 1.6500e+001 98584 -4.2246e-001 -1.3628e-001 -2.7357e-002 30073 98630,98408,98382
 1.6500e+001 98561 -9.3769e-002 -1.2812e-001 -3.5612e-002 30073 98382,98512,98486
 1.6500e+001 98538 -1.2509e-001 -1.0247e-001  1.0838e-001 30073 98408,98460,98434
 1.6500e+001 98656 -1.5956e-001 -1.7020e-001 -1.9406e-002 30073 98486,98460,98630
 1.6500e+001 98679 -2.6853e-001 -2.0260e-001 -5.2198e-002 30073 98486,98630,98382
 1.6500e+001 99157  9.5291e-001 -1.4204e-001  1.4476e-001 29669 99180,98837,98811
 1.6500e+001 99134  7.5838e-001 -1.1916e-001  3.8132e-001 29669 99324,99180,98811
 1.6500e+001 99111  5.1603e-001  1.2744e-004  4.2467e-002 29669 99252,98863,98837
 1.6500e+001 99088  7.3707e-001 -2.2834e-001  4.1415e-001 29669 99324,98811,98993
 1.6500e+001 99065  4.9116e-001  1.6242e-001  7.6093e-002 29669 98863,98941,98915
 1.6500e+001 99042 -5.3567e-001 -2.3540e-003  1.4224e-002 29669 98863,98915,98889
 1.6500e+001 99019  3.9515e-001 -3.4177e-001  5.8702e-001 29669 98785,98993,98811
 1.6500e+001 99206  6.0310e-001 -2.9115e-001  1.3278e-001 29669 99252,98837,99180
 1.6500e+001 99229  3.0403e-001 -1.9771e-001  4.5755e-001 29669 98941,99180,98967
 1.6500e+001 99278  5.3735e-001  1.8928e-001  9.5963e-002 29669 98941,98863,99252
 1.6500e+001 99301  7.5549e-001  7.2961e-002  2.2428e-001 29669 98941,99252,99180
 1.6500e+001 99350  7.2199e-001  1.6164e-002  3.6908e-001 29669 98967,99180,99324
 1.6500e+001 99373  7.2831e-001 -7.0747e-002  3.8527e-001 29669 98967,99324,98993
 1.6500e+001 99958  4.8567e-001  3.1573e-001  1.4135e-001 29051 99981,99765,99739
 1.6500e+001 99935  1.9758e-001 -3.5941e-002  1.2536e-002 29051 99981,99739,99661
 1.6500e+001 99912  2.3394e-001 -1.1116e+000  2.5966e-002 29051 99765,99817,99791
 1.6500e+001 99889  3.1807e-001 -3.7800e-001 -8.6725e-002 29051 99635,99817,99661
 1.6500e+001 99866 -4.7886e-002 -3.9531e-002  1.9380e-001 29051 99661,99739,99687
 1.6500e+001 99843 -2.2924e-001 -2.7279e-002  1.3435e-001 29051 99687,99739,99713
 1.6500e+001 100007  6.5990e-001 -4.1737e-002  1.6807e-001 29051 99817,99765,99981
 1.6500e+001 100030  5.1117e-001 -1.9172e-001  1.0487e-001 29051 99817,99981,99661
 1.6500e+001 100278  5.1292e-001 -2.2697e-001  1.9446e-001 28525 100445,100301,100131
 1.6500e+001 100255  2.6877e-001  1.1930e-001  1.4038e-001 28525 100373,100301,100079
 1.6500e+001 100232  2.4738e-001 -1.6356e-001  1.7825e-001 28525 100373,100079,100053
 1.6500e+001 100209  3.2758e-001 -9.9310e-002  5.9950e-002 28525 100445,100131,100105
 1.6500e+001 100327  6.7242e-001 -1.8641e-001  2.9760e-001 28525 100517,100301,100157
 1.6500e+001 100350  5.3969e-001  5.2750e-001  3.2123e-001 28525 100157,100301,100183
 1.6500e+001 100399  2.5612e-001 -1.7557e-001  2.8540e-001 28525 100183,100301,100373
 1.6500e+001 100422  2.9908e-001 -3.7641e-001  3.2062e-001 28525 100183,100373,100053
 1.6500e+001 100471  2.6660e-001 -2.5495e-001 -1.0584e-001 28525 100079,100301,100445
 1.6500e+001 100494 -2.6109e-001 -3.6942e-001 -2.5051e-001 28525 100079,100445,100105
 1.6500e+001 100543  8.7383e-001  7.5355e-002  4.2457e-002 28525 100131,100301,100517
 1.6500e+001 101209 -6.1460e-001 -1.1336e-001 -4.9810e-002 28185 100938,101016,100990
 1.6500e+001 101186 -7.8766e-001 -2.2702e-002  3.2070e-002 28185 100912,101016,100938
 1.6500e+001 101163 -2.0672e-001  1.4619e-001  1.2295e-001 28185 100912,101068,101016
 1.6500e+001 101140 -7.6358e-001  1.5792e-001  6.8367e-002 28185 100886,101068,100912
 1.6500e+001 101117 -2.0298e-001  4.0950e-001  1.7635e-001 28185 101016,101068,101042
 1.6500e+001 101094 -1.8637e+000 -4.6137e-001 -8.7959e-002 28185 100938,100990,100964
 1.6500e+001 101408  1.8187e-001 -1.4853e-001 -1.0603e-001 27781 101503,101431,101310
 1.6500e+001 101385 -1.0372e-001  4.2972e-002 -3.5165e-001 27781 101431,101258,101232
 1.6500e+001 101362  2.1753e-001 -1.6877e-001 -1.2587e-001 27781 101503,101310,101284
 1.6500e+001 101457  7.3766e-001  9.7311e-002 -1.6690e-001 27781 101336,101310,101431
 1.6500e+001 101480  2.0366e-001  1.8196e-001 -3.8247e-001 27781 101575,101431,101232
 1.6500e+001 101529  3.4803e-001 -1.2560e-001 -2.9285e-001 27781 101258,101431,101503
 1.6500e+001 101552  2.4471e-001 -1.7072e-001 -1.4326e-001 27781 101705,101503,101284
 1.6500e+001 101601  3.8723e-001  4.8998e-001 -4.6124e-001 27781 101336,101431,101575
 1.6500e+001 101731 -6.6355e-002 -2.9382e-001 -3.0601e-001 27781 101258,101503,101705
 1.6500e+001 102237 -2.4309e-001 -1.5586e-001  4.2972e-002 27419 102476,102260,101992
 1.6500e+001 102214 -1.1006e-001 -2.7924e-001  5.3262e-003 27419 102260,101940,101914
 1.6500e+001 102191 -3.2639e-001 -3.4940e-001  3.7751e-002 27419 102404,102332,102096
 1.6500e+001 102168 -2.7651e-001 -3.4536e-001 -1.4459e-002 27419 102404,102096,102044
 1.6500e+001 102145 -2.1455e-001 -1.7906e-001  6.0581e-002 27419 102476,101992,101966
 1.6500e+001 102122 -1.9406e-001 -3.6115e-001 -2.2011e-002 27419 102044,102096,102070
 1.6500e+001 102286 -3.3288e-001 -2.7430e-001  8.2485e-002 27419 102018,101992,102260
 1.6500e+001 102309 -2.7083e-001 -2.3864e-001  1.1572e-002 27419 102332,102018,102260
 1.6500e+001 102358 -3.0893e-001 -5.1062e-001  1.4080e-001 27419 101914,102096,102332
 1.6500e+001 102381 -2.0695e-001 -3.7925e-001  4.9565e-002 27419 101914,102332,102260
 1.6500e+001 102430 -2.1833e-001 -3.1974e-001  1.1161e-002 27419 102018,102332,102404
 1.6500e+001 102453 -1.8697e-001 -3.1427e-001 -4.6425e-002 27419 102018,102404,102044
 1.6500e+001 102502 -1.5256e-001 -2.4888e-001  6.3757e-002 27419 101940,102260,102476
 1.6500e+001 102525  2.4758e-001 -5.1714e-002  2.3804e-004 27419 101940,102476,101966
 1.6500e+001 103031 -4.2527e-001 -3.9290e-001  4.6129e-001 26715 102708,102786,102760
 1.6500e+001 103008  1.5681e-001 -3.1385e-001  1.4439e-001 26715 102708,102890,102786
 1.6500e+001 102985  6.3476e-001 -7.6338e-001  2.0372e-001 26715 102838,102890,102864
 1.6500e+001 102962  2.7146e-001 -2.1002e-001  2.4314e-001 26715 102786,102890,102838
 1.6500e+001 102939  1.1448e+000  2.0826e-001  6.0587e-001 26715 102786,102838,102812
 1.6500e+001 102916 -4.6756e-001 -1.3873e-002  8.3711e-002 26715 102708,102760,102734
 1.6500e+001 103279 -1.2957e-003 -1.1442e-002  3.1027e-002 26303 103302,103158,103080
 1.6500e+001 103256 -4.3730e-002  2.4634e-002  3.2784e-002 26303 103302,103080,103054
 1.6500e+001 103233 -8.2652e-002 -5.1830e-002  1.3986e-002 26303 103080,103158,103106
 1.6500e+001 103210  1.1332e-001 -2.2389e-003  1.5268e-002 26303 103106,103158,103132
 1.6500e+001 103328  6.7967e-002  2.5921e-002  1.4480e-002 26303 103184,103158,103302
 1.6500e+001 103351 -1.1914e-002  3.3361e-002  2.4504e-002 26303 103184,103302,103054
 1.6500e+001 103501 -1.6926e-001 -3.6312e-001  1.6588e-003 25849 103374,103426,103400
 1.6500e+001 103478 -2.1921e-001 -2.8383e-001  2.5642e-002 25849 103374,103452,103426
 1.6500e+001 104090  1.0952e-001 -1.6956e-002  1.3463e-001 25445 103793,103871,103819
 1.6500e+001 104067  2.9296e-001  6.2624e-002  5.5920e-002 25445 103793,103949,103871
 1.6500e+001 104044  3.3942e-001  2.7275e-002  1.5226e-001 25445 103871,103949,103923
 1.6500e+001 104021 -1.8022e-003  3.0846e-002 -3.1189e-002 25445 103819,103871,103845
 1.6500e+001 103998  3.9889e-001  1.6145e-001  1.6247e-001 25445 103767,103949,103793
 1.6500e+001 103975  3.9076e-001  6.4756e-002  1.6904e-001 25445 103871,103923,103897
 1.6500e+001 104419 -9.0402e-002 -8.8320e-002 -6.6619e-002 25083 104220,104298,104272
 1.6500e+001 104396 -2.1588e-001 -2.6087e-001 -6.4574e-003 25083 104220,104324,104298
 1.6500e+001 104373 -5.6522e-002 -6.6186e-002 -4.3271e-002 25083 104220,104272,104246
 1.6500e+001 104350 -1.9771e-001 -2.8146e-001 -1.0710e-002 25083 104194,104324,104220
 1.6500e+001 105102  9.2571e-002 -1.7374e-001  5.6364e-002 24793 104785,104863,104837
 1.6500e+001 105079  1.1950e-001 -2.3937e-001 -1.0255e-001 24793 104759,104863,104785
 1.6500e+001 105056  9.1100e-002 -1.9826e-002 -1.0473e-001 24793 104759,104915,104863
 1.6500e+001 105033  1.1495e-001 -1.3271e-001 -1.4839e-001 24793 104733,104915,104759
 1.6500e+001 105010  3.9329e-001  1.1775e-001 -1.5025e-001 24793 104863,104915,104889
 1.6500e+001 104987 -5.2037e-002  2.3378e-002 -2.7506e-001 24793 104681,104915,104733
 1.6500e+001 104964  1.0047e-002 -2.5147e-001  1.3755e-002 24793 104785,104837,104811
 1.6500e+001 104941 -1.8970e-002  2.5446e-001 -2.4388e-001 24793 104681,104733,104707
 1.6500e+001 105252  1.0596e+000  4.0255e-001 -7.7440e-003 24389 105477,105275,105177
 1.6500e+001 105229  3.5387e-001  5.1314e-002  2.7061e-001 24389 105347,105275,105151
 1.6500e+001 105301  1.0166e+000  2.1280e-001  6.5534e-003 24389 105203,105177,105275
 1.6500e+001 105324  1.3674e+000  9.1396e-001  3.4787e-001 24389 105203,105275,105125
 1.6500e+001 105373  1.0765e+000  4.8865e-001  3.7392e-002 24389 105125,105275,105347
 1.6500e+001 105503  7.5497e-001 -2.1134e-001 -1.0807e-001 24389 105151,105275,105477
 1.6500e+001 106088 -2.5306e-001  2.9136e-001  3.2880e-001 23735 105791,105921,105895
 1.6500e+001 106065 -8.1789e-001  1.4319e-001  4.6099e-001 23735 105765,105921,105791
 1.6500e+001 106042 -5.2097e-002  5.2839e-001  2.8594e-001 23735 105765,105947,105921
 1.6500e+001 106019 -1.0365e+000 -1.4700e-002  4.0229e-001 23735 105817,105895,105869
 1.6500e+001 105996 -6.5307e-001  1.3075e-001  4.0987e-001 23735 105791,105895,105817
 1.6500e+001 105973 -6.0937e-001 -2.6265e-001  4.3462e-001 23735 105817,105869,105843
 1.6500e+001 106417  4.4094e-001  8.3609e-001 -1.1480e-001 23295 106218,106296,106270
 1.6500e+001 106394  3.9037e-001  3.9208e-001 -1.3194e-001 23295 106218,106322,106296
 1.6500e+001 106371  1.8261e-001  2.7167e-001 -2.0521e-001 23295 106218,106270,106244
 1.6500e+001 106348  5.5019e-001  4.6040e-001 -4.9962e-002 23295 106192,106322,106218
 1.6500e+001 106746 -9.4300e-002  2.8849e-001  2.2616e-001 23005 106521,106599,106547
 1.6500e+001 106723  3.6415e-001  7.3102e-001  4.5743e-002 23005 106521,106651,106599
 1.6500e+001 106700  4.8900e-001  1.4076e-001 -1.6994e-001 23005 106547,106599,106573
 1.6500e+001 106677  4.6598e-001  6.5332e-001  3.4945e-001 23005 106599,106651,106625
 1.6500e+001 107331 -6.9292e-002  1.9305e-001 -2.1461e-001 22601 107060,107190,107138
 1.6500e+001 107308 -6.4321e-001  5.9521e-001 -4.1188e-001 22601 107034,107190,107060
 1.6500e+001 107285 -1.4315e+000 -3.9230e-001 -2.5213e-001 22601 107060,107138,107112
 1.6500e+001 107262 -9.2442e-001  1.0111e+000  5.3554e-001 22601 107008,107190,107034
 1.6500e+001 107239  1.9176e-001 -2.0281e+000  1.2812e-001 22601 107060,107112,107086
 1.6500e+001 107216 -7.7320e-001  1.6728e+000  3.6001e-001 22601 107138,107190,107164
 1.6500e+001 107807 -1.3882e-001  1.0467e-001 -2.7131e-002 22031 107974,107902,107617
 1.6500e+001 107784 -1.5418e-001  2.4279e-001 -9.5280e-002 22031 107830,107565,107513
 1.6500e+001 107761 -2.3414e-002  6.2684e-002 -1.1488e-001 22031 108046,107830,107513
 1.6500e+001 107738 -8.2536e-002  2.1096e-001  1.3297e-002 22031 107974,107617,107591
 1.6500e+001 107715 -4.3678e-002  2.1190e-002 -1.2246e-001 22031 108046,107513,107461
 1.6500e+001 107692 -4.5916e-001  3.1771e-001 -1.6306e-001 22031 107513,107565,107539
 1.6500e+001 107669  9.2703e-002  2.0477e-001 -1.9617e-001 22031 107461,107513,107487
 1.6500e+001 107856 -2.1928e-001  1.6478e-001 -5.4884e-002 22031 107902,107565,107830
 1.6500e+001 107879 -7.7712e-002 -5.4520e-002  9.5073e-005 22031 107643,107830,107435
 1.6500e+001 107928 -3.8776e-001  1.7769e-001 -1.9105e-001 22031 107643,107617,107902
 1.6500e+001 107951 -2.1751e-001  1.5060e-001  2.8380e-002 22031 107643,107902,107830
 1.6500e+001 108000 -1.7831e-001  2.5639e-001 -4.7003e-002 22031 107565,107902,107974
 1.6500e+001 108023 -1.7539e-001  2.2960e-001 -4.0337e-002 22031 107565,107974,107591
 1.6500e+001 108072  2.1398e-002  1.3861e-002 -5.1589e-002 22031 107435,107830,108046
 1.6500e+001 108095 -8.1474e-003 -5.2311e-002 -6.0850e-002 22031 107435,108046,107461
 1.6500e+001 108196  4.5545e-002 -5.8251e-002  1.5093e-002 21783 108118,108170,108144
 1.6500e+001 108655  1.3501e-001  7.7030e-001  4.5470e-001 21379 108407,108485,108459
 1.6500e+001 108632  1.5940e+000  1.9120e-001  5.5636e-001 21379 108407,108511,108485
 1.6500e+001 108609  1.6079e+000  4.5148e-001  8.5231e-001 21379 108381,108511,108407
 1.6500e+001 108586  6.4698e-001  1.1431e+000 -1.2666e-001 21379 108381,108537,108511
 1.6500e+001 108563  4.1053e-001  1.0430e-001  2.0660e-001 21379 108407,108459,108433
 1.6500e+001 109082  1.1330e-001 -4.0830e-001 -3.2448e-002 20974 109105,108863,108811
 1.6500e+001 109059 -1.1592e-001 -5.0991e-001 -7.9395e-003 20974 109105,108811,108759
 1.6500e+001 109036  9.7920e-003 -1.1121e+000  1.3080e-001 20974 109177,108889,108863
 1.6500e+001 109013 -7.7571e-002 -3.9501e-001  2.4323e-002 20974 108811,108863,108837
 1.6500e+001 108990  9.9309e-002 -5.3405e-002 -5.5596e-003 20974 108759,108941,108915
 1.6500e+001 108967  4.6820e-002 -2.7413e-002 -3.5724e-003 20974 108759,108811,108785
 1.6500e+001 109131 -9.9014e-002 -8.7145e-001  3.2602e-002 20974 109177,108863,109105
 1.6500e+001 109154  8.5491e-003 -3.0257e-002 -2.8978e-002 20974 108915,109105,108759
 1.6500e+001 109203 -8.1894e-002 -9.2557e-001 -1.8140e-001 20974 108915,108889,109177
 1.6500e+001 109226  1.8743e-002 -3.1096e-001 -2.3510e-001 20974 108915,109177,109105
 1.6500e+001 109496 -3.0479e-001  7.2992e-002 -4.0259e-002 20470 109271,109375,109297
 1.6500e+001 109473 -2.6840e-001  1.1128e-001 -5.8230e-002 20470 109271,109401,109375
 1.6500e+001 109450 -3.7260e-001  6.0281e-003 -6.7228e-002 20470 109297,109375,109349
 1.6500e+001 109427 -5.5015e-001 -3.3506e-001  1.1874e-001 20470 109297,109349,109323
 1.6500e+001 109955  1.1435e-001  4.8992e-001  3.3119e-001 20123 110050,109733,109707
 1.6500e+001 109932 -1.7882e-001  3.4750e-001  2.7889e-001 20123 110050,109707,109681
 1.6500e+001 109909  1.8110e-001  2.1214e-001  2.6826e-001 20123 109978,109759,109733
 1.6500e+001 109886  6.6114e-002  1.7085e-001  2.5161e-001 20123 110122,109978,109733
 1.6500e+001 109863  1.9288e-001  8.6582e-002  2.0924e-001 20123 109785,109837,109811
 1.6500e+001 110004  1.7256e-001  2.1277e-001  2.2009e-001 20123 109785,109759,109978
 1.6500e+001 110027  1.5099e-001  1.8813e-001  1.8934e-001 20123 109785,109978,109837
 1.6500e+001 110076 -3.9705e-003  2.6234e-001  2.0860e-001 20123 110122,109733,110050
 1.6500e+001 110099 -1.2717e-002  3.8611e-001  1.4657e-001 20123 109837,110050,109681
 1.6500e+001 110148  2.0016e-001  2.9950e-001  1.9813e-001 20123 109837,109978,110122
 1.6500e+001 110171  1.3818e-001  3.8096e-001  1.5470e-001 20123 109837,110122,110050
 1.6500e+001 110500  4.3709e-001  6.5307e-003  7.5159e-003 19511 110301,110379,110353
 1.6500e+001 110477  9.8039e-001  4.5824e-001 -2.1936e-001 19511 110301,110405,110379
 1.6500e+001 110454  4.1957e-001  1.3243e-001  7.1077e-004 19511 110275,110405,110301
 1.6500e+001 110431  3.9476e-001 -5.3692e-002  6.6415e-002 19511 110301,110353,110327
 1.6500e+001 110957  2.7439e-001  1.1604e+000  6.4417e-002 19107 110683,110735,110709
 1.6500e+001 110934  4.8917e-001  6.1012e-001 -2.8572e-001 19107 110683,110813,110735
 1.6500e+001 110911  9.2057e-001  1.1110e+000 -7.2360e-002 19107 110735,110813,110761
 1.6500e+001 110888  1.0878e+000  4.3179e-001  4.2203e-001 19107 110683,110839,110813
 1.6500e+001 110865  8.9598e-001  9.2112e-001 -2.7861e-001 19107 110761,110813,110787
 1.6500e+001 111335  6.2701e-001 -7.9311e-001  3.2502e-001 18653 111087,111165,111139
 1.6500e+001 111312  6.9210e-001 -5.3188e-004  9.3230e-002 18653 111087,111217,111165
 1.6500e+001 111289  1.8288e-001 -3.1327e-001  7.4095e-001 18653 111061,111217,111087
 1.6500e+001 111266  9.9197e-001 -1.0163e+000  1.0120e+000 18653 111087,111139,111113
 1.6500e+001 111243  5.8552e-001 -7.6596e-002 -1.5339e-001 18653 111165,111217,111191
 1.6500e+001 111735 -4.1380e-001 -2.7374e-001  1.0857e-001 18213 111461,111513,111487
 1.6500e+001 111712 -2.6204e-001 -2.9175e-001  4.8296e-002 18213 111461,111617,111513
 1.6500e+001 111689 -1.8199e-001 -9.9910e-002  6.7748e-002 18213 111513,111617,111591
 1.6500e+001 111666 -6.3878e-002 -1.5212e-001  9.6800e-002 18213 111513,111591,111539
 1.6500e+001 111643  7.7167e-002 -4.5237e-002  4.3035e-002 18213 111539,111591,111565
 1.6500e+001 111885 -1.3847e-001 -2.4988e+000 -3.2775e-004 17659 111784,111836,111810
 1.6500e+001 111862 -9.4167e-003 -1.7130e+000  3.2371e-001 17659 111758,111836,111784
 1.6500e+001 112287 -3.4411e-001 -1.8885e+000 -6.8392e-001 17411 112065,112169,112143
 1.6500e+001 112264 -1.0881e+000 -7.1554e-001 -6.3044e-001 17411 112039,112169,112065
 1.6500e+001 112241 -7.3780e-001 -3.1679e-001 -1.8825e-001 17411 112013,112169,112039
 1.6500e+001 112218  2.9295e+000 -1.3188e+000 -8.3695e-001 17411 112091,112143,112117
 1.6500e+001 112195 -1.0387e-002 -1.6084e+000 -1.7205e-001 17411 112065,112143,112091
 1.6500e+001 112508 -2.8351e-001  2.9714e-001  4.5033e-002 17007 112384,112436,112410
 1.6500e+001 112485 -1.7823e-001  4.0021e-001  8.9457e-002 17007 112332,112436,112384
 1.6500e+001 112462 -2.7427e-001  2.1316e-001  5.5394e-002 17007 112332,112384,112358
 1.6500e+001 112658 -7.2639e-001 -4.4946e-001  3.3206e-001 16553 112557,112609,112583
 1.6500e+001 112635 -1.2771e+000 -4.5309e-002  4.4872e-001 16553 112531,112609,112557
 1.6500e+001 112761  1.1991e-001 -6.7425e-001  3.0682e-002 16355 112683,112735,112709
 1.6500e+001 112913 -5.0687e-001  3.7313e-001  3.7040e-002 15949 112786,112838,112812
 1.6500e+001 112890 -1.9410e-001  9.1837e-001 -1.0754e-001 15949 112786,112864,112838
 1.6500e+001 113065  6.2032e-002 -3.2628e-001 -7.1300e-003 15609 112938,112990,112964
 1.6500e+001 113042 -7.6614e-002 -7.2975e-001 -2.0220e-001 15609 112938,113016,112990
 1.6500e+001 113420  4.8677e-001  3.5964e-001  1.1744e-001 15284 113247,113325,113299
 1.6500e+001 113397  4.7050e-001  3.1795e-001  4.5975e-002 15284 113195,113325,113247
 1.6500e+001 113374  3.4577e-001  2.6628e-001  4.9125e-002 15284 113195,113247,113221
 1.6500e+001 113351  4.0632e-001  5.2765e-001  1.1067e-001 15284 113247,113299,113273
 1.6500e+001 113521  4.8948e-002 -1.2605e-001  3.0945e-002 202 113443,113495,113469
 1.7000e+001 65564  6.7194e-002  8.9065e-002 -2.5795e-002 65155 65414,65466,65440
 1.7000e+001 65541  1.0576e-001 -1.3977e-001 -1.1253e-001 65155 65414,65492,65466
 1.7000e+001 65518  2.2165e-002 -2.5200e-001  7.3700e-002 65155 65388,65492,65414
 1.7000e+001 65883  1.5306e-001 -7.5009e-001 -1.9140e-002 64957 65635,65739,65713
 1.7000e+001 65860  1.2585e-001 -1.1240e+000 -5.8970e-002 64957 65635,65765,65739
 1.7000e+001 65837 -9.1234e-002 -1.2429e+000  1.0878e-003 64957 65609,65765,65635
 1.7000e+001 65814  1.3191e-001 -9.2123e-001  2.5179e-001 64957 65635,65713,65687
 1.7000e+001 65791  9.2513e-003 -1.0941e+000  1.6194e-001 64957 65635,65687,65661
 1.7000e+001 65984 -7.0219e-002 -3.7785e-002  7.2275e-002 64781 65906,65958,65932
 1.7000e+001 66232 -3.4768e-001 -4.3993e-001  3.9193e-001 64469 66007,66059,66033
 1.7000e+001 66209  3.8134e-002 -4.3733e-001  4.4911e-001 64469 66007,66085,66059
 1.7000e+001 66186 -3.1384e-001 -1.2184e+000  6.3243e-001 64469 66007,66137,66085
 1.7000e+001 66163 -2.0634e-001 -1.5529e+000  1.2481e+000 64469 66085,66137,66111
 1.7000e+001 66504  7.2220e-003 -1.0698e+000  2.4892e-002 64271 66279,66383,66305
 1.7000e+001 66481  1.1841e-001 -1.0688e+000 -3.9948e-002 64271 66279,66409,66383
 1.7000e+001 66458  1.9677e-001 -1.3373e+000  2.4757e-002 64271 66305,66357,66331
 1.7000e+001 66435 -7.4011e-002 -1.2081e+000  6.0282e-002 64271 66305,66383,66357
 1.7000e+001 66705  4.2375e-001 -2.9796e+000  2.4750e-001 64073 66728,66581,66555
 1.7000e+001 66682  4.3776e-001 -2.1221e+000  4.6538e-001 64073 66728,66555,66529
 1.7000e+001 66659  2.1606e-001 -1.8830e+000 -3.4433e-001 64073 66581,66633,66607
 1.7000e+001 66754 -1.2682e-001 -2.1696e+000 -6.5943e-002 64073 66633,66581,66728
 1.7000e+001 66777  9.8815e-002 -1.0472e+000  2.7468e-002 64073 66633,66728,66529
 1.7000e+001 66951 -1.4161e-001 -4.4031e-001 -6.8456e-002 63783 66824,66876,66850
 1.7000e+001 66928  5.1895e-001 -3.7901e-001  1.9624e-001 63783 66824,66902,66876
 1.7000e+001 67201 -6.2867e-001 -1.4424e+000 -1.4669e-001 63585 66976,67080,67054
 1.7000e+001 67178 -1.1512e-001 -1.2465e+000  7.8301e-002 63585 66976,67106,67080
 1.7000e+001 67155  2.0798e-001 -1.7215e+000 -6.0257e-001 63585 66976,67054,67028
 1.7000e+001 67132 -1.1275e-002 -2.2570e+000 -5.4336e-001 63585 66976,67028,67002
 1.7000e+001 67654  8.1324e-002 -8.0693e-001 -2.0622e-002 63295 67357,67487,67383
 1.7000e+001 67631  8.3880e-002 -1.0086e+000  1.1521e-001 63295 67331,67487,67357
 1.7000e+001 67608 -6.0902e-002 -1.1836e+000 -2.0656e-002 63295 67331,67513,67487
 1.7000e+001 67585  1.0476e-003 -1.1994e+000  3.5060e-003 63295 67435,67487,67461
 1.7000e+001 67562 -6.1231e-002 -1.2204e+000  2.4786e-003 63295 67383,67487,67435
 1.7000e+001 67539  2.7061e-002 -1.1238e+000  3.9837e-002 63295 67383,67435,67409
 1.7000e+001 67853 -6.8322e-002 -1.1090e+000  3.7998e-003 62891 67876,67703,67677
 1.7000e+001 67830 -4.6327e-002 -1.1460e+000 -2.2546e-002 62891 67876,67677,67781
 1.7000e+001 67807  2.1206e-002 -9.6617e-001 -7.4580e-002 62891 67948,67729,67703
 1.7000e+001 67902 -2.6698e-002 -1.0897e+000  9.1538e-003 62891 67948,67703,67876
 1.7000e+001 67925 -1.7119e-001 -1.0721e+000  4.0165e-002 62891 67755,67876,67781
 1.7000e+001 67974 -7.9341e-002 -8.0154e-001 -7.8199e-002 62891 67755,67729,67948
 1.7000e+001 67997 -5.8399e-002 -8.6474e-001 -1.2576e-002 62891 67755,67948,67876
 1.7000e+001 68218  6.4017e-002 -5.8189e-003 -8.6850e-002 62693 68042,68120,68068
 1.7000e+001 68195 -8.2042e-003  7.5876e-003  1.1742e-002 62693 68042,68146,68120
 1.7000e+001 68172 -3.0679e-001  2.3691e-001 -3.1393e-002 62693 68068,68120,68094
 1.7000e+001 68468  2.1689e-001 -3.7149e-002 -4.1367e-003 62289 68491,68295,68269
 1.7000e+001 68445  1.1483e-002 -6.6845e-002 -1.3228e-001 62289 68563,68491,68269
 1.7000e+001 68422  2.3321e-002  5.0610e-002 -4.6645e-002 62289 68563,68269,68243
 1.7000e+001 68399 -2.6695e-001 -1.8382e-001  1.2145e-002 62289 68295,68347,68321
 1.7000e+001 68517  8.6681e-002 -1.9735e-001 -6.9285e-002 62289 68347,68295,68491
 1.7000e+001 68540 -1.9414e-001 -5.8899e-002 -2.0786e-001 62289 68347,68491,68373
 1.7000e+001 68589  5.5382e-002  1.6219e-001 -1.1445e-001 62289 68373,68491,68563
 1.7000e+001 68612  1.1688e-002  2.0286e-001 -2.9142e-002 62289 68373,68563,68243
 1.7000e+001 68911 -7.8502e-002 -1.0752e+000 -5.9572e-003 62091 69222,68934,68741
 1.7000e+001 68888  1.0065e-001 -1.0460e+000 -4.6031e-002 62091 69006,68934,68689
 1.7000e+001 68865  1.2965e-001 -1.0303e+000 -2.3257e-003 62091 69006,68689,68663
 1.7000e+001 68842 -1.2317e-001 -1.0905e+000 -1.3030e-001 62091 69078,68793,68767
 1.7000e+001 68819 -1.9598e-001 -1.1429e+000  1.4205e-001 62091 69222,68741,68715
 1.7000e+001 68960 -1.8108e-001 -1.0867e+000  6.9066e-003 62091 68767,68741,68934
 1.7000e+001 68983 -6.0007e-002 -1.1331e+000 -4.0126e-002 62091 69078,68767,68934
 1.7000e+001 69032  9.0093e-002 -1.0560e+000 -2.8667e-002 62091 69150,69006,68637
 1.7000e+001 69055  8.2445e-002 -1.0670e+000 -1.9995e-002 62091 68637,69006,68663
 1.7000e+001 69104 -3.3050e-002 -8.8010e-001 -6.8348e-002 62091 68637,68793,69078
 1.7000e+001 69127  6.2403e-002 -1.0192e+000 -1.2890e-002 62091 69150,68637,69078
 1.7000e+001 69176  2.9840e-002 -1.0688e+000 -4.8943e-002 62091 68934,69006,69150
 1.7000e+001 69199 -2.6656e-002 -1.0507e+000 -2.4820e-002 62091 68934,69150,69078
 1.7000e+001 69248 -7.2938e-003 -9.2816e-001 -3.4625e-002 62091 68689,68934,69222
 1.7000e+001 69271 -3.1356e-002 -8.8133e-001  7.0104e-002 62091 68689,69222,68715
 1.7000e+001 69521 -3.5045e-001  1.6444e-001  1.9286e-002 61893 69544,69348,69296
 1.7000e+001 69498 -8.7734e-002  2.1675e-001  6.1812e-002 61893 69544,69296,69400
 1.7000e+001 69475  7.5729e-002  2.2223e-001  3.2071e-002 61893 69296,69426,69400
 1.7000e+001 69452 -2.9624e-001 -4.4018e-001 -1.0131e-001 61893 69296,69348,69322
 1.7000e+001 69570 -2.1215e-001  4.1381e-002  2.2555e-001 61893 69374,69348,69544
 1.7000e+001 69593  2.5281e-001  2.0613e-001  2.5418e-001 61893 69374,69544,69400
 1.7000e+001 70046  5.9309e-002 -8.6622e-001 -9.9517e-003 61467 69749,69905,69879
 1.7000e+001 70023  1.3028e-001 -6.8029e-001  1.9374e-001 61467 69723,69905,69749
 1.7000e+001 70000  4.1456e-002 -9.2155e-001 -3.2742e-002 61467 70069,69827,69775
 1.7000e+001 69977 -1.0915e-001 -1.3197e+000  1.0220e-001 61467 70069,69775,69749
 1.7000e+001 69954 -4.6444e-002 -6.6713e-001 -3.1616e-002 61467 70141,69853,69827
 1.7000e+001 69931  7.8924e-002 -1.1905e+000 -3.5877e-001 61467 69775,69827,69801
 1.7000e+001 70095  3.0615e-003 -7.3539e-001 -7.5981e-002 61467 70141,69827,70069
 1.7000e+001 70118  5.0271e-002 -9.0769e-001 -1.1366e-003 61467 69879,70069,69749
 1.7000e+001 70167  6.9536e-004 -7.7087e-001 -2.7284e-002 61467 69879,69853,70141
 1.7000e+001 70190 -2.1637e-002 -9.3249e-001 -7.2330e-002 61467 69879,70141,70069
 1.7000e+001 70291 -9.9728e-002 -1.5322e+000 -1.7670e-001 61013 70213,70265,70239
 1.7000e+001 70441  1.2883e-001  1.8349e-002 -1.0806e-001 60651 70340,70392,70366
 1.7000e+001 70418  1.7095e-001 -1.2170e-001 -3.4462e-002 60651 70314,70392,70340
 1.7000e+001 70642  8.6619e-002 -6.8941e-001 -2.0702e-001 60311 70665,70492,70466
 1.7000e+001 70619 -1.4531e-001 -1.2804e+000 -2.9000e-001 60311 70665,70466,70570
 1.7000e+001 70596 -3.4440e+000 -1.6029e-001  3.2647e-001 60311 70492,70544,70518
 1.7000e+001 70691  5.5463e-002 -9.3029e-002  4.0329e-001 60311 70544,70492,70665
 1.7000e+001 70714 -3.1809e-001 -9.9460e-001  3.3409e-001 60311 70544,70665,70570
 1.7000e+001 70964  3.0843e-001 -1.2671e+000  1.4114e-001 59907 70987,70765,70739
 1.7000e+001 70941  2.9862e-001 -1.3127e+000 -4.7549e-002 59907 71059,70987,70739
 1.7000e+001 70918  1.6481e-001 -1.5032e+000  1.1224e-002 59907 71059,70739,70869
 1.7000e+001 70895  1.6230e-001 -1.1025e+000  8.0879e-003 59907 70817,70869,70843
 1.7000e+001 71013  1.2664e+000 -7.9750e-001  5.8921e-001 59907 70791,70765,70987
 1.7000e+001 71036  4.1001e-001 -1.4707e+000  1.9660e-001 59907 70791,70987,70817
 1.7000e+001 71085  1.3585e-001 -1.2001e+000 -3.6606e-002 59907 70817,70987,71059
 1.7000e+001 71108  1.3207e-001 -1.2411e+000 -3.3824e-002 59907 70817,71059,70869
 1.7000e+001 71441 -5.3666e-001 -8.0363e-001  5.8812e-001 59417 71464,71242,71216
 1.7000e+001 71418 -3.4140e-001 -4.8582e-001  8.9189e-001 59417 71464,71216,71320
 1.7000e+001 71395 -5.8394e-001 -3.9347e-001  9.8333e-001 59417 71216,71346,71320
 1.7000e+001 71372 -5.6154e-001 -9.4854e-001  4.7001e-001 59417 71268,71320,71294
 1.7000e+001 71490 -7.9030e-001 -8.7063e-001  2.6188e-001 59417 71268,71242,71464
 1.7000e+001 71513 -7.5225e-001 -4.5805e-001  5.6536e-001 59417 71268,71464,71320
 1.7000e+001 71712  1.5432e+000  1.4159e+000  4.7818e-001 58913 71562,71614,71588
 1.7000e+001 71689  9.2275e-001  1.0651e+000  3.3696e-001 58913 71536,71614,71562
 1.7000e+001 71666  5.4054e-001  2.1077e+000 -1.6656e-001 58913 71536,71640,71614
 1.7000e+001 72171 -1.0335e+000 -2.2418e+000  2.3294e-001 58409 72194,72027,72001
 1.7000e+001 72148 -9.1955e-001 -2.6790e+000 -2.9994e-002 58409 72194,72001,71949
 1.7000e+001 72125 -6.1838e-001 -1.4735e+000  1.2408e-002 58409 71923,72053,71949
 1.7000e+001 72102 -1.1792e+000 -2.6766e+000 -1.7613e-001 58409 71949,72001,71975
 1.7000e+001 72079 -2.8668e-001 -1.0063e+000  3.8210e-001 58409 71897,72053,71923
 1.7000e+001 72220 -7.9234e-001 -2.0633e+000  4.1683e-001 58409 72053,72027,72194
 1.7000e+001 72243 -6.9043e-001 -2.3646e+000  1.3702e-001 58409 72053,72194,71949
 1.7000e+001 72491  8.6939e-001  1.3996e+000  3.1475e-001 57855 72514,72318,72292
 1.7000e+001 72468  1.2850e+000  1.3958e+000  5.4916e-001 57855 72514,72292,72266
 1.7000e+001 72445  7.6118e-001  1.3604e+000  4.1718e-001 57855 72318,72396,72370
 1.7000e+001 72422  5.6910e-001  1.3557e+000  3.2116e-001 57855 72318,72370,72344
 1.7000e+001 72540  8.2451e-001  1.5647e+000  4.1780e-001 57855 72396,72318,72514
 1.7000e+001 72563  8.6459e-001  1.6964e+000  4.9747e-001 57855 72396,72514,72266
 1.7000e+001 72811 -2.7673e-001 -2.2460e+000  1.1899e+000 57401 72612,72690,72638
 1.7000e+001 72788 -2.2397e+000 -3.0757e+000  1.5949e+000 57401 72586,72690,72612
 1.7000e+001 72765  3.7801e+000 -3.8853e+000  1.3468e-001 57401 72638,72690,72664
 1.7000e+001 72742  3.0072e-001 -1.2154e+000  7.4078e-001 57401 72586,72716,72690
 1.7000e+001 73144 -6.0357e-002 -1.0330e+000 -3.3822e-002 57004 72919,72997,72945
 1.7000e+001 73121 -1.4858e-001 -1.2679e+000  3.9006e-002 57004 72919,73049,72997
 1.7000e+001 73098 -1.9050e-001 -9.1294e-001 -1.3783e-001 57004 72945,72997,72971
 1.7000e+001 73075 -1.2135e-001 -1.2334e+000  6.4420e-002 57004 72997,73049,73023
 1.7000e+001 73650 -4.9824e-001 -3.2821e+000  2.6669e-001 56592 73673,73379,73353
 1.7000e+001 73627 -7.9970e-001 -2.5880e+000  1.2862e+000 56592 73673,73353,73327
 1.7000e+001 73604  5.5279e-001 -1.8378e+000  1.0866e+000 56592 73745,73509,73483
 1.7000e+001 73581  1.0633e+000 -2.0904e+000  6.2180e-001 56592 73379,73457,73405
 1.7000e+001 73558  1.5428e+000 -2.1336e+000  1.1179e+000 56592 73379,73483,73457
 1.7000e+001 73535  2.3052e+000 -1.3117e+000  9.5367e-001 56592 73405,73457,73431
 1.7000e+001 73699 -3.4405e-002 -2.6189e+000  8.2511e-001 56592 73483,73379,73673
 1.7000e+001 73722  4.7001e-001 -2.5448e+000  1.3412e+000 56592 73745,73483,73673
 1.7000e+001 73771  2.6877e-001 -4.1899e-001  6.1776e-001 56592 73327,73509,73745
 1.7000e+001 73794 -1.5567e-001 -1.2760e+000  1.0487e+000 56592 73327,73745,73673
 1.7000e+001 74123  3.4673e-001  2.4384e-001 -5.7848e-001 56152 74146,74002,73924
 1.7000e+001 74100  5.5235e-001  2.1991e-001 -4.6046e-001 56152 74146,73924,73898
 1.7000e+001 74077  1.2592e+000  7.0397e-001 -8.1119e-001 56152 73924,74002,73976
 1.7000e+001 74054  6.3798e-001 -7.0422e-001  3.6073e-001 56152 73924,73976,73950
 1.7000e+001 74172  1.5716e-001  4.7651e-001 -4.5260e-001 56152 74028,74002,74146
 1.7000e+001 74195  4.5781e-001  3.7444e-001 -3.3495e-001 56152 74028,74146,73898
 1.7000e+001 74345  1.5370e+000 -4.2584e-001 -7.9266e-001 55634 74218,74270,74244
 1.7000e+001 74322 -1.8472e-001 -4.6886e-001 -3.4155e-001 55634 74218,74296,74270
 1.7000e+001 74823 -1.4878e-001 -2.7432e+000  4.5247e-001 55016 74918,74846,74581
 1.7000e+001 74800 -4.5177e-001 -2.8488e+000  1.6055e-001 55016 74846,74477,74633
 1.7000e+001 74777 -8.2690e-001 -3.2631e+000  6.8385e-001 55016 74918,74581,74555
 1.7000e+001 74754 -8.5513e-001 -2.4534e+000  2.0379e-001 55016 74990,74503,74477
 1.7000e+001 74731 -4.0062e-001 -3.2988e+000 -5.6147e-001 55016 74451,74633,74477
 1.7000e+001 74708 -1.3495e+000 -2.2539e+000 -9.0377e-001 55016 74451,74659,74633
 1.7000e+001 74685 -1.8990e+000 -1.4809e+000  1.4061e+000 55016 74503,74555,74529
 1.7000e+001 74872 -4.9589e-001 -3.5646e+000  4.5732e-001 55016 74607,74581,74846
 1.7000e+001 74895 -2.0215e-001 -3.0948e+000  2.7239e-001 55016 74607,74846,74633
 1.7000e+001 74944 -1.0096e+000 -3.1525e+000  3.0921e-001 55016 74477,74846,74918
 1.7000e+001 74967 -8.0964e-001 -2.5750e+000  3.3415e-001 55016 74990,74477,74918
 1.7000e+001 75016 -1.0153e+000 -2.4999e+000  5.3235e-001 55016 74555,74503,74990
 1.7000e+001 75039 -1.0724e+000 -2.8412e+000  6.6177e-001 55016 74555,74990,74918
 1.7000e+001 75287 -8.9225e-001 -6.5077e+000  1.0161e+000 54726 75310,75140,75114
 1.7000e+001 75264 -1.4216e+000 -5.4970e+000  7.0519e-001 54726 75310,75114,75088
 1.7000e+001 75241  1.8271e-001 -4.4393e+000  1.5542e-001 54726 75088,75192,75166
 1.7000e+001 75218 -7.9911e-001 -9.9125e-001  8.9031e-001 54726 75062,75192,75088
 1.7000e+001 75336 -1.4776e-001 -5.8850e+000  4.7858e-001 54726 75166,75140,75310
 1.7000e+001 75359 -1.2103e+000 -4.9853e+000  4.0009e-001 54726 75166,75310,75088
 1.7000e+001 75946 -1.3091e-001 -4.8615e-001 -1.8452e-001 54322 75969,75701,75649
 1.7000e+001 75923  1.3351e-001 -3.5726e-001 -2.3206e-001 54322 75969,75649,75623
 1.7000e+001 75900 -3.2450e-002 -3.5058e-001 -3.8442e-002 54322 76041,75753,75701
 1.7000e+001 75877 -6.7475e-002 -7.7901e-001 -4.9140e-002 54322 75623,75805,75779
 1.7000e+001 75854 -6.9669e-002 -4.4106e-001  1.5187e-001 54322 75701,75753,75727
 1.7000e+001 75831 -3.8662e-003 -1.2442e-001 -7.7561e-002 54322 75649,75701,75675
 1.7000e+001 75995  6.3394e-002 -4.0053e-001 -1.1561e-001 54322 76041,75701,75969
 1.7000e+001 76018  7.8090e-002 -5.1882e-001 -1.2442e-001 54322 75779,75969,75623
 1.7000e+001 76067 -9.8836e-002 -4.8292e-001 -2.4021e-003 54322 75779,75753,76041
 1.7000e+001 76090 -2.6390e-002 -5.7759e-001 -7.8120e-002 54322 75779,76041,75969
 1.7000e+001 76468 -3.4668e-002 -5.1264e-001 -7.6931e-002 53868 76491,76272,76220
 1.7000e+001 76445  5.2073e-002 -5.3034e-001 -2.9996e-002 53868 76491,76220,76324
 1.7000e+001 76422 -2.4878e-002 -6.9425e-001 -1.0373e-001 53868 76220,76272,76246
 1.7000e+001 76399  9.7881e-002 -5.8044e-001 -5.4736e-002 53868 76194,76324,76220
 1.7000e+001 76376  5.3059e-001 -4.0651e-001  5.4869e-002 53868 76194,76350,76324
 1.7000e+001 76517  1.4429e-002 -4.7314e-001 -2.8246e-002 53868 76298,76272,76491
 1.7000e+001 76540  1.0069e-001 -5.0256e-001  1.4712e-002 53868 76298,76491,76324
 1.7000e+001 76690 -3.2783e-003 -6.6797e-001  6.4222e-002 53356 76589,76641,76615
 1.7000e+001 76667 -2.0352e-001 -8.7347e-001 -2.2766e-002 53356 76563,76641,76589
 1.7000e+001 76938  2.1101e-001  3.7487e-001  1.0023e-001 53009 77105,76961,76765
 1.7000e+001 76915 -7.5721e-002 -1.5619e+000 -6.0871e-001 53009 76961,76713,76843
 1.7000e+001 76892 -2.3589e-001 -7.2434e-001  5.4773e-002 53009 77033,76817,76791
 1.7000e+001 76869  5.9383e-001  1.7737e+000 -7.7939e-002 53009 77105,76765,76739
 1.7000e+001 76987 -2.5972e-001 -7.0234e-001 -1.8017e-001 53009 76791,76765,76961
 1.7000e+001 77010 -1.8847e-001 -4.3233e-001 -2.1560e-001 53009 77033,76791,76961
 1.7000e+001 77059  2.0393e-001 -4.7732e-001 -2.0559e-001 53009 76843,76817,77033
 1.7000e+001 77082  1.6074e-001 -3.5556e-001 -4.5820e-001 53009 76843,77033,76961
 1.7000e+001 77131  8.2528e-001 -3.2588e-002 -1.0328e+000 53009 76713,76961,77105
 1.7000e+001 77154  1.0137e+000  4.8650e-001 -1.2343e+000 53009 76713,77105,76739
 1.7000e+001 77355  5.6941e-001 -4.2641e+000  5.0879e-001 52390 77378,77257,77231
 1.7000e+001 77332  6.9359e-001 -5.4130e+000  6.8096e-001 52390 77378,77231,77179
 1.7000e+001 77309  1.4020e+000 -4.0338e+000  4.1092e-001 52390 77179,77231,77205
 1.7000e+001 77404  8.6584e-001 -5.1904e+000  1.0889e+000 52390 77283,77257,77378
 1.7000e+001 77427  7.6604e-001 -6.7337e+000  1.1684e+000 52390 77283,77378,77179
 1.7000e+001 77677 -1.1574e+000  1.2657e+000 -1.4976e+000 51986 77700,77504,77478
 1.7000e+001 77654 -2.2721e-001  1.2447e+000 -1.3407e+000 51986 77700,77478,77452
 1.7000e+001 77631  4.2220e-001  1.1905e+000 -1.4115e+000 51986 77772,77556,77530
 1.7000e+001 77608  3.5609e+000  2.2301e+000 -2.2968e+000 51986 77452,77582,77556
 1.7000e+001 77726 -3.7858e-001  1.5486e+000 -9.6266e-001 51986 77530,77504,77700
 1.7000e+001 77749  3.7936e-001  1.1697e+000 -1.1296e+000 51986 77772,77530,77700
 1.7000e+001 77798  9.6809e-002  1.0309e+000 -1.3198e+000 51986 77452,77556,77772
 1.7000e+001 77821 -7.5267e-002  1.0200e+000 -1.0781e+000 51986 77452,77772,77700
 1.7000e+001 78282 -1.1034e+000 -3.1976e+000  8.6697e-002 51738 78008,78138,78060
 1.7000e+001 78259 -1.3393e+000 -4.1783e+000  2.5238e+000 51738 78008,78164,78138
 1.7000e+001 78236 -9.0515e-001 -1.8918e+000  5.9621e-001 51738 78086,78138,78112
 1.7000e+001 78213 -6.0665e-001 -1.3686e+000  7.2482e-001 51738 78060,78138,78086
 1.7000e+001 78190 -9.1205e-003 -4.5276e+000 -5.9182e-001 51738 78008,78060,78034
 1.7000e+001 78432  1.9266e-001 -4.1052e-001  1.8750e-002 51148 78305,78357,78331
 1.7000e+001 78409  1.2043e-001 -3.0272e-001  2.3347e-002 51148 78305,78383,78357
 1.7000e+001 78891 -1.5607e-001 -5.9937e-001 -8.0628e-002 50808 78914,78695,78669
 1.7000e+001 78868 -7.6570e-002 -4.0689e-001 -6.7279e-002 50808 78914,78669,78643
 1.7000e+001 78845 -5.8882e-002 -5.4431e-001 -3.5083e-001 50808 78643,78773,78747
 1.7000e+001 78822 -2.7725e-002 -5.9977e-001 -3.3433e-001 50808 78617,78773,78643
 1.7000e+001 78799 -2.9710e-001 -5.8919e-001 -1.3628e-001 50808 78695,78747,78721
 1.7000e+001 78940 -2.0308e-001 -4.6395e-001 -2.0825e-001 50808 78747,78695,78914
 1.7000e+001 78963 -1.4666e-001 -3.6159e-001 -1.8602e-001 50808 78747,78914,78643
 1.7000e+001 79260  6.7467e-002 -5.3486e-001 -5.2827e-002 50468 79283,79090,79012
 1.7000e+001 79237  2.5361e-001 -5.1421e-001  6.8230e-004 50468 79283,79012,78986
 1.7000e+001 79214 -1.3156e-001 -6.2179e-001 -7.2593e-002 50468 79012,79090,79038
 1.7000e+001 79191  1.1390e-001 -4.5256e-001  8.3270e-002 50468 78986,79142,79116
 1.7000e+001 79168 -4.8902e-002 -6.2108e-001 -1.0489e-001 50468 79038,79090,79064
 1.7000e+001 79309 -1.2929e-001 -4.8769e-001 -7.0584e-002 50468 79116,79090,79283
 1.7000e+001 79332  1.0211e-001 -4.2257e-001 -8.5733e-004 50468 79116,79283,78986
 1.7000e+001 79889  8.8676e-001  1.2011e+000 -4.3518e-001 50064 79569,79725,79699
 1.7000e+001 79866  1.0122e+000  1.2392e+000 -3.4494e-001 50064 79543,79725,79569
 1.7000e+001 79843  9.2573e-001  8.7829e-001 -4.6281e-001 50064 79621,79699,79673
 1.7000e+001 79820  1.1109e+000  1.2834e+000 -8.1879e-001 50064 79595,79699,79621
 1.7000e+001 79797  1.6586e+000  1.3991e+000 -6.0445e-001 50064 79569,79699,79595
 1.7000e+001 79774  5.2200e-001  1.2736e+000 -1.6514e-001 50064 79517,79725,79543
 1.7000e+001 79751  4.8016e-001  6.9934e-001 -5.6556e-001 50064 79621,79673,79647
 1.7000e+001 80169  1.0554e+000  1.5298e+000 -6.9287e-001 49724 80019,80097,80071
 1.7000e+001 80146  9.5662e-001  1.9405e+000 -7.9718e-001 49724 79993,80097,80019
 1.7000e+001 80123  6.8558e-001  1.4133e+000 -7.8906e-001 49724 80019,80071,80045
 1.7000e+001 80626  1.7042e-001  3.7040e-001  2.4367e-001 49277 80352,80482,80378
 1.7000e+001 80603 -2.0892e-001  2.5568e-001 -3.2729e-002 49277 80352,80508,80482
 1.7000e+001 80580 -1.2827e-001 -3.5679e-001  4.8468e-002 49277 80378,80482,80456
 1.7000e+001 80557 -7.7810e-002 -7.0098e-001  3.2990e-001 49277 80378,80430,80404
 1.7000e+001 80534 -3.3643e-002 -2.7206e-001  2.5140e-001 49277 80378,80456,80430
 1.7000e+001 81230  5.8458e-001 -3.6417e-001  2.0144e-001 48716 81253,80835,80809
 1.7000e+001 81207  5.0841e-001 -3.5095e-001  5.3478e-001 48716 81397,81253,80809
 1.7000e+001 81184  5.0914e-002  1.7767e-001 -6.7532e-002 48716 81325,80913,80887
 1.7000e+001 81161 -1.5398e-001 -4.4648e-001  6.9284e-001 48716 81397,80809,81017
 1.7000e+001 81138 -1.7784e-001  4.1249e-001 -1.5343e-001 48716 81469,80965,80913
 1.7000e+001 81115 -1.5133e-001 -6.3575e-001  2.3079e-001 48716 80835,80887,80861
 1.7000e+001 81092  9.9081e-001 -4.1445e-001  1.3750e+000 48716 80809,81043,81017
 1.7000e+001 81069  1.4192e-002  1.8010e-001 -3.4713e-001 48716 80913,80965,80939
 1.7000e+001 81279  1.8546e-001 -3.5603e-001  4.2246e-002 48716 80887,80835,81253
 1.7000e+001 81302 -1.4367e-002  1.7303e-001 -3.3316e-003 48716 81325,80887,81253
 1.7000e+001 81351  1.1883e-001  3.1938e-001 -3.9457e-002 48716 81469,80913,81325
 1.7000e+001 81374 -3.0516e-002  5.3988e-001  1.2715e-001 48716 80991,81325,81253
 1.7000e+001 81423 -4.7614e-001  6.0298e-002  6.2661e-001 48716 80991,81253,81397
 1.7000e+001 81446 -1.2350e+000 -1.5279e-001  8.4993e-001 48716 80991,81397,81017
 1.7000e+001 81495 -6.4531e-001  3.5707e-001 -1.2839e-001 48716 80991,80965,81469
 1.7000e+001 81518 -4.0718e-001  2.2052e-001 -1.5798e-002 48716 80991,81469,81325
 1.7000e+001 81717 -6.3987e-002 -5.5976e-001  6.0415e-002 48262 81740,81567,81541
 1.7000e+001 81694 -1.8522e-001 -5.5827e-001  7.5061e-003 48262 81740,81541,81645
 1.7000e+001 81671 -1.3758e-001 -6.0479e-001 -2.2647e-002 48262 81567,81619,81593
 1.7000e+001 81766 -1.4054e-001 -5.7048e-001 -9.8895e-003 48262 81619,81567,81740
 1.7000e+001 81789 -2.7309e-001 -5.9833e-001 -7.1690e-002 48262 81619,81740,81645
 1.7000e+001 81939  8.8650e-001  1.1607e+000 -5.2168e-001 47957 82034,81962,81864
 1.7000e+001 81916  6.4847e-001  8.4164e-001 -1.7012e-001 47957 82166,81962,81838
 1.7000e+001 81988 -6.1110e-001  1.0349e+000 -5.4907e-001 47957 82294,81962,81890
 1.7000e+001 82011  5.6408e-001  1.7385e+000  2.8783e-001 47957 81890,81962,81812
 1.7000e+001 82060  7.8734e-001  1.6919e+000 -1.7477e-002 47957 81838,81962,82034
 1.7000e+001 82192  8.0702e-001  9.5569e-001  3.1341e-001 47957 81812,81962,82166
 1.7000e+001 82320 -3.3883e-002  1.0997e+000 -6.6502e-001 47957 81864,81962,82294
 1.7000e+001 82549 -9.2969e-004 -6.1506e-001 -1.6646e-001 47617 82448,82500,82474
 1.7000e+001 82526  2.7656e-001 -7.9909e-001  2.5951e-004 47617 82422,82500,82448
 1.7000e+001 82902 -4.0279e-001 -1.1135e+000  1.0394e-001 47255 82729,82807,82755
 1.7000e+001 82879 -2.1533e-001 -2.2675e+000  3.5480e-001 47255 82703,82807,82729
 1.7000e+001 82856 -8.7830e-001 -1.1887e+000  6.2860e-001 47255 82755,82807,82781
 1.7000e+001 82833  1.0492e+000 -1.7258e+000  4.8209e-001 47255 82677,82807,82703
 1.7000e+001 83182  3.4917e-001 -8.7796e-001  1.6066e-001 46680 83032,83084,83058
 1.7000e+001 83159  4.8304e-001 -3.1319e-001  1.6140e-001 46680 83205,83084,83032
 1.7000e+001 83136  7.5823e-001 -1.2510e-001 -6.5180e-002 46680 83006,83110,83084
 1.7000e+001 83231  2.6665e-001 -4.6376e-001  9.2295e-002 46680 83006,83084,83205
 1.7000e+001 83737 -7.2279e-001 -2.5554e-001  3.7364e-002 46290 83832,83760,83492
 1.7000e+001 83714 -5.4435e-001  1.6890e-001 -1.3784e-001 46290 83760,83440,83414
 1.7000e+001 83691 -3.9362e-001 -4.6034e-001 -2.2902e-002 46290 83832,83492,83466
 1.7000e+001 83668 -5.8552e-001 -9.7443e-001  1.9962e-001 46290 83492,83570,83544
 1.7000e+001 83645 -4.7918e-001 -1.5610e-001 -3.0351e-001 46290 83414,83596,83570
 1.7000e+001 83622 -7.4013e-001 -7.2515e-001  4.1311e-001 46290 83492,83544,83518
 1.7000e+001 83786 -7.1425e-001 -2.1196e-001  4.4405e-002 46290 83570,83492,83760
 1.7000e+001 83809 -7.1022e-001 -3.8521e-001 -1.8689e-001 46290 83570,83760,83414
 1.7000e+001 83858 -3.0658e-001  2.3275e-002  1.6530e-001 46290 83440,83760,83832
 1.7000e+001 83881  2.3638e-001 -1.8764e-001  5.4259e-002 46290 83440,83832,83466
 1.7000e+001 84161 -1.0609e-001 -7.7688e-001  3.4987e-001 45829 84011,84063,84037
 1.7000e+001 84138  2.8522e-002 -4.5922e-001  9.6219e-002 45829 84011,84089,84063
 1.7000e+001 84115  7.0067e-002 -4.3841e-001  1.5548e-001 45829 83985,84089,84011
 1.7000e+001 84311  1.5489e-001  9.8958e-002  1.3585e-001 45631 84184,84236,84210
 1.7000e+001 84288 -2.1346e-001 -1.1033e+000 -4.4009e-002 45631 84184,84262,84236
 1.7000e+001 84657 -9.6371e-002 -4.7428e-001 -2.1581e-002 45155 84680,84490,84412
 1.7000e+001 84634 -1.5773e-001 -4.2963e-001 -5.7709e-003 45155 84680,84412,84360
 1.7000e+001 84611 -1.5381e-001 -5.1286e-001  1.9774e-002 45155 84412,84490,84438
 1.7000e+001 84588  1.8546e-002 -3.2399e-001 -4.2511e-002 45155 84334,84516,84360
 1.7000e+001 84565 -1.9109e-001 -4.9629e-001 -1.3927e-001 45155 84360,84412,84386
 1.7000e+001 84542 -1.2915e-001 -4.2980e-001  6.6681e-002 45155 84438,84490,84464
 1.7000e+001 84706 -7.2449e-002 -4.3672e-001 -3.4215e-002 45155 84516,84490,84680
 1.7000e+001 84729 -1.1894e-001 -3.7982e-001 -2.5483e-002 45155 84516,84680,84360
 1.7000e+001 85077  2.1797e-001 -1.5001e-001  5.4554e-002 44508 85100,84754,84910
 1.7000e+001 85054  2.5771e-001  1.6344e-001  8.2311e-002 44508 84754,84936,84910
 1.7000e+001 85031  6.2426e-002 -3.1061e-001  2.0905e-001 44508 85100,84910,84884
 1.7000e+001 85008 -1.0248e-001 -3.4015e-001  8.3248e-002 44508 84780,84884,84832
 1.7000e+001 84985  1.4857e-001  1.2109e-001 -1.2575e-001 44508 84780,84832,84806
 1.7000e+001 84962  6.0826e-001  1.3979e-001 -1.2567e-001 44508 84832,84884,84858
 1.7000e+001 85126  9.0584e-002  9.5294e-002 -6.5248e-002 44508 84780,84754,85100
 1.7000e+001 85149 -2.6532e-002 -6.6802e-002  7.5884e-002 44508 84780,85100,84884
 1.7000e+001 85482 -4.3159e-001 -6.7550e-001 -2.8970e-002 44104 85335,85387,85361
 1.7000e+001 85459 -3.6753e-001 -1.0160e+000  9.3313e-003 44104 85309,85387,85335
 1.7000e+001 85436 -1.6247e-001 -7.5983e-001  1.3290e-001 44104 85257,85387,85309
 1.7000e+001 85413 -3.1774e-001 -1.3621e+000  9.2192e-002 44104 85257,85309,85283
 1.7000e+001 85811 -1.0641e-001 -3.1242e-001 -3.7819e-002 43600 85586,85664,85612
 1.7000e+001 85788 -1.7160e-001 -3.9518e-001 -5.2609e-004 43600 85586,85690,85664
 1.7000e+001 85765  2.7039e-002 -3.1176e-001 -3.3356e-002 43600 85586,85716,85690
 1.7000e+001 85742 -7.9000e-002 -3.1661e-001 -1.2699e-002 43600 85612,85664,85638
 1.7000e+001 86010 -1.4663e-002 -3.7167e-001 -7.7876e-002 43224 85886,85938,85912
 1.7000e+001 85987  8.2942e-002 -1.3710e-003 -1.2742e-001 43224 85834,85938,85886
 1.7000e+001 85964 -2.9925e-001 -4.1821e-001  3.5759e-002 43224 85834,85886,85860
 1.7000e+001 86420  1.7725e+000  9.0440e-001 -3.2937e-001 42820 86195,86299,86221
 1.7000e+001 86397  1.3253e+000  8.5095e-001 -9.6193e-001 42820 86195,86325,86299
 1.7000e+001 86374  1.1260e+000  1.0678e+000 -2.9651e-002 42820 86221,86299,86273
 1.7000e+001 86351  1.0346e+000  5.9426e-001  1.0449e-001 42820 86221,86273,86247
 1.7000e+001 86749  3.2683e-001 -2.8850e-001 -1.6148e-001 42223 86550,86602,86576
 1.7000e+001 86726  1.0281e+000 -6.2649e-001 -5.8535e-003 42223 86550,86628,86602
 1.7000e+001 86703  5.3183e-002 -9.5758e-001  2.9289e-001 42223 86524,86628,86550
 1.7000e+001 86680  5.8583e-001 -3.4715e-002  7.3627e-002 42223 86524,86654,86628
 1.7000e+001 87078  6.5981e-001 -2.3769e-001  2.4647e-001 41883 87173,87101,86905
 1.7000e+001 87055  4.9197e-001  4.1546e-001 -1.8013e-003 41883 87101,86879,86853
 1.7000e+001 87032  1.1412e-001  3.3723e-002  3.5943e-003 41883 86853,86983,86931
 1.7000e+001 87009  8.7947e-003 -3.6748e-001  1.0581e-001 41883 86931,86983,86957
 1.7000e+001 87127  7.9047e-001 -9.5552e-002 -4.4919e-004 41883 86931,86905,87101
 1.7000e+001 87150  2.1320e-001 -2.3180e-001 -4.0352e-002 41883 86931,87101,86853
 1.7000e+001 87199  1.9166e-001 -1.9710e-001  2.2499e-001 41883 86879,87101,87173
 1.7000e+001 87558  6.8761e-002  4.1160e-001 -1.8502e-002 41471 87382,87460,87408
 1.7000e+001 87535 -6.2314e-001 -6.8347e-002 -2.2929e-001 41471 87382,87486,87460
 1.7000e+001 87512 -2.2594e-001  1.7450e-001 -1.5173e-001 41471 87408,87460,87434
 1.7000e+001 87806  1.4293e-001 -2.4364e-001  6.1795e-002 41017 87829,87607,87581
 1.7000e+001 87783  1.0191e-001 -3.7100e-001  9.8820e-002 41017 87829,87581,87685
 1.7000e+001 87760  3.0345e-001 -1.1327e-001  9.3373e-003 41017 87581,87711,87685
 1.7000e+001 87737  3.0877e-001 -7.7754e-001  4.3943e-002 41017 87633,87685,87659
 1.7000e+001 87855  1.3436e-001 -2.8811e-001  1.5783e-001 41017 87633,87607,87829
 1.7000e+001 87878  8.3193e-002 -4.2303e-001  1.9740e-001 41017 87633,87829,87685
 1.7000e+001 88258 -1.4839e-002  1.1874e-002  4.7763e-003 40613 88281,88036,88010
 1.7000e+001 88235  1.8485e-002  2.7034e-003 -8.5863e-003 40613 88281,88010,88088
 1.7000e+001 88212  1.5922e-002 -8.9416e-003 -5.6877e-004 40613 87984,88088,88010
 1.7000e+001 88189  1.8229e-002 -1.5474e-004 -1.1943e-002 40613 87984,88114,88088
 1.7000e+001 88166 -3.3866e-003  7.8263e-004 -1.0885e-002 40613 87984,88140,88114
 1.7000e+001 88307  1.4247e-002  1.4036e-002  2.3067e-004 40613 88062,88036,88281
 1.7000e+001 88330  5.9899e-002  1.6480e-002 -1.6765e-002 40613 88062,88281,88088
 1.7000e+001 88649 -1.2255e-002 -5.1205e-002 -3.4375e-003 40095 88375,88505,88401
 1.7000e+001 88626 -8.6151e-003 -4.1777e-002 -8.1107e-003 40095 88375,88531,88505
 1.7000e+001 88603  3.3318e-002 -6.8788e-002 -1.6500e-002 40095 88401,88505,88479
 1.7000e+001 88580 -2.2089e-001 -6.0156e-001 -1.7739e-001 40095 88427,88479,88453
 1.7000e+001 88557 -2.4280e-002 -1.7583e-001  1.1910e-002 40095 88401,88479,88427
 1.7000e+001 89078  1.0398e+000 -1.4605e-001 -1.4129e-001 39897 89101,88833,88807
 1.7000e+001 89055  6.2653e-001 -5.5444e-001 -3.3925e-001 39897 89101,88807,88911
 1.7000e+001 89032  7.6177e-001 -4.9995e-002 -3.2364e-001 39897 88781,88911,88807
 1.7000e+001 89009 -6.9599e-002 -6.9983e-001 -7.8716e-001 39897 88781,88937,88911
 1.7000e+001 88986  2.0265e+000  3.4354e-001 -3.6603e-001 39897 88833,88885,88859
 1.7000e+001 88963  5.6704e-001 -3.0754e-002 -4.8464e-001 39897 88755,88937,88781
 1.7000e+001 89127  1.4586e+000 -6.5120e-001 -6.1734e-001 39897 88885,88833,89101
 1.7000e+001 89150  7.1646e-001 -1.2922e+000 -9.0272e-001 39897 88885,89101,88911
 1.7000e+001 89300 -6.4459e-001 -9.5658e-001  1.2594e-001 39607 89453,89323,89199
 1.7000e+001 89277 -1.0664e+000 -8.0714e-001  3.1021e-002 39607 89525,89453,89199
 1.7000e+001 89349 -6.2748e-001 -9.7357e-001 -9.1941e-002 39607 89225,89199,89323
 1.7000e+001 89479 -7.4069e-001 -5.9939e-001  1.3942e-001 39607 89251,89323,89453
 1.7000e+001 89502 -3.7857e-001 -2.3260e-001  4.1241e-001 39607 89251,89453,89173
 1.7000e+001 89551 -9.8143e-002 -4.6545e-001  3.2967e-002 39607 89173,89453,89525
 1.7000e+001 90264 -6.6061e-001 -1.7436e+000 -1.6471e-001 39039 89996,90074,90048
 1.7000e+001 90241 -3.5560e-001 -7.5055e-001 -1.2056e-001 39039 89918,90074,89996
 1.7000e+001 90218 -5.0514e-001 -9.3963e-001 -5.2606e-002 39039 89918,89996,89944
 1.7000e+001 90195 -4.3939e-001 -7.7152e-001 -1.0157e-001 39039 89892,90074,89918
 1.7000e+001 90172  8.4755e-002 -1.7551e+000 -2.4691e-001 39039 89996,90048,90022
 1.7000e+001 90149 -1.0915e+000  3.3282e-001 -1.1040e-001 39039 89892,90100,90074
 1.7000e+001 90126 -7.7278e-001 -1.0621e+000  9.6213e-002 39039 89944,89996,89970
 1.7000e+001 90770 -1.1226e-001 -3.9059e-001  7.2054e-003 38635 90473,90603,90577
 1.7000e+001 90747 -4.3127e-002 -3.5300e-001 -1.3045e-002 38635 90447,90603,90473
 1.7000e+001 90724 -4.7846e-002 -4.2780e-001 -3.8335e-002 38635 90499,90577,90551
 1.7000e+001 90701 -1.6204e-001 -5.1593e-001  3.3952e-002 38635 90473,90577,90499
 1.7000e+001 90678 -9.1810e-002 -6.0586e-001 -6.3474e-003 38635 90499,90551,90525
 1.7000e+001 90655 -2.0502e-001 -3.9594e-001  4.8176e-002 38635 90447,90629,90603
 1.7000e+001 90871 -3.3532e-002 -3.6111e-001 -9.7486e-002 38231 90793,90845,90819
 1.7000e+001 91458  7.0688e-003 -2.0001e-001 -1.7398e-002 37534 91161,91317,91291
 1.7000e+001 91435 -1.6828e-001 -1.1921e-001  5.5662e-002 37534 91135,91317,91161
 1.7000e+001 91412 -2.8784e-001 -1.0958e+000 -2.5283e-001 37534 91187,91291,91239
 1.7000e+001 91389 -5.1439e-002 -1.0839e+000  1.1225e-001 37534 91161,91291,91187
 1.7000e+001 91366 -5.7235e-002 -8.0527e-001 -1.3986e-001 37534 91239,91291,91265
 1.7000e+001 91343  4.9872e-001 -1.1773e+000 -5.9025e-001 37534 91187,91239,91213
 1.7000e+001 91915 -3.0084e-001 -8.2822e-001  1.4481e-001 37080 91938,91745,91667
 1.7000e+001 91892 -3.4881e-003 -7.7766e-001  5.2550e-002 37080 91938,91667,91797
 1.7000e+001 91869  1.7827e-001 -2.7932e-001  9.3934e-002 37080 91641,91797,91667
 1.7000e+001 91846 -3.0275e-001 -9.3809e-001  3.0183e-002 37080 91667,91719,91693
 1.7000e+001 91823 -2.2114e-001 -7.1766e-001  9.7899e-002 37080 91667,91745,91719
 1.7000e+001 91964 -4.4771e-001 -9.4664e-001  4.0525e-001 37080 91771,91745,91938
 1.7000e+001 91987 -1.5363e-001 -7.9409e-001  2.7805e-001 37080 91771,91938,91797
 1.7000e+001 92235 -1.9157e-001 -3.9199e-001 -2.1775e-002 36397 92036,92088,92062
 1.7000e+001 92212 -1.2988e-001 -3.5734e-001 -4.6752e-002 36397 92036,92114,92088
 1.7000e+001 92189 -3.5081e-002 -2.8295e-001  8.9518e-003 36397 92036,92140,92114
 1.7000e+001 92166 -4.4715e-002 -3.6664e-001 -1.4154e-002 36397 92010,92140,92036
 1.7000e+001 92694  1.4663e-001  5.4318e-003 -2.8787e-002 36057 92446,92498,92472
 1.7000e+001 92671  1.7854e-001 -3.3351e-002  5.8403e-002 36057 92446,92550,92498
 1.7000e+001 92648 -4.5213e-002 -3.7725e-001  1.6183e-001 36057 92446,92576,92550
 1.7000e+001 92625  1.3992e-001 -6.4028e-003 -2.9179e-001 36057 92420,92576,92446
 1.7000e+001 92602  2.8351e-002  1.4923e-002  1.7274e-001 36057 92498,92550,92524
 1.7000e+001 93023 -1.8123e-001 -3.3790e-001 -3.6008e-002 35717 92876,92928,92902
 1.7000e+001 93000 -1.4156e-001 -3.6855e-001 -4.7687e-002 35717 92824,92928,92876
 1.7000e+001 92977 -5.1643e-002 -3.7518e-001 -1.0894e-002 35717 92798,92928,92824
 1.7000e+001 92954 -1.7445e-001 -5.0222e-001 -1.2672e-001 35717 92824,92876,92850
 1.7000e+001 93499  3.8197e-001 -4.4679e-001  2.0053e-001 35405 93522,93309,93257
 1.7000e+001 93476  3.6218e-001 -3.9552e-001  2.0788e-001 35405 93666,93522,93257
 1.7000e+001 93453  3.4363e-001 -1.1140e+000  2.0859e-001 35405 93594,93127,93335
 1.7000e+001 93430  2.3756e-001 -4.3363e-001  2.0427e-001 35405 93666,93257,93231
 1.7000e+001 93407  2.4267e-002 -1.4113e+000  5.8828e-005 35405 93127,93179,93153
 1.7000e+001 93384 -4.0728e-001 -2.4275e-001  4.3603e-001 35405 93179,93231,93205
 1.7000e+001 93361  4.2017e-001  1.9508e-001 -3.5337e-002 35405 93257,93309,93283
 1.7000e+001 93548  5.2790e-001 -3.1380e-001  3.9039e-001 35405 93335,93309,93522
 1.7000e+001 93571  3.7316e-001 -6.2811e-001  2.8480e-001 35405 93594,93335,93522
 1.7000e+001 93620  4.0463e-001 -5.9748e-001  1.3572e-001 35405 93179,93127,93594
 1.7000e+001 93643  2.2099e-001 -3.9970e-001  1.5218e-001 35405 93738,93594,93522
 1.7000e+001 93692  2.2278e-001 -3.9696e-001  1.5515e-001 35405 93738,93522,93666
 1.7000e+001 93715  1.7923e-001 -3.9647e-001  1.3696e-001 35405 93179,93666,93231
 1.7000e+001 93764  2.2302e-001 -3.9428e-001  1.5408e-001 35405 93179,93594,93738
 1.7000e+001 93787  2.2233e-001 -3.9278e-001  1.5630e-001 35405 93179,93738,93666
 1.7000e+001 94372  7.9510e-001 -5.7632e-002  3.5157e-002 34951 94395,94127,94075
 1.7000e+001 94349  1.0519e+000 -1.1067e-001  1.3891e-001 34951 94395,94075,94231
 1.7000e+001 94326  1.2924e+000 -3.3752e-001 -3.4243e-001 34951 94049,94231,94075
 1.7000e+001 94303  8.0684e-001  3.6558e-001  1.0890e-001 34951 94075,94127,94101
 1.7000e+001 94280  1.4400e+000  6.9649e-001  5.8835e-001 34951 94127,94205,94153
 1.7000e+001 94257  1.1658e+000 -1.8116e-001  6.5804e-001 34951 94153,94205,94179
 1.7000e+001 94421  9.9712e-001 -9.3168e-002  1.8134e-001 34951 94205,94127,94395
 1.7000e+001 94444  1.4562e+000 -1.5799e-002  2.7774e-001 34951 94205,94395,94231
 1.7000e+001 94692  2.0940e-002 -7.8041e-002 -2.5526e-002 34397 94715,94519,94467
 1.7000e+001 94669  9.2370e-003 -6.4607e-002 -1.5560e-002 34397 94715,94467,94597
 1.7000e+001 94646  4.5621e-002  2.5228e-002 -4.1380e-003 34397 94545,94597,94571
 1.7000e+001 94623 -1.9743e-002 -1.8488e-001  1.1062e-004 34397 94467,94519,94493
 1.7000e+001 94741 -9.7757e-003 -1.1526e-001 -3.8589e-002 34397 94545,94519,94715
 1.7000e+001 94764  5.1889e-003 -7.4185e-002 -1.9497e-002 34397 94545,94715,94597
 1.7000e+001 94985 -1.9311e-002 -3.7025e-001  1.1087e-002 33985 94835,94913,94887
 1.7000e+001 94962 -1.0496e-001 -5.6729e-001  1.1186e-002 33985 94809,94913,94835
 1.7000e+001 94939 -7.1796e-002 -3.8233e-001  1.9132e-002 33985 94835,94887,94861
 1.7000e+001 95186 -3.9123e-002 -5.8335e-001 -2.0136e-001 33645 95281,95209,95036
 1.7000e+001 95163  3.6289e-001 -6.0421e-001  3.9831e-002 33645 95209,95010,95088
 1.7000e+001 95140  3.5867e-001 -3.0216e-001  3.5354e-004 33645 95010,95114,95088
 1.7000e+001 95235 -2.6366e-001 -7.3944e-001 -3.1399e-001 33645 95062,95036,95209
 1.7000e+001 95258 -1.8750e-001 -8.2135e-001  2.6023e-001 33645 95413,95209,95088
 1.7000e+001 95307  2.7385e-001 -2.2447e-002 -3.9876e-001 33645 95010,95209,95281
 1.7000e+001 95439  1.4356e-001 -4.5846e-001  1.1773e-001 33645 95062,95209,95413
 1.7000e+001 95766 -1.8684e-001 -1.1128e-001 -2.9086e-001 33141 95789,95593,95567
 1.7000e+001 95743  1.1614e-002 -2.4986e-001 -9.1644e-002 33141 95861,95789,95567
 1.7000e+001 95720 -1.7825e-003 -2.1767e-001 -3.1719e-002 33141 95861,95567,95671
 1.7000e+001 95697  6.4228e-003 -2.5023e-001 -4.1531e-002 33141 95541,95671,95567
 1.7000e+001 95815 -2.5002e-002  2.7096e-001 -2.4928e-001 33141 95619,95593,95789
 1.7000e+001 95838  4.5263e-002 -7.0625e-002 -8.4695e-002 33141 95619,95789,95645
 1.7000e+001 95887  5.8200e-002 -1.4377e-001 -9.8606e-002 33141 95645,95789,95861
 1.7000e+001 95910  4.2105e-002 -1.1286e-001 -3.0605e-002 33141 95645,95861,95671
 1.7000e+001 96060 -1.8359e-001 -3.2687e-001 -1.1927e-001 32487 95959,96011,95985
 1.7000e+001 96037 -2.6541e-002 -3.0762e-001 -2.1165e-002 32487 95933,96011,95959
 1.7000e+001 96570 -1.9236e-001 -4.0219e-001  2.4511e-001 32033 96665,96593,96377
 1.7000e+001 96547 -1.6517e-001 -3.8520e-001 -1.2084e-001 32033 96737,96593,96325
 1.7000e+001 96524 -2.5213e-001 -5.4532e-001  1.4421e-001 32033 96665,96377,96351
 1.7000e+001 96501 -2.4350e-001 -5.6104e-001 -1.0050e-001 32033 96737,96325,96299
 1.7000e+001 96478 -2.6580e-001 -1.7174e-001 -9.4269e-002 32033 96247,96429,96299
 1.7000e+001 96455 -6.3320e-001 -1.2366e+000 -9.2180e-002 32033 96247,96299,96273
 1.7000e+001 96619  1.3044e-001 -1.7182e-001  2.9613e-001 32033 96809,96593,96403
 1.7000e+001 96642  3.4558e-001  4.0187e-001 -3.2985e-001 32033 96403,96593,96429
 1.7000e+001 96691  6.3510e-002 -7.4689e-001  6.8992e-002 32033 96325,96593,96665
 1.7000e+001 96714 -1.5556e-001 -1.0119e+000 -7.0357e-002 32033 96325,96665,96351
 1.7000e+001 96763 -2.5065e-001 -3.1977e-001 -3.7850e-002 32033 96429,96593,96737
 1.7000e+001 96786 -2.8062e-001 -4.0225e-001 -4.1491e-002 32033 96429,96737,96299
 1.7000e+001 96835 -7.9203e-003 -3.1939e-001  2.2852e-001 32033 96377,96593,96809
 1.7000e+001 97064 -1.0534e-002 -6.6950e-002 -9.5702e-003 31671 97087,96989,96963
 1.7000e+001 97041 -5.6381e-003 -6.3667e-002 -1.3109e-002 31671 97087,96963,96937
 1.7000e+001 97113 -4.2376e-002 -8.0381e-002  6.8207e-003 31671 97159,97087,97015
 1.7000e+001 97136 -1.0001e-002 -8.3247e-002  1.1969e-003 31671 97015,97087,96937
 1.7000e+001 97185 -1.2110e-003 -4.3668e-002 -9.1480e-003 31671 96989,97087,97159
 1.7000e+001 97563  3.8191e-002 -7.5408e-002  2.7747e-003 31117 97586,97367,97341
 1.7000e+001 97540  2.4814e-002 -7.9076e-002  2.8678e-003 31117 97658,97586,97341
 1.7000e+001 97517  6.1055e-003 -7.9972e-002 -4.8899e-003 31117 97658,97341,97315
 1.7000e+001 97494  1.1867e-001 -2.3342e-002  4.3393e-002 31117 97289,97445,97315
 1.7000e+001 97471  2.4441e-002  2.7197e-002  2.7732e-002 31117 97367,97419,97393
 1.7000e+001 97612 -2.1956e-002 -8.8467e-002  2.1052e-002 31117 97419,97367,97586
 1.7000e+001 97635  7.3742e-002 -6.1845e-002  3.2615e-002 31117 97419,97586,97445
 1.7000e+001 97684  6.0054e-002 -9.0588e-002  6.7644e-003 31117 97445,97586,97658
 1.7000e+001 97707  3.8036e-002 -9.4729e-002 -1.7885e-003 31117 97445,97658,97315
 1.7000e+001 98215  7.8849e-002 -6.2510e-002 -1.6056e-001 30563 98238,97996,97944
 1.7000e+001 98192 -1.2667e-001 -5.3258e-002 -1.7441e-001 30563 98310,98238,97944
 1.7000e+001 98169 -3.2469e-001 -2.5146e-001 -3.1331e-001 30563 98310,97944,97918
 1.7000e+001 98146  2.2921e-001 -4.0196e-002 -5.7583e-002 30563 97892,98074,97918
 1.7000e+001 98123  1.9507e-001 -1.1160e-001  6.7220e-002 30563 97996,98048,98022
 1.7000e+001 98100 -2.0969e-001 -1.5097e-001 -1.9470e-001 30563 97944,97996,97970
 1.7000e+001 98264  1.0569e-002 -1.6841e-003 -1.1722e-001 30563 98048,97996,98238
 1.7000e+001 98287  1.9260e-001  3.0810e-001  1.1291e-001 30563 98048,98238,98074
 1.7000e+001 98336  8.5131e-002 -8.6115e-002 -1.1768e-002 30563 98074,98238,98310
 1.7000e+001 98359 -5.6780e-002 -1.1415e-001 -1.1153e-001 30563 98074,98310,97918
 1.7000e+001 98607 -2.7223e-001 -6.2338e-002  1.5983e-002 30073 98630,98460,98408
 1.7000e+001 98584 -4.4199e-001 -1.3627e-001 -2.7117e-002 30073 98630,98408,98382
 1.7000e+001 98561 -1.0813e-001 -1.2361e-001 -3.8769e-002 30073 98382,98512,98486
 1.7000e+001 98538 -1.4246e-001 -1.0633e-001  1.0874e-001 30073 98408,98460,98434
 1.7000e+001 98656 -1.7617e-001 -1.7120e-001 -2.0011e-002 30073 98486,98460,98630
 1.7000e+001 98679 -2.8684e-001 -1.9986e-001 -5.2701e-002 30073 98486,98630,98382
 1.7000e+001 99157  8.5103e-001 -1.3358e-001  1.3636e-001 29669 99180,98837,98811
 1.7000e+001 99134  6.6887e-001 -9.4975e-002  3.6505e-001 29669 99324,99180,98811
 1.7000e+001 99111  4.5677e-001  1.4552e-002  2.1653e-002 29669 99252,98863,98837
 1.7000e+001 99088  6.4465e-001 -2.0429e-001  3.9830e-001 29669 99324,98811,98993
 1.7000e+001 99065  3.0867e-001  1.3301e-001  5.1695e-002 29669 98863,98941,98915
 1.7000e+001 99042 -6.1843e-001 -5.0421e-003 -1.1743e-002 29669 98863,98915,98889
 1.7000e+001 99019  3.4641e-001 -2.9852e-001  5.7457e-001 29669 98785,98993,98811
 1.7000e+001 99206  5.2694e-001 -2.7091e-001  1.1136e-001 29669 99252,98837,99180
 1.7000e+001 99229  2.1347e-001 -1.6558e-001  4.2646e-001 29669 98941,99180,98967
 1.7000e+001 99278  4.5897e-001  2.0327e-001  7.2437e-002 29669 98941,98863,99252
 1.7000e+001 99301  6.5684e-001  8.7769e-002  1.9623e-001 29669 98941,99252,99180
 1.7000e+001 99350  6.2904e-001  4.0405e-002  3.5141e-001 29669 98967,99180,99324
 1.7000e+001 99373  6.3364e-001 -4.5816e-002  3.6781e-001 29669 98967,99324,98993
 1.7000e+001 99958  4.4615e-001  2.7515e-001  1.2921e-001 29051 99981,99765,99739
 1.7000e+001 99935  1.7846e-001 -3.2172e-002  8.5425e-003 29051 99981,99739,99661
 1.7000e+001 99912  2.2953e-001 -1.0041e+000  1.5104e-002 29051 99765,99817,99791
 1.7000e+001 99889  2.8579e-001 -3.3880e-001 -7.9778e-002 29051 99635,99817,99661
 1.7000e+001 99866 -4.4441e-002 -4.0359e-002  1.7218e-001 29051 99661,99739,99687
 1.7000e+001 99843 -2.0424e-001 -3.3933e-002  1.2361e-001 29051 99687,99739,99713
 1.7000e+001 100007  6.1101e-001 -4.2021e-002  1.5067e-001 29051 99817,99765,99981
 1.7000e+001 100030  4.6775e-001 -1.6922e-001  9.0376e-002 29051 99817,99981,99661
 1.7000e+001 100278  5.6592e-001 -1.6999e-001  1.9153e-001 28525 100445,100301,100131
 1.7000e+001 100255  2.7721e-001  1.4934e-001  1.3837e-001 28525 100373,100301,100079
 1.7000e+001 100232  2.4499e-001 -1.2409e-001  1.6650e-001 28525 100373,100079,100053
 1.7000e+001 100209  3.7773e-001 -3.3622e-002  4.9825e-002 28525 100445,100131,100105
 1.7000e+001 100327  7.8041e-001 -1.4743e-001  2.8145e-001 28525 100517,100301,100157
 1.7000e+001 100350  5.6604e-001  5.2832e-001  2.7562e-001 28525 100157,100301,100183
 1.7000e+001 100399  2.8494e-001 -1.3859e-001  2.8079e-001 28525 100183,100301,100373
 1.7000e+001 100422  3.1350e-001 -3.3199e-001  3.0794e-001 28525 100183,100373,100053
 1.7000e+001 100471  3.1567e-001 -2.1373e-001 -1.0639e-001 28525 100079,100301,100445
 1.7000e+001 100494 -2.1444e-001 -3.2294e-001 -2.6090e-001 28525 100079,100445,100105
 1.7000e+001 100543  9.4551e-001  9.5634e-002  3.3206e-002 28525 100131,100301,100517
 1.7000e+001 101209 -6.5282e-001 -9.4663e-002 -5.8301e-002 28185 100938,101016,100990
 1.7000e+001 101186 -8.4006e-001 -2.5122e-002  1.1923e-002 28185 100912,101016,100938
 1.7000e+001 101163 -2.1713e-001  1.6008e-001  1.0288e-001 28185 100912,101068,101016
 1.7000e+001 101140 -8.5457e-001  1.1849e-001  2.3701e-002 28185 100886,101068,100912
 1.7000e+001 101117 -2.1741e-001  4.0340e-001  1.5512e-001 28185 101016,101068,101042
 1.7000e+001 101094 -1.9995e+000 -4.8563e-001 -8.5237e-002 28185 100938,100990,100964
 1.7000e+001 101408  1.7026e-001 -1.5307e-001 -1.0915e-001 27781 101503,101431,101310
 1.7000e+001 101385 -1.1765e-001  4.3808e-002 -3.5761e-001 27781 101431,101258,101232
 1.7000e+001 101362  2.0549e-001 -1.7573e-001 -1.3059e-001 27781 101503,101310,101284
 1.7000e+001 101457  7.3069e-001  9.5979e-002 -1.7167e-001 27781 101336,101310,101431
 1.7000e+001 101480  1.9784e-001  1.8773e-001 -3.9266e-001 27781 101575,101431,101232
 1.7000e+001 101529  3.3903e-001 -1.2928e-001 -2.9868e-001 27781 101258,101431,101503
 1.7000e+001 101552  2.3207e-001 -1.8501e-001 -1.4853e-001 27781 101705,101503,101284
 1.7000e+001 101601  3.7617e-001  4.8852e-001 -4.6873e-001 27781 101336,101431,101575
 1.7000e+001 101731 -7.6419e-002 -2.9835e-001 -3.1064e-001 27781 101258,101503,101705
 1.7000e+001 102237 -2.6032e-001 -1.6641e-001  4.2002e-002 27419 102476,102260,101992
 1.7000e+001 102214 -1.2428e-001 -2.8836e-001  2.9323e-003 27419 102260,101940,101914
 1.7000e+001 102191 -3.4243e-001 -3.5709e-001  3.8879e-002 27419 102404,102332,102096
 1.7000e+001 102168 -2.9203e-001 -3.5201e-001 -1.3494e-002 27419 102404,102096,102044
 1.7000e+001 102145 -2.3229e-001 -1.8921e-001  5.9304e-002 27419 102476,101992,101966
 1.7000e+001 102122 -2.0832e-001 -3.6338e-001 -2.2379e-002 27419 102044,102096,102070
 1.7000e+001 102286 -3.5415e-001 -2.8542e-001  8.3473e-002 27419 102018,101992,102260
 1.7000e+001 102309 -2.8777e-001 -2.4773e-001  1.1159e-002 27419 102332,102018,102260
 1.7000e+001 102358 -3.2616e-001 -5.2110e-001  1.4172e-001 27419 101914,102096,102332
 1.7000e+001 102381 -2.2446e-001 -3.8806e-001  4.8859e-002 27419 101914,102332,102260
 1.7000e+001 102430 -2.3380e-001 -3.2825e-001  1.0292e-002 27419 102018,102332,102404
 1.7000e+001 102453 -2.0162e-001 -3.2098e-001 -4.7490e-002 27419 102018,102404,102044
 1.7000e+001 102502 -1.7096e-001 -2.5867e-001  6.2476e-002 27419 101940,102260,102476
 1.7000e+001 102525  2.2425e-001 -6.3655e-002 -6.3786e-004 27419 101940,102476,101966
 1.7000e+001 103031 -3.9269e-001 -4.0549e-001  4.1820e-001 26715 102708,102786,102760
 1.7000e+001 103008  1.5036e-001 -2.9138e-001  1.2583e-001 26715 102708,102890,102786
 1.7000e+001 102985  5.9028e-001 -6.9021e-001  1.7207e-001 26715 102838,102890,102864
 1.7000e+001 102962  2.4117e-001 -2.4184e-001  2.1977e-001 26715 102786,102890,102838
 1.7000e+001 102939  1.0512e+000  1.4653e-001  5.5955e-001 26715 102786,102838,102812
 1.7000e+001 102916 -4.1525e-001 -1.4139e-002  6.9260e-002 26715 102708,102760,102734
 1.7000e+001 103279  1.1274e-002 -1.3821e-002  2.7090e-002 26303 103302,103158,103080
 1.7000e+001 103256 -2.2262e-002  1.5924e-002  2.8777e-002 26303 103302,103080,103054
 1.7000e+001 103233 -6.3323e-002 -5.0356e-002  1.2693e-002 26303 103080,103158,103106
 1.7000e+001 103210  1.1618e-001 -1.1345e-002  9.3625e-003 26303 103106,103158,103132
 1.7000e+001 103328  6.6084e-002  1.5905e-002  1.3923e-002 26303 103184,103158,103302
 1.7000e+001 103351  2.6721e-003  2.2614e-002  2.2317e-002 26303 103184,103302,103054
 1.7000e+001 103501 -1.9360e-001 -3.7358e-001  3.5447e-003 25849 103374,103426,103400
 1.7000e+001 103478 -2.3623e-001 -2.8750e-001  2.4286e-002 25849 103374,103452,103426
 1.7000e+001 104090  9.3448e-002 -1.7782e-002  1.2698e-001 25445 103793,103871,103819
 1.7000e+001 104067  2.7587e-001  5.4902e-002  4.8760e-002 25445 103793,103949,103871
 1.7000e+001 104044  3.3009e-001  3.0241e-002  1.5083e-001 25445 103871,103949,103923
 1.7000e+001 104021 -2.3352e-002  2.8845e-002 -4.0647e-002 25445 103819,103871,103845
 1.7000e+001 103998  3.9228e-001  1.6289e-001  1.6469e-001 25445 103767,103949,103793
 1.7000e+001 103975  3.7831e-001  6.0371e-002  1.6508e-001 25445 103871,103923,103897
 1.7000e+001 104419 -1.0299e-001 -9.6977e-002 -6.7776e-002 25083 104220,104298,104272
 1.7000e+001 104396 -2.3229e-001 -2.7155e-001 -6.4649e-003 25083 104220,104324,104298
 1.7000e+001 104373 -6.9642e-002 -7.6902e-002 -4.4356e-002 25083 104220,104272,104246
 1.7000e+001 104350 -2.1553e-001 -2.9029e-001 -1.0309e-002 25083 104194,104324,104220
 1.7000e+001 105102  8.3812e-002 -1.7797e-001  5.1289e-002 24793 104785,104863,104837
 1.7000e+001 105079  1.0733e-001 -2.5216e-001 -1.0809e-001 24793 104759,104863,104785
 1.7000e+001 105056  7.6343e-002 -3.0833e-002 -1.1119e-001 24793 104759,104915,104863
 1.7000e+001 105033  9.7532e-002 -1.3831e-001 -1.5156e-001 24793 104733,104915,104759
 1.7000e+001 105010  3.8015e-001  1.0648e-001 -1.5205e-001 24793 104863,104915,104889
 1.7000e+001 104987 -7.4979e-002  1.1994e-002 -2.8098e-001 24793 104681,104915,104733
 1.7000e+001 104964  1.9013e-003 -2.5642e-001  9.1758e-003 24793 104785,104837,104811
 1.7000e+001 104941 -4.3689e-002  2.4597e-001 -2.4753e-001 24793 104681,104733,104707
 1.7000e+001 105252  1.0086e+000  3.7965e-001 -2.6303e-002 24389 105477,105275,105177
 1.7000e+001 105229  3.6731e-001  9.3525e-002  2.2772e-001 24389 105347,105275,105151
 1.7000e+001 105301  9.7415e-001  2.2633e-001 -1.4855e-002 24389 105203,105177,105275
 1.7000e+001 105324  1.3098e+000  9.0275e-001  3.1456e-001 24389 105203,105275,105125
 1.7000e+001 105373  1.0252e+000  4.8033e-001  1.7626e-002 24389 105125,105275,105347
 1.7000e+001 105503  7.3747e-001 -1.5094e-001 -1.2374e-001 24389 105151,105275,105477
 1.7000e+001 106088 -2.6323e-001  3.0165e-001  3.3656e-001 23735 105791,105921,105895
 1.7000e+001 106065 -8.7743e-001  1.3297e-001  4.6709e-001 23735 105765,105921,105791
 1.7000e+001 106042 -3.4491e-002  5.3120e-001  2.8468e-001 23735 105765,105947,105921
 1.7000e+001 106019 -1.0815e+000 -1.4435e-002  4.1836e-001 23735 105817,105895,105869
 1.7000e+001 105996 -6.9119e-001  1.3099e-001  4.2288e-001 23735 105791,105895,105817
 1.7000e+001 105973 -6.4870e-001 -2.3963e-001  4.4314e-001 23735 105817,105869,105843
 1.7000e+001 106417  4.2720e-001  8.5422e-001 -1.2588e-001 23295 106218,106296,106270
 1.7000e+001 106394  3.6959e-001  3.8825e-001 -1.4116e-001 23295 106218,106322,106296
 1.7000e+001 106371  1.5531e-001  2.6065e-001 -2.2199e-001 23295 106218,106270,106244
 1.7000e+001 106348  5.3662e-001  4.5964e-001 -5.3737e-002 23295 106192,106322,106218
 1.7000e+001 106746 -2.6002e-002  3.1430e-001  1.9561e-001 23005 106521,106599,106547
 1.7000e+001 106723  4.0560e-001  7.1143e-001  2.9424e-002 23005 106521,106651,106599
 1.7000e+001 106700  5.1374e-001  1.6547e-001 -1.8453e-001 23005 106547,106599,106573
 1.7000e+001 106677  5.2096e-001  6.5799e-001  3.4132e-001 23005 106599,106651,106625
 1.7000e+001 107331 -5.4944e-002  1.3019e-001 -1.5022e-001 22601 107060,107190,107138
 1.7000e+001 107308 -6.3966e-001  5.4637e-001 -3.5437e-001 22601 107034,107190,107060
 1.7000e+001 107285 -1.1098e+000 -3.2548e-001 -1.9015e-001 22601 107060,107138,107112
 1.7000e+001 107262 -8.6584e-001  9.5816e-001  5.3093e-001 22601 107008,107190,107034
 1.7000e+001 107239 -2.2122e-001 -1.4026e+000  8.2635e-002 22601 107060,107112,107086
 1.7000e+001 107216 -6.2469e-001  1.4815e+000  3.2322e-001 22601 107138,107190,107164
 1.7000e+001 107807 -1.5361e-001  9.6061e-002 -2.8515e-002 22031 107974,107902,107617
 1.7000e+001 107784 -1.7275e-001  2.3630e-001 -9.8168e-002 22031 107830,107565,107513
 1.7000e+001 107761 -4.2402e-002  5.4671e-002 -1.1819e-001 22031 108046,107830,107513
 1.7000e+001 107738 -9.5849e-002  2.0451e-001  1.3894e-002 22031 107974,107617,107591
 1.7000e+001 107715 -6.3406e-002  1.1121e-002 -1.2553e-001 22031 108046,107513,107461
 1.7000e+001 107692 -4.9247e-001  3.1390e-001 -1.6869e-001 22031 107513,107565,107539
 1.7000e+001 107669  7.1836e-002  1.9788e-001 -1.9714e-001 22031 107461,107513,107487
 1.7000e+001 107856 -2.3839e-001  1.5746e-001 -5.7502e-002 22031 107902,107565,107830
 1.7000e+001 107879 -9.5114e-002 -6.2399e-002 -1.9908e-004 22031 107643,107830,107435
 1.7000e+001 107928 -4.0755e-001  1.7626e-001 -1.9643e-001 22031 107643,107617,107902
 1.7000e+001 107951 -2.3504e-001  1.4350e-001  2.8258e-002 22031 107643,107902,107830
 1.7000e+001 108000 -1.9610e-001  2.5082e-001 -4.8311e-002 22031 107565,107902,107974
 1.7000e+001 108023 -1.9255e-001  2.2305e-001 -4.1040e-002 22031 107565,107974,107591
 1.7000e+001 108072  3.5836e-003  3.2455e-003 -5.1928e-002 22031 107435,107830,108046
 1.7000e+001 108095 -2.7329e-002 -6.6205e-002 -6.0965e-002 22031 107435,108046,107461
 1.7000e+001 108196  3.3456e-002 -3.5600e-002  2.6699e-002 21783 108118,108170,108144
 1.7000e+001 108655  1.3181e-001  7.3396e-001  4.3710e-001 21379 108407,108485,108459
 1.7000e+001 108632  1.5200e+000  1.3926e-001  5.4896e-001 21379 108407,108511,108485
 1.7000e+001 108609  1.5430e+000  3.1029e-001  7.3774e-001 21379 108381,108511,108407
 1.7000e+001 108586  6.6173e-001  1.0119e+000 -2.2546e-001 21379 108381,108537,108511
 1.7000e+001 108563  3.9685e-001  9.9643e-002  1.9917e-001 21379 108407,108459,108433
 1.7000e+001 109082  4.2626e-002 -2.8998e-001 -2.2875e-002 20974 109105,108863,108811
 1.7000e+001 109059 -8.4301e-002 -3.4820e-001  2.7560e-003 20974 109105,108811,108759
 1.7000e+001 109036  1.1788e-002 -8.4995e-001  1.6479e-001 20974 109177,108889,108863
 1.7000e+001 109013 -8.3438e-002 -3.2597e-001  1.9196e-002 20974 108811,108863,108837
 1.7000e+001 108990  1.1114e-001 -9.3633e-003  1.4094e-002 20974 108759,108941,108915
 1.7000e+001 108967  2.2179e-002  7.8039e-003 -7.2215e-003 20974 108759,108811,108785
 1.7000e+001 109131 -1.2366e-001 -6.3705e-001  5.3408e-002 20974 109177,108863,109105
 1.7000e+001 109154 -5.3412e-003  2.4695e-003 -5.3301e-003 20974 108915,109105,108759
 1.7000e+001 109203  2.7695e-002 -6.7962e-001 -6.6966e-002 20974 108915,108889,109177
 1.7000e+001 109226  4.7238e-002 -1.9195e-001 -1.5654e-001 20974 108915,109177,109105
 1.7000e+001 109496 -3.2226e-001  6.5309e-002 -4.0907e-002 20470 109271,109375,109297
 1.7000e+001 109473 -2.8500e-001  1.0564e-001 -5.9909e-002 20470 109271,109401,109375
 1.7000e+001 109450 -3.9065e-001 -4.6961e-003 -6.8668e-002 20470 109297,109375,109349
 1.7000e+001 109427 -5.7170e-001 -3.5234e-001  1.2086e-001 20470 109297,109349,109323
 1.7000e+001 109955  1.0290e-001  5.0802e-001  3.3791e-001 20123 110050,109733,109707
 1.7000e+001 109932 -1.9917e-001  3.5171e-001  2.7804e-001 20123 110050,109707,109681
 1.7000e+001 109909  1.7123e-001  2.1517e-001  2.7191e-001 20123 109978,109759,109733
 1.7000e+001 109886  4.9778e-002  1.6978e-001  2.5349e-001 20123 110122,109978,109733
 1.7000e+001 109863  1.8996e-001  8.9732e-002  2.0562e-001 20123 109785,109837,109811
 1.7000e+001 110004  1.6105e-001  2.1333e-001  2.2050e-001 20123 109785,109759,109978
 1.7000e+001 110027  1.3831e-001  1.8739e-001  1.8814e-001 20123 109785,109978,109837
 1.7000e+001 110076 -2.3437e-002  2.6435e-001  2.0863e-001 20123 110122,109733,110050
 1.7000e+001 110099 -3.0002e-002  3.8086e-001  1.4065e-001 20123 109837,110050,109681
 1.7000e+001 110148  1.8937e-001  3.0253e-001  1.9820e-001 20123 109837,109978,110122
 1.7000e+001 110171  1.2478e-001  3.8700e-001  1.5298e-001 20123 109837,110122,110050
 1.7000e+001 110500  4.4764e-001  1.9687e-002  2.8370e-004 19511 110301,110379,110353
 1.7000e+001 110477  9.8754e-001  4.7513e-001 -2.2542e-001 19511 110301,110405,110379
 1.7000e+001 110454  4.1307e-001  1.4171e-001 -6.9836e-004 19511 110275,110405,110301
 1.7000e+001 110431  4.0530e-001 -2.9732e-002  7.4907e-002 19511 110301,110353,110327
 1.7000e+001 110957  1.9058e-001  1.0714e+000 -4.2284e-002 19107 110683,110735,110709
 1.7000e+001 110934  3.9192e-001  4.4451e-001 -4.0199e-001 19107 110683,110813,110735
 1.7000e+001 110911  8.0903e-001  1.0110e+000 -2.0842e-001 19107 110735,110813,110761
 1.7000e+001 110888  8.5183e-001  2.2635e-001  2.8020e-001 19107 110683,110839,110813
 1.7000e+001 110865  7.5696e-001  7.9476e-001 -3.5372e-001 19107 110761,110813,110787
 1.7000e+001 111335  4.7488e-001 -6.6649e-001  2.3517e-001 18653 111087,111165,111139
 1.7000e+001 111312  6.1651e-001  2.3444e-003  2.8937e-002 18653 111087,111217,111165
 1.7000e+001 111289  1.7099e-001 -2.7117e-001  5.9484e-001 18653 111061,111217,111087
 1.7000e+001 111266  7.0132e-001 -8.8557e-001  7.0884e-001 18653 111087,111139,111113
 1.7000e+001 111243  5.1726e-001 -9.6178e-002 -1.6232e-001 18653 111165,111217,111191
 1.7000e+001 111735 -4.4701e-001 -2.7230e-001  1.0454e-001 18213 111461,111513,111487
 1.7000e+001 111712 -2.9366e-001 -2.9506e-001  4.3751e-002 18213 111461,111617,111513
 1.7000e+001 111689 -2.1712e-001 -1.1189e-001  6.1305e-002 18213 111513,111617,111591
 1.7000e+001 111666 -8.5304e-002 -1.5332e-001  9.5605e-002 18213 111513,111591,111539
 1.7000e+001 111643  5.4973e-002 -5.4943e-002  4.2988e-002 18213 111539,111591,111565
 1.7000e+001 111885  6.2414e-002 -1.9034e+000  5.6641e-002 17659 111784,111836,111810
 1.7000e+001 111862  1.5610e-001 -1.2470e+000  3.2701e-001 17659 111758,111836,111784
 1.7000e+001 112287 -2.1755e-001 -1.3369e+000 -5.0058e-001 17411 112065,112169,112143
 1.7000e+001 112264 -7.7547e-001 -5.0846e-001 -4.5388e-001 17411 112039,112169,112065
 1.7000e+001 112241 -5.0571e-001 -2.0122e-001 -1.1344e-001 17411 112013,112169,112039
 1.7000e+001 112218  2.7983e+000 -8.7550e-001 -7.6213e-001 17411 112091,112143,112117
 1.7000e+001 112195  9.8747e-003 -1.1713e+000 -1.2741e-001 17411 112065,112143,112091
 1.7000e+001 112508 -3.0043e-001  2.9155e-001  4.5828e-002 17007 112384,112436,112410
 1.7000e+001 112485 -1.9372e-001  3.9620e-001  9.0932e-002 17007 112332,112436,112384
 1.7000e+001 112462 -2.9133e-001  2.0595e-001  5.6351e-002 17007 112332,112384,112358
 1.7000e+001 112658 -7.7565e-001 -4.2505e-001  3.1364e-001 16553 112557,112609,112583
 1.7000e+001 112635 -1.3108e+000 -6.2341e-002  4.1610e-001 16553 112531,112609,112557
 1.7000e+001 112761  6.3658e-002 -5.0281e-001  2.1916e-002 16355 112683,112735,112709
 1.7000e+001 112913 -5.2793e-001  3.6852e-001  3.7696e-002 15949 112786,112838,112812
 1.7000e+001 112890 -2.0941e-001  9.2352e-001 -1.0966e-001 15949 112786,112864,112838
 1.7000e+001 113065  1.7126e-002 -2.5864e-001 -5.1569e-003 15609 112938,112990,112964
 1.7000e+001 113042 -8.4451e-002 -5.5354e-001 -1.4771e-001 15609 112938,113016,112990
 1.7000e+001 113420  4.7931e-001  3.5742e-001  1.1937e-001 15284 113247,113325,113299
 1.7000e+001 113397  4.6277e-001  3.1513e-001  4.8510e-002 15284 113195,113325,113247
 1.7000e+001 113374  3.4017e-001  2.6515e-001  5.0090e-002 15284 113195,113247,113221
 1.7000e+001 113351  4.0253e-001  5.3115e-001  1.1430e-001 15284 113247,113299,113273
 1.7000e+001 113521 -5.9866e-002  1.6462e-002 -3.0791e-002 202 113443,113495,113469
 1.7500e+001 65564  5.3937e-003 -7.8217e-002 -4.9439e-003 65155 65414,65466,65440
 1.7500e+001 65541  2.7835e-002 -5.5770e-003 -5.8271e-003 65155 65414,65492,65466
 1.7500e+001 65518  1.5728e-002 -2.1722e-002  1.6878e-002 65155 65388,65492,65414
 1.7500e+001 65883  1.5254e-001 -7.4856e-001 -1.9537e-002 64957 65635,65739,65713
 1.7500e+001 65860  1.2682e-001 -1.1212e+000 -6.0187e-002 64957 65635,65765,65739
 1.7500e+001 65837 -8.9226e-002 -1.2387e+000 -2.0738e-003 64957 65609,65765,65635
 1.7500e+001 65814  1.3246e-001 -9.1732e-001  2.5167e-001 64957 65635,65713,65687
 1.7500e+001 65791  1.0762e-002 -1.0914e+000  1.6099e-001 64957 65635,65687,65661
 1.7500e+001 65984 -5.9525e-002 -3.3917e-003  5.8062e-002 64781 65906,65958,65932
 1.7500e+001 66232 -3.5482e-001 -4.2936e-001  3.9000e-001 64469 66007,66059,66033
 1.7500e+001 66209  4.3640e-002 -4.4513e-001  4.4433e-001 64469 66007,66085,66059
 1.7500e+001 66186 -2.9422e-001 -1.1967e+000  6.1230e-001 64469 66007,66137,66085
 1.7500e+001 66163 -1.8814e-001 -1.5287e+000  1.2218e+000 64469 66085,66137,66111
 1.7500e+001 66504  9.7966e-003 -1.0717e+000  2.5098e-002 64271 66279,66383,66305
 1.7500e+001 66481  1.1839e-001 -1.0700e+000 -3.7099e-002 64271 66279,66409,66383
 1.7500e+001 66458  2.0085e-001 -1.3472e+000  2.6227e-002 64271 66305,66357,66331
 1.7500e+001 66435 -7.5239e-002 -1.2162e+000  6.2146e-002 64271 66305,66383,66357
 1.7500e+001 66705  4.1859e-001 -2.9403e+000  2.4200e-001 64073 66728,66581,66555
 1.7500e+001 66682  4.2575e-001 -2.0895e+000  4.5716e-001 64073 66728,66555,66529
 1.7500e+001 66659  2.1646e-001 -1.8449e+000 -3.4066e-001 64073 66581,66633,66607
 1.7500e+001 66754 -1.2333e-001 -2.1380e+000 -6.8543e-002 64073 66633,66581,66728
 1.7500e+001 66777  9.6559e-002 -1.0225e+000  2.2352e-002 64073 66633,66728,66529
 1.7500e+001 66951 -1.3777e-001 -4.3939e-001 -6.5089e-002 63783 66824,66876,66850
 1.7500e+001 66928  5.0638e-001 -3.6530e-001  1.9344e-001 63783 66824,66902,66876
 1.7500e+001 67201 -6.1446e-001 -1.4254e+000 -1.4347e-001 63585 66976,67080,67054
 1.7500e+001 67178 -1.0837e-001 -1.2320e+000  7.4920e-002 63585 66976,67106,67080
 1.7500e+001 67155  2.1655e-001 -1.7050e+000 -5.9642e-001 63585 66976,67054,67028
 1.7500e+001 67132 -2.2764e-003 -2.2401e+000 -5.3555e-001 63585 66976,67028,67002
 1.7500e+001 67654  8.3021e-002 -8.1519e-001 -2.0743e-002 63295 67357,67487,67383
 1.7500e+001 67631  8.6496e-002 -1.0200e+000  1.1867e-001 63295 67331,67487,67357
 1.7500e+001 67608 -6.0659e-002 -1.1994e+000 -2.1137e-002 63295 67331,67513,67487
 1.7500e+001 67585  1.5909e-003 -1.2171e+000  4.2521e-003 63295 67435,67487,67461
 1.7500e+001 67562 -6.1475e-002 -1.2372e+000  2.0486e-003 63295 67383,67487,67435
 1.7500e+001 67539  2.8104e-002 -1.1362e+000  4.0679e-002 63295 67383,67435,67409
 1.7500e+001 67853 -6.2504e-002 -1.1131e+000  2.7007e-003 62891 67876,67703,67677
 1.7500e+001 67830 -4.3085e-002 -1.1519e+000 -2.1969e-002 62891 67876,67677,67781
 1.7500e+001 67807  2.1457e-002 -9.7018e-001 -7.6056e-002 62891 67948,67729,67703
 1.7500e+001 67902 -2.4782e-002 -1.0950e+000  8.9945e-003 62891 67948,67703,67876
 1.7500e+001 67925 -1.6997e-001 -1.0767e+000  4.1807e-002 62891 67755,67876,67781
 1.7500e+001 67974 -7.7271e-002 -8.0357e-001 -7.8918e-002 62891 67755,67729,67948
 1.7500e+001 67997 -5.4660e-002 -8.6768e-001 -1.1934e-002 62891 67755,67948,67876
 1.7500e+001 68218  8.1858e-002 -5.1511e-002 -9.7918e-002 62693 68042,68120,68068
 1.7500e+001 68195  1.2863e-002 -3.5760e-002  3.0079e-003 62693 68042,68146,68120
 1.7500e+001 68172 -2.6086e-001  2.3400e-001 -5.5981e-002 62693 68068,68120,68094
 1.7500e+001 68468  3.6958e-001 -5.0121e-002  2.0495e-002 62289 68491,68295,68269
 1.7500e+001 68445  9.8575e-002 -8.8076e-002 -1.5143e-001 62289 68563,68491,68269
 1.7500e+001 68422  1.1199e-001  3.2753e-002 -6.3586e-002 62289 68563,68269,68243
 1.7500e+001 68399 -2.6362e-001 -2.4311e-001  1.5635e-002 62289 68295,68347,68321
 1.7500e+001 68517  1.8434e-001 -2.4764e-001 -7.7928e-002 62289 68347,68295,68491
 1.7500e+001 68540 -1.8234e-001 -9.1810e-002 -2.4191e-001 62289 68347,68491,68373
 1.7500e+001 68589  1.4192e-001  1.4736e-001 -1.3165e-001 62289 68373,68491,68563
 1.7500e+001 68612  9.7716e-002  1.8919e-001 -4.4340e-002 62289 68373,68563,68243
 1.7500e+001 68911 -7.4962e-002 -1.0811e+000 -4.8041e-003 62091 69222,68934,68741
 1.7500e+001 68888  1.0704e-001 -1.0537e+000 -4.4655e-002 62091 69006,68934,68689
 1.7500e+001 68865  1.3710e-001 -1.0371e+000  3.4126e-004 62091 69006,68689,68663
 1.7500e+001 68842 -1.2183e-001 -1.0998e+000 -1.3111e-001 62091 69078,68793,68767
 1.7500e+001 68819 -1.9209e-001 -1.1486e+000  1.4287e-001 62091 69222,68741,68715
 1.7500e+001 68960 -1.8064e-001 -1.0948e+000  9.0583e-003 62091 68767,68741,68934
 1.7500e+001 68983 -5.7398e-002 -1.1431e+000 -3.9426e-002 62091 69078,68767,68934
 1.7500e+001 69032  9.6107e-002 -1.0648e+000 -2.7226e-002 62091 69150,69006,68637
 1.7500e+001 69055  8.8530e-002 -1.0755e+000 -1.8308e-002 62091 68637,69006,68663
 1.7500e+001 69104 -3.0935e-002 -8.8757e-001 -6.6870e-002 62091 68637,68793,69078
 1.7500e+001 69127  6.7867e-002 -1.0275e+000 -1.1143e-002 62091 69150,68637,69078
 1.7500e+001 69176  3.4493e-002 -1.0769e+000 -4.7862e-002 62091 68934,69006,69150
 1.7500e+001 69199 -2.3553e-002 -1.0592e+000 -2.3071e-002 62091 68934,69150,69078
 1.7500e+001 69248 -3.9285e-003 -9.3440e-001 -3.3371e-002 62091 68689,68934,69222
 1.7500e+001 69271 -2.7924e-002 -8.8767e-001  7.1126e-002 62091 68689,69222,68715
 1.7500e+001 69521 -3.2776e-001  1.3639e-001  3.1368e-003 61893 69544,69348,69296
 1.7500e+001 69498 -8.9135e-002  1.8239e-001  4.3409e-002 61893 69544,69296,69400
 1.7500e+001 69475  7.0446e-002  1.9114e-001  1.6982e-002 61893 69296,69426,69400
 1.7500e+001 69452 -2.3683e-001 -4.9997e-001 -1.4586e-001 61893 69296,69348,69322
 1.7500e+001 69570 -2.0234e-001  2.5929e-002  1.8974e-001 61893 69374,69348,69544
 1.7500e+001 69593  2.1954e-001  1.7423e-001  2.1764e-001 61893 69374,69544,69400
 1.7500e+001 70046  6.2823e-002 -8.7475e-001 -9.5182e-003 61467 69749,69905,69879
 1.7500e+001 70023  1.3332e-001 -6.8740e-001  1.9621e-001 61467 69723,69905,69749
 1.7500e+001 70000  4.5986e-002 -9.2783e-001 -3.2477e-002 61467 70069,69827,69775
 1.7500e+001 69977 -1.0760e-001 -1.3323e+000  1.0467e-001 61467 70069,69775,69749
 1.7500e+001 69954 -4.3747e-002 -6.6820e-001 -3.1322e-002 61467 70141,69853,69827
 1.7500e+001 69931  8.4650e-002 -1.1969e+000 -3.6130e-001 61467 69775,69827,69801
 1.7500e+001 70095  6.7564e-003 -7.3791e-001 -7.6625e-002 61467 70141,69827,70069
 1.7500e+001 70118  5.4027e-002 -9.1423e-001 -1.0799e-003 61467 69879,70069,69749
 1.7500e+001 70167  4.4375e-003 -7.7417e-001 -2.6907e-002 61467 69879,69853,70141
 1.7500e+001 70190 -1.8426e-002 -9.3921e-001 -7.2917e-002 61467 69879,70141,70069
 1.7500e+001 70291 -9.9816e-002 -1.5495e+000 -1.7841e-001 61013 70213,70265,70239
 1.7500e+001 70441 -9.4682e-003 -1.2375e-001 -5.5944e-002 60651 70340,70392,70366
 1.7500e+001 70418  6.2378e-002 -7.4217e-002 -6.5134e-003 60651 70314,70392,70340
 1.7500e+001 70642  8.7652e-002 -6.9168e-001 -2.0230e-001 60311 70665,70492,70466
 1.7500e+001 70619 -1.4192e-001 -1.2780e+000 -2.8706e-001 60311 70665,70466,70570
 1.7500e+001 70596 -3.3961e+000 -1.6112e-001  3.2470e-001 60311 70492,70544,70518
 1.7500e+001 70691  5.9539e-002 -9.9436e-002  4.0283e-001 60311 70544,70492,70665
 1.7500e+001 70714 -3.1058e-001 -9.9370e-001  3.3160e-001 60311 70544,70665,70570
 1.7500e+001 70964  3.1079e-001 -1.2692e+000  1.4078e-001 59907 70987,70765,70739
 1.7500e+001 70941  3.0219e-001 -1.3120e+000 -4.8618e-002 59907 71059,70987,70739
 1.7500e+001 70918  1.7154e-001 -1.4993e+000  8.8140e-003 59907 71059,70739,70869
 1.7500e+001 70895  1.7227e-001 -1.0986e+000  6.5437e-003 59907 70817,70869,70843
 1.7500e+001 71013  1.2657e+000 -8.0157e-001  5.8380e-001 59907 70791,70765,70987
 1.7500e+001 71036  4.1414e-001 -1.4693e+000  1.9333e-001 59907 70791,70987,70817
 1.7500e+001 71085  1.4331e-001 -1.2011e+000 -3.7655e-002 59907 70817,70987,71059
 1.7500e+001 71108  1.4002e-001 -1.2418e+000 -3.5072e-002 59907 70817,71059,70869
 1.7500e+001 71441 -5.7678e-001 -8.2495e-001  5.7157e-001 59417 71464,71242,71216
 1.7500e+001 71418 -3.8426e-001 -5.1019e-001  8.6804e-001 59417 71464,71216,71320
 1.7500e+001 71395 -5.9842e-001 -4.2787e-001  9.4875e-001 59417 71216,71346,71320
 1.7500e+001 71372 -5.8765e-001 -9.7479e-001  4.4899e-001 59417 71268,71320,71294
 1.7500e+001 71490 -8.2485e-001 -8.9000e-001  2.4869e-001 59417 71268,71242,71464
 1.7500e+001 71513 -7.8454e-001 -4.7999e-001  5.4451e-001 59417 71268,71464,71320
 1.7500e+001 71712  1.5227e+000  1.3861e+000  4.6490e-001 58913 71562,71614,71588
 1.7500e+001 71689  9.1644e-001  1.0409e+000  3.2474e-001 58913 71536,71614,71562
 1.7500e+001 71666  5.3727e-001  2.0597e+000 -1.6743e-001 58913 71536,71640,71614
 1.7500e+001 72171 -1.0915e+000 -2.2399e+000  2.7326e-001 58409 72194,72027,72001
 1.7500e+001 72148 -9.3869e-001 -2.6528e+000 -2.0600e-002 58409 72194,72001,71949
 1.7500e+001 72125 -5.9517e-001 -1.4032e+000  9.1376e-003 58409 71923,72053,71949
 1.7500e+001 72102 -1.2513e+000 -2.6989e+000 -1.2598e-001 58409 71949,72001,71975
 1.7500e+001 72079 -1.6356e-001 -9.4944e-001  3.2923e-001 58409 71897,72053,71923
 1.7500e+001 72220 -8.0212e-001 -2.0491e+000  4.3995e-001 58409 72053,72027,72194
 1.7500e+001 72243 -6.8123e-001 -2.3516e+000  1.3471e-001 58409 72053,72194,71949
 1.7500e+001 72491  8.5561e-001  1.3564e+000  2.9361e-001 57855 72514,72318,72292
 1.7500e+001 72468  1.2691e+000  1.3463e+000  5.3595e-001 57855 72514,72292,72266
 1.7500e+001 72445  7.5687e-001  1.3323e+000  4.0230e-001 57855 72318,72396,72370
 1.7500e+001 72422  5.6441e-001  1.3245e+000  3.0623e-001 57855 72318,72370,72344
 1.7500e+001 72540  8.1052e-001  1.5241e+000  3.9779e-001 57855 72396,72318,72514
 1.7500e+001 72563  8.5021e-001  1.6598e+000  4.8009e-001 57855 72396,72514,72266
 1.7500e+001 72811 -2.7697e-001 -2.2390e+000  1.1733e+000 57401 72612,72690,72638
 1.7500e+001 72788 -2.2126e+000 -3.0571e+000  1.5749e+000 57401 72586,72690,72612
 1.7500e+001 72765  3.7573e+000 -3.8642e+000  1.2645e-001 57401 72638,72690,72664
 1.7500e+001 72742  2.9830e-001 -1.2208e+000  7.3135e-001 57401 72586,72716,72690
 1.7500e+001 73144 -5.6488e-002 -1.0372e+000 -3.3677e-002 57004 72919,72997,72945
 1.7500e+001 73121 -1.4500e-001 -1.2765e+000  4.0308e-002 57004 72919,73049,72997
 1.7500e+001 73098 -1.8681e-001 -9.1609e-001 -1.3842e-001 57004 72945,72997,72971
 1.7500e+001 73075 -1.1768e-001 -1.2439e+000  6.7364e-002 57004 72997,73049,73023
 1.7500e+001 73650 -3.8167e-001 -3.3579e+000  2.0948e-001 56592 73673,73379,73353
 1.7500e+001 73627 -5.0293e-001 -2.5880e+000  1.2407e+000 56592 73673,73353,73327
 1.7500e+001 73604  5.4342e-001 -1.7876e+000  1.0090e+000 56592 73745,73509,73483
 1.7500e+001 73581  6.8734e-001 -2.3383e+000  4.0895e-001 56592 73379,73457,73405
 1.7500e+001 73558  1.5149e+000 -2.3093e+000  1.0491e+000 56592 73379,73483,73457
 1.7500e+001 73535  2.2748e+000 -1.2598e+000  8.7861e-001 56592 73405,73457,73431
 1.7500e+001 73699  1.1342e-001 -2.6580e+000  8.1578e-001 56592 73483,73379,73673
 1.7500e+001 73722  5.4620e-001 -2.6048e+000  1.2971e+000 56592 73745,73483,73673
 1.7500e+001 73771  3.4803e-001 -2.8444e-001  5.8896e-001 56592 73327,73509,73745
 1.7500e+001 73794  5.7284e-002 -1.2078e+000  1.0648e+000 56592 73327,73745,73673
 1.7500e+001 74123  3.2747e-001  2.2903e-001 -5.9767e-001 56152 74146,74002,73924
 1.7500e+001 74100  5.4257e-001  2.0375e-001 -4.7392e-001 56152 74146,73924,73898
 1.7500e+001 74077  1.2323e+000  7.0777e-001 -8.3540e-001 56152 73924,74002,73976
 1.7500e+001 74054  6.1503e-001 -6.9204e-001  3.1248e-001 56152 73924,73976,73950
 1.7500e+001 74172  1.2890e-001  4.7290e-001 -4.6579e-001 56152 74028,74002,74146
 1.7500e+001 74195  4.4350e-001  3.6569e-001 -3.4240e-001 56152 74028,74146,73898
 1.7500e+001 74345  1.3648e+000 -5.1289e-001 -8.5176e-001 55634 74218,74270,74244
 1.7500e+001 74322 -5.5472e-001 -3.2108e-001 -3.8338e-001 55634 74218,74296,74270
 1.7500e+001 74823 -1.3830e-001 -2.7211e+000  4.3977e-001 55016 74918,74846,74581
 1.7500e+001 74800 -4.3460e-001 -2.7900e+000  1.5319e-001 55016 74846,74477,74633
 1.7500e+001 74777 -8.0957e-001 -3.2353e+000  6.6867e-001 55016 74918,74581,74555
 1.7500e+001 74754 -8.2373e-001 -2.4134e+000  1.5863e-001 55016 74990,74503,74477
 1.7500e+001 74731 -3.7314e-001 -3.2364e+000 -5.6952e-001 55016 74451,74633,74477
 1.7500e+001 74708 -1.3278e+000 -2.1785e+000 -9.1639e-001 55016 74451,74659,74633
 1.7500e+001 74685 -1.8718e+000 -1.4269e+000  1.3201e+000 55016 74503,74555,74529
 1.7500e+001 74872 -5.0026e-001 -3.5615e+000  4.6942e-001 55016 74607,74581,74846
 1.7500e+001 74895 -1.7606e-001 -3.0536e+000  2.6907e-001 55016 74607,74846,74633
 1.7500e+001 74944 -9.7019e-001 -3.1109e+000  3.0514e-001 55016 74477,74846,74918
 1.7500e+001 74967 -7.6159e-001 -2.5394e+000  3.1508e-001 55016 74990,74477,74918
 1.7500e+001 75016 -1.0412e+000 -2.4849e+000  4.7865e-001 55016 74555,74503,74990
 1.7500e+001 75039 -1.0804e+000 -2.8260e+000  6.3779e-001 55016 74555,74990,74918
 1.7500e+001 75287 -8.9226e-001 -6.4582e+000  1.0004e+000 54726 75310,75140,75114
 1.7500e+001 75264 -1.4208e+000 -5.4531e+000  6.9016e-001 54726 75310,75114,75088
 1.7500e+001 75241  1.8255e-001 -4.4003e+000  1.4126e-001 54726 75088,75192,75166
 1.7500e+001 75218 -7.8385e-001 -9.7198e-001  8.7340e-001 54726 75062,75192,75088
 1.7500e+001 75336 -1.4754e-001 -5.8380e+000  4.6712e-001 54726 75166,75140,75310
 1.7500e+001 75359 -1.2088e+000 -4.9453e+000  3.8770e-001 54726 75166,75310,75088
 1.7500e+001 75946 -1.2410e-001 -4.8349e-001 -1.8781e-001 54322 75969,75701,75649
 1.7500e+001 75923  1.4370e-001 -3.5296e-001 -2.3595e-001 54322 75969,75649,75623
 1.7500e+001 75900 -2.4586e-002 -3.4673e-001 -3.9952e-002 54322 76041,75753,75701
 1.7500e+001 75877 -5.9961e-002 -7.7974e-001 -5.0168e-002 54322 75623,75805,75779
 1.7500e+001 75854 -6.0580e-002 -4.3628e-001  1.4930e-001 54322 75701,75753,75727
 1.7500e+001 75831  3.2324e-003 -1.2015e-001 -7.9253e-002 54322 75649,75701,75675
 1.7500e+001 75995  7.2681e-002 -3.9719e-001 -1.1805e-001 54322 76041,75701,75969
 1.7500e+001 76018  8.7768e-002 -5.1624e-001 -1.2649e-001 54322 75779,75969,75623
 1.7500e+001 76067 -9.2528e-002 -4.8038e-001 -3.3199e-003 54322 75779,75753,76041
 1.7500e+001 76090 -1.8666e-002 -5.7593e-001 -7.9862e-002 54322 75779,76041,75969
 1.7500e+001 76468 -3.0153e-002 -5.0878e-001 -7.8467e-002 53868 76491,76272,76220
 1.7500e+001 76445  5.5853e-002 -5.2775e-001 -3.0490e-002 53868 76491,76220,76324
 1.7500e+001 76422 -1.9341e-002 -6.8909e-001 -1.0574e-001 53868 76220,76272,76246
 1.7500e+001 76399  1.0256e-001 -5.8060e-001 -5.6543e-002 53868 76194,76324,76220
 1.7500e+001 76376  5.3775e-001 -4.0578e-001  5.4832e-002 53868 76194,76350,76324
 1.7500e+001 76517  1.8905e-002 -4.6745e-001 -3.0834e-002 53868 76298,76272,76491
 1.7500e+001 76540  1.0411e-001 -4.9852e-001  1.3204e-002 53868 76298,76491,76324
 1.7500e+001 76690 -2.6557e-004 -6.6112e-001  6.3391e-002 53356 76589,76641,76615
 1.7500e+001 76667 -1.9992e-001 -8.7384e-001 -2.3386e-002 53356 76563,76641,76589
 1.7500e+001 76938  2.1166e-001  3.6771e-001  9.5851e-002 53009 77105,76961,76765
 1.7500e+001 76915 -6.8867e-002 -1.5568e+000 -6.0811e-001 53009 76961,76713,76843
 1.7500e+001 76892 -2.2453e-001 -7.2258e-001  4.9856e-002 53009 77033,76817,76791
 1.7500e+001 76869  5.9029e-001  1.7558e+000 -8.2555e-002 53009 77105,76765,76739
 1.7500e+001 76987 -2.5256e-001 -7.0260e-001 -1.8187e-001 53009 76791,76765,76961
 1.7500e+001 77010 -1.7819e-001 -4.3449e-001 -2.1851e-001 53009 77033,76791,76961
 1.7500e+001 77059  2.1175e-001 -4.7790e-001 -2.0690e-001 53009 76843,76817,77033
 1.7500e+001 77082  1.6860e-001 -3.5772e-001 -4.5762e-001 53009 76843,77033,76961
 1.7500e+001 77131  8.2320e-001 -3.5875e-002 -1.0286e+000 53009 76713,76961,77105
 1.7500e+001 77154  1.0101e+000  4.7953e-001 -1.2299e+000 53009 76713,77105,76739
 1.7500e+001 77355  5.5044e-001 -4.2261e+000  4.9726e-001 52390 77378,77257,77231
 1.7500e+001 77332  6.7136e-001 -5.3625e+000  6.6647e-001 52390 77378,77231,77179
 1.7500e+001 77309  1.3656e+000 -3.9934e+000  4.1244e-001 52390 77179,77231,77205
 1.7500e+001 77404  8.4644e-001 -5.1425e+000  1.0714e+000 52390 77283,77257,77378
 1.7500e+001 77427  7.4534e-001 -6.6695e+000  1.1487e+000 52390 77283,77378,77179
 1.7500e+001 77677 -1.1647e+000  1.2588e+000 -1.4939e+000 51986 77700,77504,77478
 1.7500e+001 77654 -2.3293e-001  1.2366e+000 -1.3360e+000 51986 77700,77478,77452
 1.7500e+001 77631  4.2098e-001  1.1874e+000 -1.4082e+000 51986 77772,77556,77530
 1.7500e+001 77608  3.5392e+000  2.2193e+000 -2.2851e+000 51986 77452,77582,77556
 1.7500e+001 77726 -3.8523e-001  1.5369e+000 -9.5746e-001 51986 77530,77504,77700
 1.7500e+001 77749  3.7636e-001  1.1625e+000 -1.1260e+000 51986 77772,77530,77700
 1.7500e+001 77798  9.4391e-002  1.0265e+000 -1.3134e+000 51986 77452,77556,77772
 1.7500e+001 77821 -7.8285e-002  1.0146e+000 -1.0714e+000 51986 77452,77772,77700
 1.7500e+001 78282 -1.1343e+000 -3.3446e+000  1.2425e-002 51738 78008,78138,78060
 1.7500e+001 78259 -1.7919e+000 -4.4480e+000  2.3045e+000 51738 78008,78164,78138
 1.7500e+001 78236 -6.5443e-001 -1.6477e+000  6.4240e-001 51738 78086,78138,78112
 1.7500e+001 78213 -6.6349e-001 -1.6104e+000  6.1744e-001 51738 78060,78138,78086
 1.7500e+001 78190 -3.4112e-001 -4.4300e+000 -4.8831e-001 51738 78008,78060,78034
 1.7500e+001 78432  1.9181e-001 -4.0006e-001  1.7770e-002 51148 78305,78357,78331
 1.7500e+001 78409  1.2173e-001 -2.9767e-001  2.2530e-002 51148 78305,78383,78357
 1.7500e+001 78891 -1.4997e-001 -5.9381e-001 -8.9226e-002 50808 78914,78695,78669
 1.7500e+001 78868 -7.2089e-002 -4.0506e-001 -7.5688e-002 50808 78914,78669,78643
 1.7500e+001 78845 -5.3795e-002 -5.4309e-001 -3.5683e-001 50808 78643,78773,78747
 1.7500e+001 78822 -2.5256e-002 -6.0324e-001 -3.4144e-001 50808 78617,78773,78643
 1.7500e+001 78799 -2.8975e-001 -5.8300e-001 -1.4242e-001 50808 78695,78747,78721
 1.7500e+001 78940 -1.9701e-001 -4.6118e-001 -2.1447e-001 50808 78747,78695,78914
 1.7500e+001 78963 -1.4113e-001 -3.6064e-001 -1.9233e-001 50808 78747,78914,78643
 1.7500e+001 79260  7.3343e-002 -5.1929e-001 -5.7700e-002 50468 79283,79090,79012
 1.7500e+001 79237  2.6385e-001 -5.0387e-001 -3.6846e-003 50468 79283,79012,78986
 1.7500e+001 79214 -1.2753e-001 -6.0706e-001 -7.8075e-002 50468 79012,79090,79038
 1.7500e+001 79191  1.1916e-001 -4.4697e-001  8.1165e-002 50468 78986,79142,79116
 1.7500e+001 79168 -5.2913e-002 -6.0782e-001 -1.0880e-001 50468 79038,79090,79064
 1.7500e+001 79309 -1.2554e-001 -4.7494e-001 -7.4247e-002 50468 79116,79090,79283
 1.7500e+001 79332  1.1029e-001 -4.1530e-001 -4.1352e-003 50468 79116,79283,78986
 1.7500e+001 79889  9.1048e-001  1.2161e+000 -4.1402e-001 50064 79569,79725,79699
 1.7500e+001 79866  1.0240e+000  1.2548e+000 -3.3331e-001 50064 79543,79725,79569
 1.7500e+001 79843  9.4690e-001  9.2728e-001 -4.4213e-001 50064 79621,79699,79673
 1.7500e+001 79820  1.1154e+000  1.2925e+000 -8.0981e-001 50064 79595,79699,79621
 1.7500e+001 79797  1.6743e+000  1.4060e+000 -5.9125e-001 50064 79569,79699,79595
 1.7500e+001 79774  5.5696e-001  1.2952e+000 -1.5484e-001 50064 79517,79725,79543
 1.7500e+001 79751  4.7492e-001  6.9254e-001 -5.6424e-001 50064 79621,79673,79647
 1.7500e+001 80169  1.0453e+000  1.5189e+000 -6.9128e-001 49724 80019,80097,80071
 1.7500e+001 80146  9.4824e-001  1.9284e+000 -7.9442e-001 49724 79993,80097,80019
 1.7500e+001 80123  6.7610e-001  1.4015e+000 -7.8433e-001 49724 80019,80071,80045
 1.7500e+001 80626  1.7939e-001  3.7240e-001  2.3792e-001 49277 80352,80482,80378
 1.7500e+001 80603 -1.9268e-001  2.5973e-001 -3.2326e-002 49277 80352,80508,80482
 1.7500e+001 80580 -1.1590e-001 -3.4277e-001  4.5604e-002 49277 80378,80482,80456
 1.7500e+001 80557 -6.1730e-002 -6.8337e-001  3.2239e-001 49277 80378,80430,80404
 1.7500e+001 80534 -2.8665e-002 -2.6136e-001  2.4769e-001 49277 80378,80456,80430
 1.7500e+001 81230  4.5386e-001 -3.7008e-001  2.0885e-001 48716 81253,80835,80809
 1.7500e+001 81207  3.9316e-001 -3.5013e-001  4.9074e-001 48716 81397,81253,80809
 1.7500e+001 81184 -1.8745e-004  1.5885e-001 -8.0006e-002 48716 81325,80913,80887
 1.7500e+001 81161 -2.0804e-001 -4.6410e-001  6.3934e-001 48716 81397,80809,81017
 1.7500e+001 81138 -2.3228e-001  3.9173e-001 -1.7991e-001 48716 81469,80965,80913
 1.7500e+001 81115 -1.7009e-001 -5.9536e-001  2.2390e-001 48716 80835,80887,80861
 1.7500e+001 81092  9.9017e-001 -4.0483e-001  1.3112e+000 48716 80809,81043,81017
 1.7500e+001 81069 -2.6209e-002  1.3123e-001 -3.9552e-001 48716 80913,80965,80939
 1.7500e+001 81279  1.3597e-001 -3.3707e-001  5.3274e-002 48716 80887,80835,81253
 1.7500e+001 81302 -9.9292e-002  1.4292e-001 -7.8790e-003 48716 81325,80887,81253
 1.7500e+001 81351  6.2341e-002  2.9835e-001 -6.6757e-002 48716 81469,80913,81325
 1.7500e+001 81374 -9.1378e-002  5.2727e-001  1.0495e-001 48716 80991,81325,81253
 1.7500e+001 81423 -5.1560e-001  6.5743e-002  5.8859e-001 48716 80991,81253,81397
 1.7500e+001 81446 -1.2107e+000 -1.6327e-001  7.9821e-001 48716 80991,81397,81017
 1.7500e+001 81495 -6.9660e-001  3.3561e-001 -1.5457e-001 48716 80991,80965,81469
 1.7500e+001 81518 -4.6011e-001  1.9915e-001 -4.2742e-002 48716 80991,81469,81325
 1.7500e+001 81717 -6.4444e-002 -5.4912e-001  5.7018e-002 48262 81740,81567,81541
 1.7500e+001 81694 -1.8389e-001 -5.4837e-001  5.7288e-003 48262 81740,81541,81645
 1.7500e+001 81671 -1.3658e-001 -5.8880e-001 -2.3463e-002 48262 81567,81619,81593
 1.7500e+001 81766 -1.3978e-001 -5.5897e-001 -1.2397e-002 48262 81619,81567,81740
 1.7500e+001 81789 -2.7017e-001 -5.8670e-001 -7.2404e-002 48262 81619,81740,81645
 1.7500e+001 81939  8.8951e-001  1.1290e+000 -5.1932e-001 47957 82034,81962,81864
 1.7500e+001 81916  6.3899e-001  8.3294e-001 -1.7462e-001 47957 82166,81962,81838
 1.7500e+001 81988 -5.9444e-001  1.0250e+000 -5.4215e-001 47957 82294,81962,81890
 1.7500e+001 82011  5.6718e-001  1.7392e+000  2.8015e-001 47957 81890,81962,81812
 1.7500e+001 82060  7.9937e-001  1.6810e+000 -1.6510e-002 47957 81838,81962,82034
 1.7500e+001 82192  7.7951e-001  9.3999e-001  3.1642e-001 47957 81812,81962,82166
 1.7500e+001 82320 -1.5612e-002  1.0796e+000 -6.6837e-001 47957 81864,81962,82294
 1.7500e+001 82549 -1.8479e-003 -5.9817e-001 -1.6494e-001 47617 82448,82500,82474
 1.7500e+001 82526  2.7053e-001 -7.8974e-001 -4.3924e-004 47617 82422,82500,82448
 1.7500e+001 82902 -4.8072e-001 -1.0784e+000  9.8633e-002 47255 82729,82807,82755
 1.7500e+001 82879 -2.4158e-001 -2.0858e+000  3.6394e-001 47255 82703,82807,82729
 1.7500e+001 82856 -8.6499e-001 -1.3166e+000  4.4751e-001 47255 82755,82807,82781
 1.7500e+001 82833  9.3035e-001 -1.5838e+000  4.8190e-001 47255 82677,82807,82703
 1.7500e+001 83182  3.4829e-001 -8.5498e-001  1.5586e-001 46680 83032,83084,83058
 1.7500e+001 83159  4.8210e-001 -2.9802e-001  1.5782e-001 46680 83205,83084,83032
 1.7500e+001 83136  7.5112e-001 -1.2278e-001 -6.7512e-002 46680 83006,83110,83084
 1.7500e+001 83231  2.6671e-001 -4.5327e-001  8.5178e-002 46680 83006,83084,83205
 1.7500e+001 83737 -7.2253e-001 -2.3493e-001  4.7132e-002 46290 83832,83760,83492
 1.7500e+001 83714 -5.3807e-001  2.2179e-001 -1.3829e-001 46290 83760,83440,83414
 1.7500e+001 83691 -3.7858e-001 -4.4830e-001 -1.5924e-002 46290 83832,83492,83466
 1.7500e+001 83668 -5.7803e-001 -9.4909e-001  2.0511e-001 46290 83492,83570,83544
 1.7500e+001 83645 -4.7598e-001 -1.4588e-001 -3.0447e-001 46290 83414,83596,83570
 1.7500e+001 83622 -7.3530e-001 -7.0153e-001  4.1784e-001 46290 83492,83544,83518
 1.7500e+001 83786 -7.0704e-001 -1.8396e-001  4.9458e-002 46290 83570,83492,83760
 1.7500e+001 83809 -7.1346e-001 -3.6919e-001 -1.9254e-001 46290 83570,83760,83414
 1.7500e+001 83858 -2.8945e-001  6.5800e-002  1.8349e-001 46290 83440,83760,83832
 1.7500e+001 83881  2.6757e-001 -1.6828e-001  7.2096e-002 46290 83440,83832,83466
 1.7500e+001 84161 -8.6198e-002 -7.5684e-001  3.4131e-001 45829 84011,84063,84037
 1.7500e+001 84138  3.3123e-002 -4.4883e-001  9.2090e-002 45829 84011,84089,84063
 1.7500e+001 84115  8.1561e-002 -4.2517e-001  1.4929e-001 45829 83985,84089,84011
 1.7500e+001 84311  3.9299e-001  2.4069e-001  8.3132e-002 45631 84184,84236,84210
 1.7500e+001 84288  2.0283e-002 -8.7863e-001 -3.3312e-002 45631 84184,84262,84236
 1.7500e+001 84657 -9.8917e-002 -4.5327e-001 -2.3472e-002 45155 84680,84490,84412
 1.7500e+001 84634 -1.5723e-001 -4.1128e-001 -8.6230e-003 45155 84680,84412,84360
 1.7500e+001 84611 -1.5822e-001 -4.9327e-001  1.9698e-002 45155 84412,84490,84438
 1.7500e+001 84588  1.7348e-002 -3.0855e-001 -4.4326e-002 45155 84334,84516,84360
 1.7500e+001 84565 -1.9121e-001 -4.7915e-001 -1.4497e-001 45155 84360,84412,84386
 1.7500e+001 84542 -1.3323e-001 -4.1595e-001  6.3148e-002 45155 84438,84490,84464
 1.7500e+001 84706 -7.6002e-002 -4.1802e-001 -3.5410e-002 45155 84516,84490,84680
 1.7500e+001 84729 -1.2016e-001 -3.6438e-001 -2.7224e-002 45155 84516,84680,84360
 1.7500e+001 85077  2.2553e-001 -1.3228e-001  5.3119e-002 44508 85100,84754,84910
 1.7500e+001 85054  2.7382e-001  1.7457e-001  7.3565e-002 44508 84754,84936,84910
 1.7500e+001 85031  6.8251e-002 -2.9435e-001  2.0883e-001 44508 85100,84910,84884
 1.7500e+001 85008 -8.4697e-002 -3.0551e-001  7.5385e-002 44508 84780,84884,84832
 1.7500e+001 84985  1.5891e-001  1.4285e-001 -1.2618e-001 44508 84780,84832,84806
 1.7500e+001 84962  5.9048e-001  1.4209e-001 -1.1844e-001 44508 84832,84884,84858
 1.7500e+001 85126  9.6722e-002  1.1511e-001 -6.7927e-002 44508 84780,84754,85100
 1.7500e+001 85149 -2.1716e-002 -4.8406e-002  7.4313e-002 44508 84780,85100,84884
 1.7500e+001 85482 -4.3184e-001 -6.6868e-001 -3.4936e-002 44104 85335,85387,85361
 1.7500e+001 85459 -3.6396e-001 -1.0043e+000  1.6640e-003 44104 85309,85387,85335
 1.7500e+001 85436 -1.5630e-001 -7.4703e-001  1.2757e-001 44104 85257,85387,85309
 1.7500e+001 85413 -3.1059e-001 -1.3323e+000  9.1298e-002 44104 85257,85309,85283
 1.7500e+001 85811 -1.0539e-001 -2.9209e-001 -4.3675e-002 43600 85586,85664,85612
 1.7500e+001 85788 -1.6589e-001 -3.6948e-001 -9.2454e-003 43600 85586,85690,85664
 1.7500e+001 85765  2.3651e-002 -2.9490e-001 -3.8054e-002 43600 85586,85716,85690
 1.7500e+001 85742 -8.7265e-002 -2.9986e-001 -1.8681e-002 43600 85612,85664,85638
 1.7500e+001 86010 -1.1977e-002 -3.5352e-001 -8.5583e-002 43224 85886,85938,85912
 1.7500e+001 85987  8.5985e-002  1.7707e-002 -1.3511e-001 43224 85834,85938,85886
 1.7500e+001 85964 -3.0112e-001 -4.0438e-001  3.0163e-002 43224 85834,85886,85860
 1.7500e+001 86420  1.8304e+000  9.3865e-001 -3.3791e-001 42820 86195,86299,86221
 1.7500e+001 86397  1.3848e+000  8.8264e-001 -9.6655e-001 42820 86195,86325,86299
 1.7500e+001 86374  1.1652e+000  1.0971e+000 -2.9757e-002 42820 86221,86299,86273
 1.7500e+001 86351  1.0652e+000  6.1834e-001  9.4426e-002 42820 86221,86273,86247
 1.7500e+001 86749  3.6676e-001 -2.7335e-001 -1.7488e-001 42223 86550,86602,86576
 1.7500e+001 86726  1.0534e+000 -6.3130e-001 -1.0460e-002 42223 86550,86628,86602
 1.7500e+001 86703  7.2364e-002 -9.6142e-001  3.0157e-001 42223 86524,86628,86550
 1.7500e+001 86680  6.0877e-001 -8.9948e-003  8.6979e-002 42223 86524,86654,86628
 1.7500e+001 87078  6.7329e-001 -2.1479e-001  2.4906e-001 41883 87173,87101,86905
 1.7500e+001 87055  5.0365e-001  4.4375e-001  6.6590e-003 41883 87101,86879,86853
 1.7500e+001 87032  1.2737e-001  5.6555e-002  1.7717e-003 41883 86853,86983,86931
 1.7500e+001 87009  2.2250e-002 -3.2848e-001  9.2379e-002 41883 86931,86983,86957
 1.7500e+001 87127  8.0679e-001 -6.7487e-002 -1.7699e-004 41883 86931,86905,87101
 1.7500e+001 87150  2.2426e-001 -2.0412e-001 -4.1207e-002 41883 86931,87101,86853
 1.7500e+001 87199  2.2062e-001 -1.6663e-001  2.3131e-001 41883 86879,87101,87173
 1.7500e+001 87558 -5.9250e-002  3.5733e-001 -5.2074e-002 41471 87382,87460,87408
 1.7500e+001 87535 -6.7564e-001 -1.3581e-001 -2.7677e-001 41471 87382,87486,87460
 1.7500e+001 87512 -2.0218e-001  2.1137e-001 -1.1596e-001 41471 87408,87460,87434
 1.7500e+001 87806  1.5020e-001 -2.1459e-001  5.8075e-002 41017 87829,87607,87581
 1.7500e+001 87783  1.0950e-001 -3.4330e-001  9.7795e-002 41017 87829,87581,87685
 1.7500e+001 87760  3.1644e-001 -8.6611e-002  7.1125e-003 41017 87581,87711,87685
 1.7500e+001 87737  3.1502e-001 -7.4522e-001  4.6391e-002 41017 87633,87685,87659
 1.7500e+001 87855  1.3984e-001 -2.6014e-001  1.5493e-001 41017 87633,87607,87829
 1.7500e+001 87878  8.8423e-002 -3.9669e-001  1.9725e-001 41017 87633,87829,87685
 1.7500e+001 88258 -1.1767e-003 -1.1891e-002 -9.6836e-004 40613 88281,88036,88010
 1.7500e+001 88235  8.5339e-003 -3.0641e-002 -4.5151e-003 40613 88281,88010,88088
 1.7500e+001 88212  2.9386e-003 -3.2285e-002 -4.3788e-003 40613 87984,88088,88010
 1.7500e+001 88189  5.5436e-003 -2.0555e-002 -2.3844e-002 40613 87984,88114,88088
 1.7500e+001 88166  9.1765e-003 -1.9063e-002 -2.4908e-002 40613 87984,88140,88114
 1.7500e+001 88307  4.7517e-003  5.7585e-003  1.1612e-002 40613 88062,88036,88281
 1.7500e+001 88330  1.0640e-002 -2.3704e-002  1.0926e-002 40613 88062,88281,88088
 1.7500e+001 88649  1.0776e-002 -7.6391e-002 -9.2764e-003 40095 88375,88505,88401
 1.7500e+001 88626 -4.6200e-003 -5.5769e-002 -2.0455e-002 40095 88375,88531,88505
 1.7500e+001 88603  3.7252e-002 -1.1430e-001 -3.2008e-002 40095 88401,88505,88479
 1.7500e+001 88580 -1.2667e-001 -7.6747e-001 -2.4461e-001 40095 88427,88479,88453
 1.7500e+001 88557 -3.3603e-002 -2.5394e-001  3.7452e-003 40095 88401,88479,88427
 1.7500e+001 89078  1.0601e+000 -1.7099e-001 -1.7407e-001 39897 89101,88833,88807
 1.7500e+001 89055  6.4886e-001 -5.8573e-001 -3.7598e-001 39897 89101,88807,88911
 1.7500e+001 89032  7.8206e-001 -7.8797e-002 -3.6207e-001 39897 88781,88911,88807
 1.7500e+001 89009 -7.8532e-002 -7.3943e-001 -8.2529e-001 39897 88781,88937,88911
 1.7500e+001 88986  2.0646e+000  3.4568e-001 -3.9154e-001 39897 88833,88885,88859
 1.7500e+001 88963  5.3920e-001 -8.2279e-002 -5.3247e-001 39897 88755,88937,88781
 1.7500e+001 89127  1.4779e+000 -6.8249e-001 -6.5088e-001 39897 88885,88833,89101
 1.7500e+001 89150  7.3613e-001 -1.3321e+000 -9.4044e-001 39897 88885,89101,88911
 1.7500e+001 89300 -6.3161e-001 -9.4107e-001  1.2549e-001 39607 89453,89323,89199
 1.7500e+001 89277 -1.0551e+000 -7.9178e-001  3.0091e-002 39607 89525,89453,89199
 1.7500e+001 89349 -6.1320e-001 -9.5726e-001 -9.0147e-002 39607 89225,89199,89323
 1.7500e+001 89479 -7.2881e-001 -5.8463e-001  1.3941e-001 39607 89251,89323,89453
 1.7500e+001 89502 -3.6520e-001 -2.1275e-001  4.1763e-001 39607 89251,89453,89173
 1.7500e+001 89551 -8.8216e-002 -4.5588e-001  3.8097e-002 39607 89173,89453,89525
 1.7500e+001 90264 -6.4794e-001 -1.7112e+000 -1.6434e-001 39039 89996,90074,90048
 1.7500e+001 90241 -3.4102e-001 -7.2372e-001 -1.1790e-001 39039 89918,90074,89996
 1.7500e+001 90218 -4.9307e-001 -9.1763e-001 -4.8948e-002 39039 89918,89996,89944
 1.7500e+001 90195 -4.3547e-001 -7.4932e-001 -9.9640e-002 39039 89892,90074,89918
 1.7500e+001 90172  9.6832e-002 -1.7179e+000 -2.4359e-001 39039 89996,90048,90022
 1.7500e+001 90149 -1.0941e+000  3.5939e-001 -1.0753e-001 39039 89892,90100,90074
 1.7500e+001 90126 -7.5948e-001 -1.0395e+000  9.7650e-002 39039 89944,89996,89970
 1.7500e+001 90770 -1.1377e-001 -3.7010e-001  2.3814e-003 38635 90473,90603,90577
 1.7500e+001 90747 -5.4326e-002 -3.3944e-001 -1.1454e-002 38635 90447,90603,90473
 1.7500e+001 90724 -5.9075e-002 -4.1339e-001 -3.4518e-002 38635 90499,90577,90551
 1.7500e+001 90701 -1.6243e-001 -4.9168e-001  2.8447e-002 38635 90473,90577,90499
 1.7500e+001 90678 -9.3460e-002 -5.7725e-001 -6.9203e-003 38635 90499,90551,90525
 1.7500e+001 90655 -2.0400e-001 -3.7867e-001  4.5123e-002 38635 90447,90629,90603
 1.7500e+001 90871 -3.7353e-002 -3.4348e-001 -9.7453e-002 38231 90793,90845,90819
 1.7500e+001 91458  2.1337e-002 -1.8224e-001 -1.3914e-002 37534 91161,91317,91291
 1.7500e+001 91435 -1.5585e-001 -1.0457e-001  5.7414e-002 37534 91135,91317,91161
 1.7500e+001 91412 -2.6743e-001 -1.0634e+000 -2.5107e-001 37534 91187,91291,91239
 1.7500e+001 91389 -3.5279e-002 -1.0531e+000  1.1354e-001 37534 91161,91291,91187
 1.7500e+001 91366 -3.9623e-002 -7.7536e-001 -1.3917e-001 37534 91239,91291,91265
 1.7500e+001 91343  5.1303e-001 -1.1428e+000 -5.8589e-001 37534 91187,91239,91213
 1.7500e+001 91915 -2.9205e-001 -7.9628e-001  1.4518e-001 37080 91938,91745,91667
 1.7500e+001 91892 -4.5555e-003 -7.4593e-001  5.8110e-002 37080 91938,91667,91797
 1.7500e+001 91869  1.6643e-001 -2.5218e-001  9.2645e-002 37080 91641,91797,91667
 1.7500e+001 91846 -3.0393e-001 -9.0510e-001  3.7866e-002 37080 91667,91719,91693
 1.7500e+001 91823 -2.2596e-001 -6.9467e-001  1.0220e-001 37080 91667,91745,91719
 1.7500e+001 91964 -4.3243e-001 -9.0713e-001  3.9668e-001 37080 91771,91745,91938
 1.7500e+001 91987 -1.4913e-001 -7.6057e-001  2.7596e-001 37080 91771,91938,91797
 1.7500e+001 92235 -1.9949e-001 -3.7437e-001 -2.0980e-002 36397 92036,92088,92062
 1.7500e+001 92212 -1.3667e-001 -3.3736e-001 -4.6485e-002 36397 92036,92114,92088
 1.7500e+001 92189 -4.1924e-002 -2.6436e-001  7.2003e-003 36397 92036,92140,92114
 1.7500e+001 92166 -5.8955e-002 -3.3902e-001 -1.4615e-002 36397 92010,92140,92036
 1.7500e+001 92694  1.6102e-001  6.1140e-003 -3.0523e-002 36057 92446,92498,92472
 1.7500e+001 92671  1.8888e-001 -4.4626e-002  5.7990e-002 36057 92446,92550,92498
 1.7500e+001 92648 -5.2821e-002 -3.8988e-001  1.6709e-001 36057 92446,92576,92550
 1.7500e+001 92625  1.4655e-001 -2.9704e-003 -3.0253e-001 36057 92420,92576,92446
 1.7500e+001 92602  3.2809e-002  2.0997e-002  1.9425e-001 36057 92498,92550,92524
 1.7500e+001 93023 -1.9067e-001 -3.1463e-001 -3.7755e-002 35717 92876,92928,92902
 1.7500e+001 93000 -1.4692e-001 -3.4524e-001 -4.9331e-002 35717 92824,92928,92876
 1.7500e+001 92977 -6.4058e-002 -3.5658e-001 -1.0178e-002 35717 92798,92928,92824
 1.7500e+001 92954 -1.7227e-001 -4.6886e-001 -1.3964e-001 35717 92824,92876,92850
 1.7500e+001 93499  3.9235e-001 -4.2990e-001  2.0141e-001 35405 93522,93309,93257
 1.7500e+001 93476  3.7492e-001 -3.7396e-001  2.0771e-001 35405 93666,93522,93257
 1.7500e+001 93453  3.6200e-001 -1.1141e+000  2.0147e-001 35405 93594,93127,93335
 1.7500e+001 93430  2.4575e-001 -4.1533e-001  2.0585e-001 35405 93666,93257,93231
 1.7500e+001 93407  4.3225e-002 -1.3956e+000 -3.8648e-002 35405 93127,93179,93153
 1.7500e+001 93384 -3.7538e-001 -2.1038e-001  4.1811e-001 35405 93179,93231,93205
 1.7500e+001 93361  4.3724e-001  2.1714e-001 -2.8624e-002 35405 93257,93309,93283
 1.7500e+001 93548  5.4680e-001 -2.9380e-001  3.9019e-001 35405 93335,93309,93522
 1.7500e+001 93571  3.8980e-001 -6.1108e-001  2.7964e-001 35405 93594,93335,93522
 1.7500e+001 93620  4.3179e-001 -5.8023e-001  1.2411e-001 35405 93179,93127,93594
 1.7500e+001 93643  2.3314e-001 -3.7844e-001  1.4445e-001 35405 93738,93594,93522
 1.7500e+001 93692  2.2795e-001 -3.7512e-001  1.5213e-001 35405 93738,93522,93666
 1.7500e+001 93715  1.8319e-001 -3.7216e-001  1.3263e-001 35405 93179,93666,93231
 1.7500e+001 93764  2.3806e-001 -3.6747e-001  1.4276e-001 35405 93179,93594,93738
 1.7500e+001 93787  2.3474e-001 -3.6348e-001  1.4935e-001 35405 93179,93738,93666
 1.7500e+001 94372  8.3369e-001 -2.9824e-002  7.0686e-003 34951 94395,94127,94075
 1.7500e+001 94349  1.0914e+000 -8.1478e-002  1.0992e-001 34951 94395,94075,94231
 1.7500e+001 94326  1.3804e+000 -2.9752e-001 -3.8328e-001 34951 94049,94231,94075
 1.7500e+001 94303  9.1894e-001  4.3063e-001  3.3422e-002 34951 94075,94127,94101
 1.7500e+001 94280  1.4331e+000  7.1318e-001  5.6091e-001 34951 94127,94205,94153
 1.7500e+001 94257  1.1678e+000 -1.5769e-001  6.3897e-001 34951 94153,94205,94179
 1.7500e+001 94421  1.0368e+000 -6.8195e-002  1.5452e-001 34951 94205,94127,94395
 1.7500e+001 94444  1.4987e+000  1.1383e-002  2.4952e-001 34951 94205,94395,94231
 1.7500e+001 94692  1.7329e-002 -9.4955e-002  1.1106e-004 34397 94715,94519,94467
 1.7500e+001 94669  8.8795e-003 -6.0614e-002  1.1135e-002 34397 94715,94467,94597
 1.7500e+001 94646  5.7779e-002  5.8582e-002  8.9699e-003 34397 94545,94597,94571
 1.7500e+001 94623 -1.2316e-002 -1.7218e-001  1.7420e-002 34397 94467,94519,94493
 1.7500e+001 94741 -2.2930e-002 -2.0166e-001 -2.1547e-002 34397 94545,94519,94715
 1.7500e+001 94764  2.0105e-002 -9.4641e-002 -1.9120e-003 34397 94545,94715,94597
 1.7500e+001 94985  3.8392e-002 -2.0078e-001  2.2749e-002 33985 94835,94913,94887
 1.7500e+001 94962 -3.2678e-001 -1.0703e+000  3.6846e-002 33985 94809,94913,94835
 1.7500e+001 94939 -1.2327e-002 -1.7171e-001  1.6713e-002 33985 94835,94887,94861
 1.7500e+001 95186 -2.7051e-002 -5.4666e-001 -2.0073e-001 33645 95281,95209,95036
 1.7500e+001 95163  3.6332e-001 -5.7802e-001  4.2978e-002 33645 95209,95010,95088
 1.7500e+001 95140  3.6603e-001 -2.7992e-001  2.1659e-003 33645 95010,95114,95088
 1.7500e+001 95235 -2.5607e-001 -6.9717e-001 -3.0118e-001 33645 95062,95036,95209
 1.7500e+001 95258 -1.7116e-001 -7.8851e-001  2.6146e-001 33645 95413,95209,95088
 1.7500e+001 95307  2.7315e-001 -1.0571e-002 -3.8952e-001 33645 95010,95209,95281
 1.7500e+001 95439  1.3793e-001 -4.4428e-001  1.2693e-001 33645 95062,95209,95413
 1.7500e+001 95766 -1.9238e-001 -7.1809e-002 -3.0007e-001 33141 95789,95593,95567
 1.7500e+001 95743  1.0273e-002 -2.1725e-001 -9.2811e-002 33141 95861,95789,95567
 1.7500e+001 95720 -4.3302e-003 -1.8404e-001 -3.0492e-002 33141 95861,95567,95671
 1.7500e+001 95697  7.2212e-003 -2.2307e-001 -4.2106e-002 33141 95541,95671,95567
 1.7500e+001 95815 -2.6306e-002  3.2547e-001 -2.5862e-001 33141 95619,95593,95789
 1.7500e+001 95838  4.7097e-002 -2.9417e-002 -8.7608e-002 33141 95619,95789,95645
 1.7500e+001 95887  5.9804e-002 -1.0655e-001 -1.0244e-001 33141 95645,95789,95861
 1.7500e+001 95910  4.0114e-002 -7.5653e-002 -3.1854e-002 33141 95645,95861,95671
 1.7500e+001 96060 -1.9770e-001 -2.9475e-001 -1.2233e-001 32487 95959,96011,95985
 1.7500e+001 96037 -4.0284e-002 -2.7360e-001 -2.4237e-002 32487 95933,96011,95959
 1.7500e+001 96570 -1.7629e-001 -3.6999e-001  2.4797e-001 32033 96665,96593,96377
 1.7500e+001 96547 -1.5172e-001 -3.5042e-001 -1.1735e-001 32033 96737,96593,96325
 1.7500e+001 96524 -2.3713e-001 -5.1036e-001  1.4953e-001 32033 96665,96377,96351
 1.7500e+001 96501 -2.2737e-001 -5.2117e-001 -9.7994e-002 32033 96737,96325,96299
 1.7500e+001 96478 -2.4633e-001 -1.3688e-001 -9.1689e-002 32033 96247,96429,96299
 1.7500e+001 96455 -6.1020e-001 -1.2005e+000 -9.2895e-002 32033 96247,96299,96273
 1.7500e+001 96619  1.4418e-001 -1.4490e-001  2.9627e-001 32033 96809,96593,96403
 1.7500e+001 96642  3.5858e-001  4.2662e-001 -3.2567e-001 32033 96403,96593,96429
 1.7500e+001 96691  7.8491e-002 -7.0870e-001  7.3005e-002 32033 96325,96593,96665
 1.7500e+001 96714 -1.3984e-001 -9.6908e-001 -6.3538e-002 32033 96325,96665,96351
 1.7500e+001 96763 -2.3404e-001 -2.8673e-001 -3.6817e-002 32033 96429,96593,96737
 1.7500e+001 96786 -2.6302e-001 -3.6707e-001 -4.0709e-002 32033 96429,96737,96299
 1.7500e+001 96835  1.3463e-002 -2.8530e-001  2.3191e-001 32033 96377,96593,96809
 1.7500e+001 97064 -1.6860e-002 -4.0002e-002 -1.3335e-002 31671 97087,96989,96963
 1.7500e+001 97041 -1.7534e-002 -5.6858e-002  3.2926e-002 31671 97087,96963,96937
 1.7500e+001 97113  3.3404e-002 -3.2145e-002 -1.4193e-002 31671 97159,97087,97015
 1.7500e+001 97136 -2.1256e-003 -3.5693e-003  7.6305e-003 31671 97015,97087,96937
 1.7500e+001 97185  5.2783e-004  1.4966e-003 -1.1400e-002 31671 96989,97087,97159
 1.7500e+001 97563  1.9544e-002 -7.8404e-002 -4.8966e-005 31117 97586,97367,97341
 1.7500e+001 97540  5.2664e-003 -7.5873e-002  5.2836e-003 31117 97658,97586,97341
 1.7500e+001 97517 -9.8175e-003 -7.8110e-002 -9.9648e-004 31117 97658,97341,97315
 1.7500e+001 97494  4.9302e-002 -9.8656e-002 -1.7051e-002 31117 97289,97445,97315
 1.7500e+001 97471  1.2920e-002 -1.7172e-002  1.2198e-003 31117 97367,97419,97393
 1.7500e+001 97612 -1.3038e-003 -6.5407e-002  4.0359e-003 31117 97419,97367,97586
 1.7500e+001 97635  4.4700e-002 -6.4699e-002  2.5293e-002 31117 97419,97586,97445
 1.7500e+001 97684  3.5056e-002 -8.5122e-002  8.3807e-003 31117 97445,97586,97658
 1.7500e+001 97707  1.7269e-002 -9.0003e-002  1.4112e-003 31117 97445,97658,97315
 1.7500e+001 98215  8.5240e-002 -3.4063e-002 -1.5860e-001 30563 98238,97996,97944
 1.7500e+001 98192 -1.1309e-001 -1.9653e-002 -1.7017e-001 30563 98310,98238,97944
 1.7500e+001 98169 -3.0496e-001 -2.2119e-001 -3.0123e-001 30563 98310,97944,97918
 1.7500e+001 98146  2.3123e-001 -1.1881e-002 -4.5819e-002 30563 97892,98074,97918
 1.7500e+001 98123  1.9463e-001 -5.4058e-002  5.2821e-002 30563 97996,98048,98022
 1.7500e+001 98100 -1.8959e-001 -1.1236e-001 -2.0009e-001 30563 97944,97996,97970
 1.7500e+001 98264  1.9918e-002  2.9690e-002 -1.1667e-001 30563 98048,97996,98238
 1.7500e+001 98287  1.9492e-001  3.3754e-001  1.1371e-001 30563 98048,98238,98074
 1.7500e+001 98336  8.4961e-002 -5.8279e-002 -6.7616e-003 30563 98074,98238,98310
 1.7500e+001 98359 -4.8917e-002 -8.9026e-002 -1.0004e-001 30563 98074,98310,97918
 1.7500e+001 98607 -2.8681e-001 -2.5262e-002  1.6430e-002 30073 98630,98460,98408
 1.7500e+001 98584 -4.6210e-001 -9.6713e-002 -2.6783e-002 30073 98630,98408,98382
 1.7500e+001 98561 -1.1749e-001 -7.8903e-002 -4.5676e-002 30073 98382,98512,98486
 1.7500e+001 98538 -1.5457e-001 -6.9732e-002  1.1058e-001 30073 98408,98460,98434
 1.7500e+001 98656 -1.8834e-001 -1.3336e-001 -2.0553e-002 30073 98486,98460,98630
 1.7500e+001 98679 -3.0287e-001 -1.5815e-001 -5.3679e-002 30073 98486,98630,98382
 1.7500e+001 99157  8.7165e-001 -8.1581e-002  1.0848e-001 29669 99180,98837,98811
 1.7500e+001 99134  6.5677e-001 -6.5503e-002  3.6594e-001 29669 99324,99180,98811
 1.7500e+001 99111  3.7488e-001  6.3833e-003  3.4042e-002 29669 99252,98863,98837
 1.7500e+001 99088  6.4254e-001 -1.6124e-001  3.9416e-001 29669 99324,98811,98993
 1.7500e+001 99065  3.0193e-001  9.1380e-002  3.6511e-002 29669 98863,98941,98915
 1.7500e+001 99042 -6.0683e-001 -4.6462e-002 -2.3890e-002 29669 98863,98915,98889
 1.7500e+001 99019  3.8552e-001 -2.4057e-001  5.5624e-001 29669 98785,98993,98811
 1.7500e+001 99206  4.8384e-001 -2.4776e-001  1.1024e-001 29669 99252,98837,99180
 1.7500e+001 99229  2.0738e-001 -1.5863e-001  4.3777e-001 29669 98941,99180,98967
 1.7500e+001 99278  4.3339e-001  1.6434e-001  8.4249e-002 29669 98941,98863,99252
 1.7500e+001 99301  6.5860e-001  6.6250e-002  2.0043e-001 29669 98941,99252,99180
 1.7500e+001 99350  6.3010e-001  5.2994e-002  3.5735e-001 29669 98967,99180,99324
 1.7500e+001 99373  6.3826e-001 -2.4556e-002  3.7130e-001 29669 98967,99324,98993
 1.7500e+001 99958  4.8274e-001  1.6330e-001  8.7352e-002 29051 99981,99765,99739
 1.7500e+001 99935  2.5499e-001 -4.5407e-002 -1.7980e-002 29051 99981,99739,99661
 1.7500e+001 99912  2.6704e-001 -9.6611e-001  3.4214e-003 29051 99765,99817,99791
 1.7500e+001 99889  4.2162e-001 -2.8054e-001 -1.5346e-001 29051 99635,99817,99661
 1.7500e+001 99866  9.5718e-002 -3.2450e-002  1.0258e-001 29051 99661,99739,99687
 1.7500e+001 99843 -6.2265e-002 -5.7065e-002  8.1655e-002 29051 99687,99739,99713
 1.7500e+001 100007  6.3142e-001 -6.4472e-002  9.6143e-002 29051 99817,99765,99981
 1.7500e+001 100030  4.9550e-001 -1.4018e-001  4.0457e-002 29051 99817,99981,99661
 1.7500e+001 100278  6.0103e-001 -1.5453e-001  1.9968e-001 28525 100445,100301,100131
 1.7500e+001 100255  3.0143e-001  1.6444e-001  1.5094e-001 28525 100373,100301,100079
 1.7500e+001 100232  2.7114e-001 -9.3354e-002  1.7753e-001 28525 100373,100079,100053
 1.7500e+001 100209  4.1162e-001 -1.5344e-002  5.5595e-002 28525 100445,100131,100105
 1.7500e+001 100327  8.1495e-001 -1.3083e-001  2.8102e-001 28525 100517,100301,100157
 1.7500e+001 100350  5.8676e-001  5.4648e-001  2.7094e-001 28525 100157,100301,100183
 1.7500e+001 100399  3.0852e-001 -1.0695e-001  2.8517e-001 28525 100183,100301,100373
 1.7500e+001 100422  3.3554e-001 -2.8932e-001  3.1082e-001 28525 100183,100373,100053
 1.7500e+001 100471  3.4899e-001 -2.0323e-001 -9.8180e-002 28525 100079,100301,100445
 1.7500e+001 100494 -1.8291e-001 -3.1112e-001 -2.5590e-001 28525 100079,100445,100105
 1.7500e+001 100543  9.8801e-001  1.1112e-001  3.8426e-002 28525 100131,100301,100517
 1.7500e+001 101209 -6.4770e-001 -6.7275e-002 -5.1962e-002 28185 100938,101016,100990
 1.7500e+001 101186 -8.3220e-001 -5.6398e-003  1.2804e-002 28185 100912,101016,100938
 1.7500e+001 101163 -2.0715e-001  1.8126e-001  1.0237e-001 28185 100912,101068,101016
 1.7500e+001 101140 -8.4610e-001  1.2888e-001  1.9765e-002 28185 100886,101068,100912
 1.7500e+001 101117 -2.1403e-001  4.1286e-001  1.5725e-001 28185 101016,101068,101042
 1.7500e+001 101094 -2.0022e+000 -4.6305e-001 -7.6767e-002 28185 100938,100990,100964
 1.7500e+001 101408  1.8622e-001 -1.1562e-001 -1.0782e-001 27781 101503,101431,101310
 1.7500e+001 101385 -1.0153e-001  9.3659e-002 -3.5242e-001 27781 101431,101258,101232
 1.7500e+001 101362  2.2672e-001 -1.3887e-001 -1.3054e-001 27781 101503,101310,101284
 1.7500e+001 101457  7.4033e-001  1.3554e-001 -1.7452e-001 27781 101336,101310,101431
 1.7500e+001 101480  2.1941e-001  2.4397e-001 -3.9857e-001 27781 101575,101431,101232
 1.7500e+001 101529  3.5479e-001 -8.6966e-002 -2.9505e-001 27781 101258,101431,101503
 1.7500e+001 101552  2.4676e-001 -1.5899e-001 -1.4575e-001 27781 101705,101503,101284
 1.7500e+001 101601  3.8539e-001  5.1969e-001 -4.7058e-001 27781 101336,101431,101575
 1.7500e+001 101731 -5.3299e-002 -2.5377e-001 -3.0468e-001 27781 101258,101503,101705
 1.7500e+001 102237 -2.7424e-001 -1.4625e-001  4.6780e-002 27419 102476,102260,101992
 1.7500e+001 102214 -1.3451e-001 -2.6650e-001  5.2652e-003 27419 102260,101940,101914
 1.7500e+001 102191 -3.5718e-001 -3.3296e-001  4.4418e-002 27419 102404,102332,102096
 1.7500e+001 102168 -3.0239e-001 -3.2656e-001 -1.2188e-002 27419 102404,102096,102044
 1.7500e+001 102145 -2.4341e-001 -1.7096e-001  6.5592e-002 27419 102476,101992,101966
 1.7500e+001 102122 -2.1092e-001 -3.2729e-001 -2.4952e-002 27419 102044,102096,102070
 1.7500e+001 102286 -3.7701e-001 -2.6983e-001  9.2453e-002 27419 102018,101992,102260
 1.7500e+001 102309 -3.0076e-001 -2.2731e-001  1.5317e-002 27419 102332,102018,102260
 1.7500e+001 102358 -3.4135e-001 -5.0041e-001  1.4839e-001 27419 101914,102096,102332
 1.7500e+001 102381 -2.3757e-001 -3.6373e-001  5.2782e-002 27419 101914,102332,102260
 1.7500e+001 102430 -2.3960e-001 -3.0257e-001  1.1864e-002 27419 102018,102332,102404
 1.7500e+001 102453 -2.0419e-001 -2.9318e-001 -5.0598e-002 27419 102018,102404,102044
 1.7500e+001 102502 -1.8246e-001 -2.3445e-001  6.8395e-002 27419 101940,102260,102476
 1.7500e+001 102525  2.1921e-001 -4.0184e-002  9.5762e-003 27419 101940,102476,101966
 1.7500e+001 103031 -1.9995e-001 -2.3423e-001  3.0031e-001 26715 102708,102786,102760
 1.7500e+001 103008  2.1045e-001 -1.8877e-001  7.6054e-002 26715 102708,102890,102786
 1.7500e+001 102985  6.7260e-001 -5.2970e-001  1.3731e-001 26715 102838,102890,102864
 1.7500e+001 102962  3.0867e-001 -1.8459e-001  2.0143e-001 26715 102786,102890,102838
 1.7500e+001 102939  1.1534e+000  2.2725e-001  6.0994e-001 26715 102786,102838,102812
 1.7500e+001 102916 -2.4189e-001 -8.1889e-003  4.2794e-002 26715 102708,102760,102734
 1.7500e+001 103279  1.3050e-003 -2.0124e-002  2.3427e-002 26303 103302,103158,103080
 1.7500e+001 103256 -1.5042e-002 -9.4310e-003  2.3348e-002 26303 103302,103080,103054
 1.7500e+001 103233 -5.3326e-002 -4.8920e-002  7.7874e-003 26303 103080,103158,103106
 1.7500e+001 103210  6.9839e-002 -1.3140e-002  1.1883e-002 26303 103106,103158,103132
 1.7500e+001 103328  2.8782e-002 -6.9795e-003  1.7550e-002 26303 103184,103158,103302
 1.7500e+001 103351 -1.6075e-003 -6.6048e-003  2.0018e-002 26303 103184,103302,103054
 1.7500e+001 103501 -2.3562e-001 -3.5174e-001  1.2296e-002 25849 103374,103426,103400
 1.7500e+001 103478 -2.5417e-001 -2.5301e-001  2.2217e-002 25849 103374,103452,103426
 1.7500e+001 104090  1.0288e-001  1.9444e-004  1.2998e-001 25445 103793,103871,103819
 1.7500e+001 104067  2.8755e-001  7.6502e-002  5.0772e-002 25445 103793,103949,103871
 1.7500e+001 104044  3.3919e-001  5.0916e-002  1.4930e-001 25445 103871,103949,103923
 1.7500e+001 104021 -1.2236e-002  4.4565e-002 -3.2377e-002 25445 103819,103871,103845
 1.7500e+001 103998  3.9673e-001  1.8127e-001  1.6610e-001 25445 103767,103949,103793
 1.7500e+001 103975  3.9243e-001  7.0054e-002  1.6080e-001 25445 103871,103923,103897
 1.7500e+001 104419 -1.0026e-001 -7.0742e-002 -7.0135e-002 25083 104220,104298,104272
 1.7500e+001 104396 -2.4517e-001 -2.5575e-001 -3.6756e-003 25083 104220,104324,104298
 1.7500e+001 104373 -5.8785e-002 -5.9170e-002 -3.7546e-002 25083 104220,104272,104246
 1.7500e+001 104350 -2.3662e-001 -2.7202e-001 -7.6547e-003 25083 104194,104324,104220
 1.7500e+001 105102  9.5859e-002 -1.6028e-001  4.8567e-002 24793 104785,104863,104837
 1.7500e+001 105079  1.2094e-001 -2.2729e-001 -1.0662e-001 24793 104759,104863,104785
 1.7500e+001 105056  8.3465e-002 -1.3688e-002 -1.1252e-001 24793 104759,104915,104863
 1.7500e+001 105033  1.0067e-001 -1.1595e-001 -1.4860e-001 24793 104733,104915,104759
 1.7500e+001 105010  3.7297e-001  1.1567e-001 -1.4419e-001 24793 104863,104915,104889
 1.7500e+001 104987 -6.7031e-002  2.4826e-002 -2.7371e-001 24793 104681,104915,104733
 1.7500e+001 104964  1.8894e-002 -2.3976e-001  9.7961e-003 24793 104785,104837,104811
 1.7500e+001 104941 -2.4134e-002  2.5933e-001 -2.5007e-001 24793 104681,104733,104707
 1.7500e+001 105252  1.0137e+000  3.5865e-001 -3.6258e-002 24389 105477,105275,105177
 1.7500e+001 105229  3.5371e-001  5.4191e-002  2.3631e-001 24389 105347,105275,105151
 1.7500e+001 105301  9.5460e-001  1.9905e-001 -1.3062e-002 24389 105203,105177,105275
 1.7500e+001 105324  1.3341e+000  9.1043e-001  3.3196e-001 24389 105203,105275,105125
 1.7500e+001 105373  1.0344e+000  4.6829e-001  1.6216e-002 24389 105125,105275,105347
 1.7500e+001 105503  7.3387e-001 -2.0240e-001 -1.2997e-001 24389 105151,105275,105477
 1.7500e+001 106088 -2.5868e-001  3.1831e-001  3.5040e-001 23735 105791,105921,105895
 1.7500e+001 106065 -8.7760e-001  1.4206e-001  4.7098e-001 23735 105765,105921,105791
 1.7500e+001 106042 -2.6432e-002  5.3893e-001  2.8888e-001 23735 105765,105947,105921
 1.7500e+001 106019 -1.0915e+000 -2.1254e-003  4.3140e-001 23735 105817,105895,105869
 1.7500e+001 105996 -6.8675e-001  1.4883e-001  4.3630e-001 23735 105791,105895,105817
 1.7500e+001 105973 -6.4263e-001 -2.1593e-001  4.5107e-001 23735 105817,105869,105843
 1.7500e+001 106417  4.5054e-001  9.0487e-001 -1.3454e-001 23295 106218,106296,106270
 1.7500e+001 106394  3.7647e-001  4.1462e-001 -1.4262e-001 23295 106218,106322,106296
 1.7500e+001 106371  1.6999e-001  2.8866e-001 -2.2616e-001 23295 106218,106270,106244
 1.7500e+001 106348  5.4979e-001  4.8871e-001 -5.6296e-002 23295 106192,106322,106218
 1.7500e+001 106746  5.0217e-002  3.3538e-001  1.8231e-001 23005 106521,106599,106547
 1.7500e+001 106723  4.4099e-001  7.0947e-001  2.9111e-002 23005 106521,106651,106599
 1.7500e+001 106700  5.4508e-001  1.7456e-001 -1.9355e-001 23005 106547,106599,106573
 1.7500e+001 106677  5.5879e-001  6.6382e-001  3.3926e-001 23005 106599,106651,106625
 1.7500e+001 107331 -4.7334e-002  1.0766e-001 -1.2444e-001 22601 107060,107190,107138
 1.7500e+001 107308 -3.7425e-001  3.4398e-001 -2.4036e-001 22601 107034,107190,107060
 1.7500e+001 107285 -8.3651e-001 -2.3010e-001 -1.4174e-001 22601 107060,107138,107112
 1.7500e+001 107262 -5.4468e-001  6.0059e-001  3.2248e-001 22601 107008,107190,107034
 1.7500e+001 107239  5.8149e-002 -1.1993e+000  1.0147e-001 22601 107060,107112,107086
 1.7500e+001 107216 -4.6150e-001  9.9811e-001  2.0496e-001 22601 107138,107190,107164
 1.7500e+001 107807 -1.5802e-001  1.2213e-001 -3.1320e-002 22031 107974,107902,107617
 1.7500e+001 107784 -1.8276e-001  2.6163e-001 -1.0416e-001 22031 107830,107565,107513
 1.7500e+001 107761 -4.1227e-002  8.0766e-002 -1.2211e-001 22031 108046,107830,107513
 1.7500e+001 107738 -9.6849e-002  2.3608e-001  1.4933e-002 22031 107974,107617,107591
 1.7500e+001 107715 -6.2000e-002  3.2990e-002 -1.2482e-001 22031 108046,107513,107461
 1.7500e+001 107692 -5.3648e-001  3.5089e-001 -1.8409e-001 22031 107513,107565,107539
 1.7500e+001 107669  7.6511e-002  2.0512e-001 -2.0418e-001 22031 107461,107513,107487
 1.7500e+001 107856 -2.4952e-001  1.8785e-001 -6.0486e-002 22031 107902,107565,107830
 1.7500e+001 107879 -1.0264e-001 -4.0902e-002  3.2608e-003 22031 107643,107830,107435
 1.7500e+001 107928 -4.3549e-001  2.2266e-001 -2.1639e-001 22031 107643,107617,107902
 1.7500e+001 107951 -2.5055e-001  1.7084e-001  3.1896e-002 22031 107643,107902,107830
 1.7500e+001 108000 -2.0589e-001  2.8463e-001 -5.1413e-002 22031 107565,107902,107974
 1.7500e+001 108023 -2.0134e-001  2.5485e-001 -4.3084e-002 22031 107565,107974,107591
 1.7500e+001 108072  1.7980e-004  2.3040e-002 -5.1100e-002 22031 107435,107830,108046
 1.7500e+001 108095 -3.2855e-002 -5.3058e-002 -5.5118e-002 22031 107435,108046,107461
 1.7500e+001 108196  2.7215e-002 -4.6791e-002  8.7579e-003 21783 108118,108170,108144
 1.7500e+001 108655  1.2615e-001  7.2175e-001  4.2550e-001 21379 108407,108485,108459
 1.7500e+001 108632  1.4704e+000  9.0085e-002  5.5315e-001 21379 108407,108511,108485
 1.7500e+001 108609  1.5086e+000  1.8261e-001  6.4463e-001 21379 108381,108511,108407
 1.7500e+001 108586  5.9338e-001  7.8611e-001 -2.3392e-001 21379 108381,108537,108511
 1.7500e+001 108563  3.8280e-001  9.7256e-002  1.9386e-001 21379 108407,108459,108433
 1.7500e+001 109082  7.0467e-002 -2.5027e-001 -2.1559e-002 20974 109105,108863,108811
 1.7500e+001 109059 -6.7863e-002 -3.1185e-001 -5.1201e-003 20974 109105,108811,108759
 1.7500e+001 109036  1.1426e-002 -6.8123e-001  8.2555e-002 20974 109177,108889,108863
 1.7500e+001 109013 -4.8334e-002 -2.5300e-001  1.4871e-002 20974 108811,108863,108837
 1.7500e+001 108990  6.8880e-002 -3.0022e-002 -5.3659e-003 20974 108759,108941,108915
 1.7500e+001 108967  2.5698e-002 -2.5919e-002 -5.3063e-003 20974 108759,108811,108785
 1.7500e+001 109131 -5.9188e-002 -5.3215e-001  1.9702e-002 20974 109177,108863,109105
 1.7500e+001 109154  8.2234e-003 -1.9487e-002 -1.8081e-002 20974 108915,109105,108759
 1.7500e+001 109203 -3.7913e-002 -5.6558e-001 -1.0703e-001 20974 108915,108889,109177
 1.7500e+001 109226  1.8718e-002 -1.8954e-001 -1.4374e-001 20974 108915,109177,109105
 1.7500e+001 109496 -3.3078e-001  9.4230e-002 -4.1181e-002 20470 109271,109375,109297
 1.7500e+001 109473 -2.9537e-001  1.3930e-001 -6.2826e-002 20470 109271,109401,109375
 1.7500e+001 109450 -4.0689e-001  1.1677e-002 -7.3134e-002 20470 109297,109375,109349
 1.7500e+001 109427 -5.9928e-001 -3.6205e-001  1.3087e-001 20470 109297,109349,109323
 1.7500e+001 109955  1.1677e-001  5.6461e-001  3.6019e-001 20123 110050,109733,109707
 1.7500e+001 109932 -1.9953e-001  3.8374e-001  2.8671e-001 20123 110050,109707,109681
 1.7500e+001 109909  1.8892e-001  2.5230e-001  2.9635e-001 20123 109978,109759,109733
 1.7500e+001 109886  5.3566e-002  1.8729e-001  2.6904e-001 20123 110122,109978,109733
 1.7500e+001 109863  2.0370e-001  9.9543e-002  2.0973e-001 20123 109785,109837,109811
 1.7500e+001 110004  1.7044e-001  2.3466e-001  2.3633e-001 20123 109785,109759,109978
 1.7500e+001 110027  1.4341e-001  2.0105e-001  1.9252e-001 20123 109785,109978,109837
 1.7500e+001 110076 -2.4371e-002  2.9017e-001  2.2114e-001 20123 110122,109733,110050
 1.7500e+001 110099 -2.5551e-002  4.0131e-001  1.4223e-001 20123 109837,110050,109681
 1.7500e+001 110148  2.0272e-001  3.3220e-001  2.0895e-001 20123 109837,109978,110122
 1.7500e+001 110171  1.3355e-001  4.2346e-001  1.6044e-001 20123 109837,110122,110050
 1.7500e+001 110500  4.8589e-001  3.8551e-002 -6.9322e-003 19511 110301,110379,110353
 1.7500e+001 110477  1.0257e+000  5.0221e-001 -2.3291e-001 19511 110301,110405,110379
 1.7500e+001 110454  4.3231e-001  1.6211e-001 -1.0651e-002 19511 110275,110405,110301
 1.7500e+001 110431  4.4057e-001 -3.7865e-003  8.8333e-002 19511 110301,110353,110327
 1.7500e+001 110957  2.2947e-001  1.0514e+000 -1.0478e-001 19107 110683,110735,110709
 1.7500e+001 110934  4.0356e-001  3.5966e-001 -4.5822e-001 19107 110683,110813,110735
 1.7500e+001 110911  8.0261e-001  9.9275e-001 -2.8712e-001 19107 110735,110813,110761
 1.7500e+001 110888  8.3726e-001  1.0323e-001  2.7163e-001 19107 110683,110839,110813
 1.7500e+001 110865  7.2585e-001  7.4165e-001 -3.9521e-001 19107 110761,110813,110787
 1.7500e+001 111335  4.3679e-001 -6.0433e-001  1.9350e-001 18653 111087,111165,111139
 1.7500e+001 111312  6.0229e-001  1.2316e-002 -9.2594e-004 18653 111087,111217,111165
 1.7500e+001 111289  1.9236e-001 -2.3919e-001  5.1867e-001 18653 111061,111217,111087
 1.7500e+001 111266  6.0613e-001 -8.2791e-001  5.8288e-001 18653 111087,111139,111113
 1.7500e+001 111243  5.0015e-001 -1.0995e-001 -1.6881e-001 18653 111165,111217,111191
 1.7500e+001 111735 -4.5159e-001 -2.6623e-001  9.9259e-002 18213 111461,111513,111487
 1.7500e+001 111712 -3.1306e-001 -2.9714e-001  4.4623e-002 18213 111461,111617,111513
 1.7500e+001 111689 -2.3632e-001 -1.1519e-001  5.5033e-002 18213 111513,111617,111591
 1.7500e+001 111666 -1.0008e-001 -1.5432e-001  9.0895e-002 18213 111513,111591,111539
 1.7500e+001 111643  3.2033e-002 -5.8603e-002  4.1006e-002 18213 111539,111591,111565
 1.7500e+001 111885  1.9874e-001 -1.6418e+000  7.8908e-002 17659 111784,111836,111810
 1.7500e+001 111862  3.1504e-001 -1.0431e+000  3.2616e-001 17659 111758,111836,111784
 1.7500e+001 112287 -1.5886e-001 -1.0866e+000 -4.2153e-001 17411 112065,112169,112143
 1.7500e+001 112264 -6.3728e-001 -4.0481e-001 -3.7780e-001 17411 112039,112169,112065
 1.7500e+001 112241 -3.9401e-001 -1.2961e-001 -6.8928e-002 17411 112013,112169,112039
 1.7500e+001 112218  2.7222e+000 -6.7751e-001 -7.2545e-001 17411 112091,112143,112117
 1.7500e+001 112195  2.0036e-002 -9.7738e-001 -1.0782e-001 17411 112065,112143,112091
 1.7500e+001 112508 -3.1044e-001  3.2630e-001  4.9076e-002 17007 112384,112436,112410
 1.7500e+001 112485 -1.9729e-001  4.3794e-001  9.7180e-002 17007 112332,112436,112384
 1.7500e+001 112462 -3.0145e-001  2.3449e-001  6.0390e-002 17007 112332,112384,112358
 1.7500e+001 112658 -7.9663e-001 -4.1506e-001  3.0514e-001 16553 112557,112609,112583
 1.7500e+001 112635 -1.3147e+000 -7.3472e-002  4.0086e-001 16553 112531,112609,112557
 1.7500e+001 112761  7.1400e-002 -4.1339e-001  1.9453e-002 16355 112683,112735,112709
 1.7500e+001 112913 -5.5399e-001  4.0915e-001  4.0360e-002 15949 112786,112838,112812
 1.7500e+001 112890 -2.1290e-001  1.0034e+000 -1.1749e-001 15949 112786,112864,112838
 1.7500e+001 113065  3.8304e-002 -2.0257e-001 -3.2991e-003 15609 112938,112990,112964
 1.7500e+001 113042 -5.2804e-002 -4.5225e-001 -1.2376e-001 15609 112938,113016,112990
 1.7500e+001 113420  5.0601e-001  3.9369e-001  1.2437e-001 15284 113247,113325,113299
 1.7500e+001 113397  4.8835e-001  3.4882e-001  5.3991e-002 15284 113195,113325,113247
 1.7500e+001 113374  3.7682e-001  3.0322e-001  5.5680e-002 15284 113195,113247,113221
 1.7500e+001 113351  4.3746e-001  5.8726e-001  1.2388e-001 15284 113247,113299,113273
 1.7500e+001 113521  2.6126e-002 -5.6994e-002  3.1976e-002 202 113443,113495,113469
 1.8000e+001 65564  1.1111e-001 -8.1645e-002  1.6136e-002 65155 65414,65466,65440
 1.8000e+001 65541  1.0086e-001 -1.2987e-001  1.3148e-002 65155 65414,65492,65466
 1.8000e+001 65518  3.8942e-002 -1.8852e-001  8.9709e-002 65155 65388,65492,65414
 1.8000e+001 65883  1.6496e-001 -7.8949e-001 -2.6118e-002 64957 65635,65739,65713
 1.8000e+001 65860  1.3213e-001 -1.1990e+000 -6.7702e-002 64957 65635,65765,65739
 1.8000e+001 65837 -9.7184e-002 -1.3271e+000  2.4085e-004 64957 65609,65765,65635
 1.8000e+001 65814  1.3918e-001 -9.8310e-001  2.7055e-001 64957 65635,65713,65687
 1.8000e+001 65791  2.1603e-002 -1.1845e+000  1.6317e-001 64957 65635,65687,65661
 1.8000e+001 65984 -8.5715e-002 -7.1460e-002  9.4774e-002 64781 65906,65958,65932
 1.8000e+001 66232 -3.7827e-001 -4.6937e-001  4.1884e-001 64469 66007,66059,66033
 1.8000e+001 66209  2.8392e-002 -4.8492e-001  4.7443e-001 64469 66007,66085,66059
 1.8000e+001 66186 -3.4554e-001 -1.3102e+000  6.8876e-001 64469 66007,66137,66085
 1.8000e+001 66163 -2.4321e-001 -1.6660e+000  1.3133e+000 64469 66085,66137,66111
 1.8000e+001 66504  7.6224e-003 -1.1356e+000  2.7764e-002 64271 66279,66383,66305
 1.8000e+001 66481  1.2689e-001 -1.1354e+000 -4.3133e-002 64271 66279,66409,66383
 1.8000e+001 66458  2.1025e-001 -1.4233e+000  2.7861e-002 64271 66305,66357,66331
 1.8000e+001 66435 -7.7847e-002 -1.2876e+000  6.4985e-002 64271 66305,66383,66357
 1.8000e+001 66705  4.5907e-001 -3.1655e+000  2.6744e-001 64073 66728,66581,66555
 1.8000e+001 66682  4.7772e-001 -2.2467e+000  5.0144e-001 64073 66728,66555,66529
 1.8000e+001 66659  2.1168e-001 -2.0174e+000 -3.5181e-001 64073 66581,66633,66607
 1.8000e+001 66754 -1.3302e-001 -2.2972e+000 -6.8525e-002 64073 66633,66581,66728
 1.8000e+001 66777  1.1089e-001 -1.0955e+000  3.2532e-002 64073 66633,66728,66529
 1.8000e+001 66951 -1.5483e-001 -5.1163e-001 -6.7450e-002 63783 66824,66876,66850
 1.8000e+001 66928  5.6591e-001 -4.1367e-001  2.2223e-001 63783 66824,66902,66876
 1.8000e+001 67201 -6.4462e-001 -1.5367e+000 -1.4971e-001 63585 66976,67080,67054
 1.8000e+001 67178 -1.2648e-001 -1.3397e+000  8.2949e-002 63585 66976,67106,67080
 1.8000e+001 67155  2.3993e-001 -1.8039e+000 -6.3000e-001 63585 66976,67054,67028
 1.8000e+001 67132  6.7189e-003 -2.3752e+000 -5.6218e-001 63585 66976,67028,67002
 1.8000e+001 67654  8.7988e-002 -8.5705e-001 -2.2591e-002 63295 67357,67487,67383
 1.8000e+001 67631  9.0805e-002 -1.0764e+000  1.2523e-001 63295 67331,67487,67357
 1.8000e+001 67608 -6.5054e-002 -1.2662e+000 -2.2518e-002 63295 67331,67513,67487
 1.8000e+001 67585  1.5082e-003 -1.2845e+000  5.3016e-003 63295 67435,67487,67461
 1.8000e+001 67562 -6.5097e-002 -1.3045e+000  1.4972e-003 63295 67383,67487,67435
 1.8000e+001 67539  2.7734e-002 -1.1947e+000  4.2717e-002 63295 67383,67435,67409
 1.8000e+001 67853 -7.2842e-002 -1.1770e+000  1.7753e-003 62891 67876,67703,67677
 1.8000e+001 67830 -5.2357e-002 -1.2247e+000 -2.5849e-002 62891 67876,67677,67781
 1.8000e+001 67807  2.0387e-002 -1.0231e+000 -7.8795e-002 62891 67948,67729,67703
 1.8000e+001 67902 -3.1433e-002 -1.1559e+000  1.1230e-002 62891 67948,67703,67876
 1.8000e+001 67925 -1.8757e-001 -1.1403e+000  4.4839e-002 62891 67755,67876,67781
 1.8000e+001 67974 -8.8085e-002 -8.4602e-001 -8.2774e-002 62891 67755,67729,67948
 1.8000e+001 67997 -6.5772e-002 -9.1399e-001 -1.2258e-002 62891 67755,67948,67876
 1.8000e+001 68218  8.4304e-002 -3.8778e-002 -1.1267e-001 62693 68042,68120,68068
 1.8000e+001 68195  6.9265e-003 -2.0462e-002  1.8455e-003 62693 68042,68146,68120
 1.8000e+001 68172 -3.1564e-001  2.7490e-001 -6.0783e-002 62693 68068,68120,68094
 1.8000e+001 68468  3.8612e-001 -4.9972e-002  1.9885e-002 62289 68491,68295,68269
 1.8000e+001 68445  8.6209e-002 -9.2753e-002 -1.6860e-001 62289 68563,68491,68269
 1.8000e+001 68422  9.7277e-002  4.3139e-002 -6.9023e-002 62289 68563,68269,68243
 1.8000e+001 68399 -2.7733e-001 -2.5147e-001  2.7142e-002 62289 68295,68347,68321
 1.8000e+001 68517  1.8439e-001 -2.7707e-001 -8.5031e-002 62289 68347,68295,68491
 1.8000e+001 68540 -2.0298e-001 -9.5479e-002 -2.6983e-001 62289 68347,68491,68373
 1.8000e+001 68589  1.3938e-001  1.7265e-001 -1.4981e-001 62289 68373,68491,68563
 1.8000e+001 68612  8.6587e-002  2.1943e-001 -5.0270e-002 62289 68373,68563,68243
 1.8000e+001 68911 -8.1333e-002 -1.1376e+000 -6.8687e-003 62091 69222,68934,68741
 1.8000e+001 68888  1.1162e-001 -1.1122e+000 -4.8063e-002 62091 69006,68934,68689
 1.8000e+001 68865  1.4643e-001 -1.0911e+000  2.5957e-003 62091 69006,68689,68663
 1.8000e+001 68842 -1.3144e-001 -1.1616e+000 -1.3979e-001 62091 69078,68793,68767
 1.8000e+001 68819 -2.0397e-001 -1.2077e+000  1.4229e-001 62091 69222,68741,68715
 1.8000e+001 68960 -1.9265e-001 -1.1545e+000  8.4949e-003 62091 68767,68741,68934
 1.8000e+001 68983 -6.4488e-002 -1.2073e+000 -4.3629e-002 62091 69078,68767,68934
 1.8000e+001 69032  9.8119e-002 -1.1255e+000 -3.0686e-002 62091 69150,69006,68637
 1.8000e+001 69055  8.9626e-002 -1.1364e+000 -1.9455e-002 62091 68637,69006,68663
 1.8000e+001 69104 -3.7250e-002 -9.4172e-001 -7.1275e-002 62091 68637,68793,69078
 1.8000e+001 69127  6.8442e-002 -1.0862e+000 -1.3785e-002 62091 69150,68637,69078
 1.8000e+001 69176  3.2838e-002 -1.1366e+000 -5.2403e-002 62091 68934,69006,69150
 1.8000e+001 69199 -2.8937e-002 -1.1190e+000 -2.6013e-002 62091 68934,69150,69078
 1.8000e+001 69248 -9.3461e-003 -9.9063e-001 -3.7815e-002 62091 68689,68934,69222
 1.8000e+001 69271 -3.3693e-002 -9.4339e-001  6.7896e-002 62091 68689,69222,68715
 1.8000e+001 69521 -3.9707e-001  1.7130e-001  9.4316e-003 61893 69544,69348,69296
 1.8000e+001 69498 -1.0455e-001  2.2964e-001  5.6695e-002 61893 69544,69296,69400
 1.8000e+001 69475  8.2837e-002  2.4680e-001  3.0929e-002 61893 69296,69426,69400
 1.8000e+001 69452 -3.2012e-001 -5.5674e-001 -1.4336e-001 61893 69296,69348,69322
 1.8000e+001 69570 -2.4322e-001  3.4326e-002  2.3893e-001 61893 69374,69348,69544
 1.8000e+001 69593  2.7432e-001  2.1775e-001  2.7073e-001 61893 69374,69544,69400
 1.8000e+001 70046  6.3082e-002 -9.2230e-001 -9.8051e-003 61467 69749,69905,69879
 1.8000e+001 70023  1.3720e-001 -7.2538e-001  2.0642e-001 61467 69723,69905,69749
 1.8000e+001 70000  4.5283e-002 -9.7652e-001 -3.4775e-002 61467 70069,69827,69775
 1.8000e+001 69977 -1.1770e-001 -1.4070e+000  1.1113e-001 61467 70069,69775,69749
 1.8000e+001 69954 -5.0340e-002 -6.9925e-001 -3.3107e-002 61467 70141,69853,69827
 1.8000e+001 69931  8.7262e-002 -1.2547e+000 -3.7914e-001 61467 69775,69827,69801
 1.8000e+001 70095  3.9094e-003 -7.7382e-001 -8.1596e-002 61467 70141,69827,70069
 1.8000e+001 70118  5.4193e-002 -9.6235e-001 -1.2534e-003 61467 69879,70069,69749
 1.8000e+001 70167  9.4861e-004 -8.1253e-001 -2.8331e-002 61467 69879,69853,70141
 1.8000e+001 70190 -2.3252e-002 -9.8910e-001 -7.7515e-002 61467 69879,70141,70069
 1.8000e+001 70291 -1.0685e-001 -1.6281e+000 -1.8722e-001 61013 70213,70265,70239
 1.8000e+001 70441  1.2931e-001 -1.2369e-001 -6.2578e-002 60651 70340,70392,70366
 1.8000e+001 70418  2.1519e-001 -1.2353e-001  1.2036e-002 60651 70314,70392,70340
 1.8000e+001 70642  9.0579e-002 -7.3846e-001 -2.2983e-001 60311 70665,70492,70466
 1.8000e+001 70619 -1.5253e-001 -1.3613e+000 -3.2323e-001 60311 70665,70466,70570
 1.8000e+001 70596 -3.5373e+000 -1.5789e-001  3.2382e-001 60311 70492,70544,70518
 1.8000e+001 70691  6.4335e-002 -1.0867e-001  4.1246e-001 60311 70544,70492,70665
 1.8000e+001 70714 -3.2813e-001 -1.0582e+000  3.3325e-001 60311 70544,70665,70570
 1.8000e+001 70964  3.1758e-001 -1.3291e+000  1.4185e-001 59907 70987,70765,70739
 1.8000e+001 70941  3.0245e-001 -1.3880e+000 -5.4868e-002 59907 71059,70987,70739
 1.8000e+001 70918  1.6231e-001 -1.6101e+000  7.4876e-003 59907 71059,70739,70869
 1.8000e+001 70895  1.6448e-001 -1.1720e+000  4.3189e-003 59907 70817,70869,70843
 1.8000e+001 71013  1.3060e+000 -8.4432e-001  6.0550e-001 59907 70791,70765,70987
 1.8000e+001 71036  4.1865e-001 -1.5277e+000  1.9816e-001 59907 70791,70987,70817
 1.8000e+001 71085  1.3270e-001 -1.2543e+000 -3.8913e-002 59907 70817,70987,71059
 1.8000e+001 71108  1.3516e-001 -1.3092e+000 -3.8148e-002 59907 70817,71059,70869
 1.8000e+001 71441 -5.9058e-001 -8.8634e-001  6.0944e-001 59417 71464,71242,71216
 1.8000e+001 71418 -3.7001e-001 -5.3453e-001  9.6804e-001 59417 71464,71216,71320
 1.8000e+001 71395 -6.3338e-001 -4.0671e-001  1.0664e+000 59417 71216,71346,71320
 1.8000e+001 71372 -5.6855e-001 -1.1353e+000  4.9855e-001 59417 71268,71320,71294
 1.8000e+001 71490 -8.8493e-001 -9.6665e-001  2.5094e-001 59417 71268,71242,71464
 1.8000e+001 71513 -8.5704e-001 -5.1914e-001  6.1106e-001 59417 71268,71464,71320
 1.8000e+001 71712  1.6458e+000  1.4749e+000  5.0780e-001 58913 71562,71614,71588
 1.8000e+001 71689  9.7121e-001  1.0958e+000  3.5630e-001 58913 71536,71614,71562
 1.8000e+001 71666  5.6885e-001  2.1631e+000 -1.5942e-001 58913 71536,71640,71614
 1.8000e+001 72171 -1.2319e+000 -2.3558e+000  3.4759e-001 58409 72194,72027,72001
 1.8000e+001 72148 -1.0491e+000 -2.8222e+000  5.2547e-003 58409 72194,72001,71949
 1.8000e+001 72125 -7.0155e-001 -1.4413e+000  6.8182e-003 58409 71923,72053,71949
 1.8000e+001 72102 -1.5885e+000 -2.9941e+000 -4.3614e-002 58409 71949,72001,71975
 1.8000e+001 72079 -2.6292e-001 -9.6653e-001  3.4635e-001 58409 71897,72053,71923
 1.8000e+001 72220 -8.9047e-001 -2.1349e+000  5.3444e-001 58409 72053,72027,72194
 1.8000e+001 72243 -7.4829e-001 -2.4807e+000  1.8032e-001 58409 72053,72194,71949
 1.8000e+001 72491  9.1578e-001  1.4524e+000  3.2519e-001 57855 72514,72318,72292
 1.8000e+001 72468  1.3760e+000  1.4550e+000  5.7495e-001 57855 72514,72292,72266
 1.8000e+001 72445  7.9390e-001  1.4186e+000  4.3127e-001 57855 72318,72396,72370
 1.8000e+001 72422  5.9941e-001  1.4262e+000  3.3348e-001 57855 72318,72370,72344
 1.8000e+001 72540  8.6625e-001  1.6309e+000  4.3765e-001 57855 72396,72318,72514
 1.8000e+001 72563  9.1072e-001  1.7718e+000  5.2266e-001 57855 72396,72514,72266
 1.8000e+001 72811 -2.5268e-001 -2.3088e+000  1.2356e+000 57401 72612,72690,72638
 1.8000e+001 72788 -2.3112e+000 -3.1793e+000  1.6475e+000 57401 72586,72690,72612
 1.8000e+001 72765  3.9178e+000 -3.9764e+000  1.5976e-001 57401 72638,72690,72664
 1.8000e+001 72742  3.1326e-001 -1.2723e+000  7.6881e-001 57401 72586,72716,72690
 1.8000e+001 73144 -7.2721e-002 -1.0895e+000 -3.3284e-002 57004 72919,72997,72945
 1.8000e+001 73121 -1.6321e-001 -1.3505e+000  4.6523e-002 57004 72919,73049,72997
 1.8000e+001 73098 -2.0478e-001 -9.7055e-001 -1.3684e-001 57004 72945,72997,72971
 1.8000e+001 73075 -1.3811e-001 -1.3246e+000  7.4454e-002 57004 72997,73049,73023
 1.8000e+001 73650 -2.3937e-001 -3.4393e+000  3.4883e-001 56592 73673,73379,73353
 1.8000e+001 73627 -5.7269e-001 -2.7631e+000  1.3602e+000 56592 73673,73353,73327
 1.8000e+001 73604  5.6048e-001 -1.9140e+000  1.0292e+000 56592 73745,73509,73483
 1.8000e+001 73581  5.1738e-001 -2.7233e+000  4.6626e-001 56592 73379,73457,73405
 1.8000e+001 73558  1.5498e+000 -2.5999e+000  1.0832e+000 56592 73379,73483,73457
 1.8000e+001 73535  2.3328e+000 -1.4366e+000  1.0325e+000 56592 73405,73457,73431
 1.8000e+001 73699  1.8698e-001 -2.8484e+000  8.8579e-001 56592 73483,73379,73673
 1.8000e+001 73722  5.8819e-001 -2.8012e+000  1.3405e+000 56592 73745,73483,73673
 1.8000e+001 73771  3.8171e-001 -3.1291e-001  6.0302e-001 56592 73327,73509,73745
 1.8000e+001 73794  1.1541e-001 -1.2991e+000  1.1144e+000 56592 73327,73745,73673
 1.8000e+001 74123  3.9242e-001  2.5538e-001 -5.9907e-001 56152 74146,74002,73924
 1.8000e+001 74100  6.0822e-001  2.2062e-001 -4.6364e-001 56152 74146,73924,73898
 1.8000e+001 74077  1.3101e+000  7.3509e-001 -8.3838e-001 56152 73924,74002,73976
 1.8000e+001 74054  6.5629e-001 -7.4906e-001  3.4242e-001 56152 73924,73976,73950
 1.8000e+001 74172  2.0347e-001  5.2147e-001 -4.7071e-001 56152 74028,74002,74146
 1.8000e+001 74195  5.1424e-001  3.9337e-001 -3.3367e-001 56152 74028,74146,73898
 1.8000e+001 74345  1.7301e+000 -6.0489e-001 -9.7613e-001 55634 74218,74270,74244
 1.8000e+001 74322 -4.7392e-001 -4.1443e-001 -4.3406e-001 55634 74218,74296,74270
 1.8000e+001 74823 -1.6484e-001 -2.8949e+000  3.8025e-001 55016 74918,74846,74581
 1.8000e+001 74800 -4.2495e-001 -2.9472e+000  1.1963e-001 55016 74846,74477,74633
 1.8000e+001 74777 -8.0956e-001 -3.2895e+000  5.7368e-001 55016 74918,74581,74555
 1.8000e+001 74754 -7.9717e-001 -2.5780e+000  3.1753e-002 55016 74990,74503,74477
 1.8000e+001 74731 -3.2702e-001 -3.3768e+000 -5.9881e-001 55016 74451,74633,74477
 1.8000e+001 74708 -1.3409e+000 -2.2575e+000 -9.6558e-001 55016 74451,74659,74633
 1.8000e+001 74685 -1.8861e+000 -1.2718e+000  1.1038e+000 55016 74503,74555,74529
 1.8000e+001 74872 -5.2467e-001 -3.7096e+000  4.4119e-001 55016 74607,74581,74846
 1.8000e+001 74895 -1.6631e-001 -3.1925e+000  2.3547e-001 55016 74607,74846,74633
 1.8000e+001 74944 -8.9741e-001 -3.2439e+000  2.5790e-001 55016 74477,74846,74918
 1.8000e+001 74967 -6.8917e-001 -2.7026e+000  2.5256e-001 55016 74990,74477,74918
 1.8000e+001 75016 -1.1741e+000 -2.7232e+000  2.7254e-001 55016 74555,74503,74990
 1.8000e+001 75039 -1.1476e+000 -3.0129e+000  5.0791e-001 55016 74555,74990,74918
 1.8000e+001 75287 -8.9097e-001 -6.6736e+000  1.0588e+000 54726 75310,75140,75114
 1.8000e+001 75264 -1.4275e+000 -5.6472e+000  7.4360e-001 54726 75310,75114,75088
 1.8000e+001 75241  1.7404e-001 -4.5864e+000  1.7236e-001 54726 75088,75192,75166
 1.8000e+001 75218 -8.3426e-001 -1.0351e+000  9.2969e-001 54726 75062,75192,75088
 1.8000e+001 75336 -1.3694e-001 -6.0417e+000  5.1241e-001 54726 75166,75140,75310
 1.8000e+001 75359 -1.2139e+000 -5.1272e+000  4.3334e-001 54726 75166,75310,75088
 1.8000e+001 75946 -1.3287e-001 -5.0317e-001 -2.0135e-001 54322 75969,75701,75649
 1.8000e+001 75923  1.5236e-001 -3.6171e-001 -2.5415e-001 54322 75969,75649,75623
 1.8000e+001 75900 -2.6862e-002 -3.6103e-001 -4.5198e-002 54322 76041,75753,75701
 1.8000e+001 75877 -6.2738e-002 -8.1504e-001 -5.6132e-002 54322 75623,75805,75779
 1.8000e+001 75854 -6.5209e-002 -4.5386e-001  1.4990e-001 54322 75701,75753,75727
 1.8000e+001 75831 -1.4448e-003 -1.2600e-001 -8.5529e-002 54322 75649,75701,75675
 1.8000e+001 75995  7.6341e-002 -4.1390e-001 -1.2743e-001 54322 76041,75701,75969
 1.8000e+001 76018  9.2284e-002 -5.3714e-001 -1.3642e-001 54322 75779,75969,75623
 1.8000e+001 76067 -1.0062e-001 -5.0103e-001 -6.1467e-003 54322 75779,75753,76041
 1.8000e+001 76090 -2.1273e-002 -6.0088e-001 -8.6482e-002 54322 75779,76041,75969
 1.8000e+001 76468 -3.8077e-002 -5.3076e-001 -8.3647e-002 53868 76491,76272,76220
 1.8000e+001 76445  4.9999e-002 -5.5144e-001 -3.3267e-002 53868 76491,76220,76324
 1.8000e+001 76422 -2.7940e-002 -7.1563e-001 -1.1103e-001 53868 76220,76272,76246
 1.8000e+001 76399  9.6469e-002 -6.1209e-001 -6.2994e-002 53868 76194,76324,76220
 1.8000e+001 76376  5.5516e-001 -4.2758e-001  5.1848e-002 53868 76194,76350,76324
 1.8000e+001 76517  1.2484e-002 -4.8655e-001 -3.5434e-002 53868 76298,76272,76491
 1.8000e+001 76540  9.9460e-002 -5.2002e-001  1.0917e-002 53868 76298,76491,76324
 1.8000e+001 76690 -6.9641e-003 -6.8493e-001  6.4591e-002 53356 76589,76641,76615
 1.8000e+001 76667 -2.1443e-001 -9.1442e-001 -2.5630e-002 53356 76563,76641,76589
 1.8000e+001 76938  2.3128e-001  3.5831e-001  1.1199e-001 53009 77105,76961,76765
 1.8000e+001 76915 -8.6175e-002 -1.6374e+000 -6.1729e-001 53009 76961,76713,76843
 1.8000e+001 76892 -2.3609e-001 -7.6450e-001  4.9512e-002 53009 77033,76817,76791
 1.8000e+001 76869  6.4575e-001  1.7942e+000 -4.2871e-002 53009 77105,76765,76739
 1.8000e+001 76987 -2.6649e-001 -7.5415e-001 -1.8051e-001 53009 76791,76765,76961
 1.8000e+001 77010 -1.8818e-001 -4.7251e-001 -2.1907e-001 53009 77033,76791,76961
 1.8000e+001 77059  2.0108e-001 -5.1856e-001 -2.1100e-001 53009 76843,76817,77033
 1.8000e+001 77082  1.5845e-001 -3.9690e-001 -4.6197e-001 53009 76843,77033,76961
 1.8000e+001 77131  8.2570e-001 -7.2448e-002 -1.0479e+000 53009 76713,76961,77105
 1.8000e+001 77154  1.0211e+000  4.5588e-001 -1.2306e+000 53009 76713,77105,76739
 1.8000e+001 77355  5.6401e-001 -4.3828e+000  5.2598e-001 52390 77378,77257,77231
 1.8000e+001 77332  6.7462e-001 -5.5570e+000  6.9268e-001 52390 77378,77231,77179
 1.8000e+001 77309  1.3936e+000 -4.1554e+000  4.1980e-001 52390 77179,77231,77205
 1.8000e+001 77404  8.9115e-001 -5.3330e+000  1.1234e+000 52390 77283,77257,77378
 1.8000e+001 77427  7.6826e-001 -6.9161e+000  1.1933e+000 52390 77283,77378,77179
 1.8000e+001 77677 -1.1120e+000  1.2551e+000 -1.5002e+000 51986 77700,77504,77478
 1.8000e+001 77654 -2.0124e-001  1.2291e+000 -1.3430e+000 51986 77700,77478,77452
 1.8000e+001 77631  4.5135e-001  1.1781e+000 -1.4323e+000 51986 77772,77556,77530
 1.8000e+001 77608  3.6626e+000  2.2216e+000 -2.3401e+000 51986 77452,77582,77556
 1.8000e+001 77726 -3.4394e-001  1.5457e+000 -9.7502e-001 51986 77530,77504,77700
 1.8000e+001 77749  4.1069e-001  1.1651e+000 -1.1408e+000 51986 77772,77530,77700
 1.8000e+001 77798  1.1653e-001  1.0153e+000 -1.3438e+000 51986 77452,77556,77772
 1.8000e+001 77821 -6.0581e-002  1.0062e+000 -1.0939e+000 51986 77452,77772,77700
 1.8000e+001 78282 -7.4971e-001 -3.6021e+000 -1.3344e-002 51738 78008,78138,78060
 1.8000e+001 78259 -2.1676e+000 -5.0516e+000  2.3628e+000 51738 78008,78164,78138
 1.8000e+001 78236 -5.1973e-001 -1.7578e+000  5.2293e-001 51738 78086,78138,78112
 1.8000e+001 78213 -6.3336e-001 -2.0370e+000  5.0616e-001 51738 78060,78138,78086
 1.8000e+001 78190 -2.1442e-001 -4.1773e+000 -3.4134e-001 51738 78008,78060,78034
 1.8000e+001 78432  1.8580e-001 -4.1162e-001  1.7214e-002 51148 78305,78357,78331
 1.8000e+001 78409  1.1594e-001 -3.1242e-001  2.2350e-002 51148 78305,78383,78357
 1.8000e+001 78891 -1.6024e-001 -6.1819e-001 -1.0257e-001 50808 78914,78695,78669
 1.8000e+001 78868 -8.1554e-002 -4.2655e-001 -8.6680e-002 50808 78914,78669,78643
 1.8000e+001 78845 -6.6299e-002 -5.7087e-001 -3.7605e-001 50808 78643,78773,78747
 1.8000e+001 78822 -3.6992e-002 -6.3131e-001 -3.6029e-001 50808 78617,78773,78643
 1.8000e+001 78799 -3.0774e-001 -6.0736e-001 -1.5502e-001 50808 78695,78747,78721
 1.8000e+001 78940 -2.1254e-001 -4.8431e-001 -2.3023e-001 50808 78747,78695,78914
 1.8000e+001 78963 -1.5318e-001 -3.8144e-001 -2.0611e-001 50808 78747,78914,78643
 1.8000e+001 79260  7.0335e-002 -5.3199e-001 -6.4756e-002 50468 79283,79090,79012
 1.8000e+001 79237  2.7120e-001 -5.2128e-001 -8.5307e-003 50468 79283,79012,78986
 1.8000e+001 79214 -1.4114e-001 -6.2447e-001 -8.7018e-002 50468 79012,79090,79038
 1.8000e+001 79191  1.1598e-001 -4.6808e-001  8.2089e-002 50468 78986,79142,79116
 1.8000e+001 79168 -6.9769e-002 -6.2507e-001 -1.1627e-001 50468 79038,79090,79064
 1.8000e+001 79309 -1.3697e-001 -4.8904e-001 -8.0623e-002 50468 79116,79090,79283
 1.8000e+001 79332  1.1073e-001 -4.3297e-001 -7.9115e-003 50468 79116,79283,78986
 1.8000e+001 79889  8.5513e-001  1.1341e+000 -4.6409e-001 50064 79569,79725,79699
 1.8000e+001 79866  9.4668e-001  1.1643e+000 -3.9877e-001 50064 79543,79725,79569
 1.8000e+001 79843  8.8333e-001  7.2716e-001 -5.2594e-001 50064 79621,79699,79673
 1.8000e+001 79820  1.1039e+000  1.2171e+000 -8.5077e-001 50064 79595,79699,79621
 1.8000e+001 79797  1.6554e+000  1.3425e+000 -6.3456e-001 50064 79569,79699,79595
 1.8000e+001 79774  4.9503e-001  1.2494e+000 -1.8301e-001 50064 79517,79725,79543
 1.8000e+001 79751  4.8448e-001  6.9646e-001 -5.7989e-001 50064 79621,79673,79647
 1.8000e+001 80169  1.0607e+000  1.5294e+000 -6.9140e-001 49724 80019,80097,80071
 1.8000e+001 80146  9.5158e-001  1.9309e+000 -8.0085e-001 49724 79993,80097,80019
 1.8000e+001 80123  6.9047e-001  1.4185e+000 -8.0250e-001 49724 80019,80071,80045
 1.8000e+001 80626  2.0936e-001  3.8564e-001  2.5377e-001 49277 80352,80482,80378
 1.8000e+001 80603 -1.9335e-001  2.6340e-001 -3.6962e-002 49277 80352,80508,80482
 1.8000e+001 80580 -1.1286e-001 -3.6350e-001  4.9422e-002 49277 80378,80482,80456
 1.8000e+001 80557 -3.9888e-002 -7.0659e-001  3.3267e-001 49277 80378,80430,80404
 1.8000e+001 80534 -1.0724e-002 -2.7450e-001  2.5732e-001 49277 80378,80456,80430
 1.8000e+001 81230  3.0078e-001 -3.7421e-001  2.2085e-001 48716 81253,80835,80809
 1.8000e+001 81207  2.6841e-001 -3.4540e-001  4.0250e-001 48716 81397,81253,80809
 1.8000e+001 81184  7.1642e-003  1.6722e-001 -8.7300e-002 48716 81325,80913,80887
 1.8000e+001 81161 -1.9526e-001 -5.0246e-001  5.3015e-001 48716 81397,80809,81017
 1.8000e+001 81138 -2.2589e-001  3.8668e-001 -2.1421e-001 48716 81469,80965,80913
 1.8000e+001 81115 -1.7999e-001 -5.7805e-001  2.1885e-001 48716 80835,80887,80861
 1.8000e+001 81092  1.2063e+000 -3.5687e-001  1.1913e+000 48716 80809,81043,81017
 1.8000e+001 81069 -1.6903e-002  1.4233e-001 -4.1908e-001 48716 80913,80965,80939
 1.8000e+001 81279  1.1250e-001 -2.9343e-001  6.2281e-002 48716 80887,80835,81253
 1.8000e+001 81302 -1.5127e-001  1.2754e-001 -1.2419e-002 48716 81325,80887,81253
 1.8000e+001 81351  5.4348e-002  2.9359e-001 -1.0672e-001 48716 81469,80913,81325
 1.8000e+001 81374 -1.0605e-001  5.0209e-001  6.1473e-002 48716 80991,81325,81253
 1.8000e+001 81423 -4.7342e-001  8.1827e-002  5.1401e-001 48716 80991,81253,81397
 1.8000e+001 81446 -1.0257e+000 -1.8515e-001  6.9331e-001 48716 80991,81397,81017
 1.8000e+001 81495 -6.6560e-001  3.2389e-001 -1.8604e-001 48716 80991,80965,81469
 1.8000e+001 81518 -4.4023e-001  1.9069e-001 -7.9408e-002 48716 80991,81469,81325
 1.8000e+001 81717 -7.9588e-002 -5.6748e-001  5.4758e-002 48262 81740,81567,81541
 1.8000e+001 81694 -2.0104e-001 -5.6788e-001  3.9752e-003 48262 81740,81541,81645
 1.8000e+001 81671 -1.5216e-001 -6.0131e-001 -2.5259e-002 48262 81567,81619,81593
 1.8000e+001 81766 -1.5606e-001 -5.7633e-001 -1.6053e-002 48262 81619,81567,81740
 1.8000e+001 81789 -2.8828e-001 -6.0500e-001 -7.5632e-002 48262 81619,81740,81645
 1.8000e+001 81939  8.0930e-001  1.0444e+000 -5.5945e-001 47957 82034,81962,81864
 1.8000e+001 81916  5.7990e-001  7.9999e-001 -2.1589e-001 47957 82166,81962,81838
 1.8000e+001 81988 -6.1150e-001  9.8003e-001 -5.6464e-001 47957 82294,81962,81890
 1.8000e+001 82011  5.0198e-001  1.6480e+000  2.2800e-001 47957 81890,81962,81812
 1.8000e+001 82060  7.4863e-001  1.6799e+000 -5.1212e-002 47957 81838,81962,82034
 1.8000e+001 82192  6.4046e-001  8.7352e-001  2.8228e-001 47957 81812,81962,82166
 1.8000e+001 82320 -8.6500e-002  9.9812e-001 -7.0897e-001 47957 81864,81962,82294
 1.8000e+001 82549 -1.4209e-002 -6.1126e-001 -1.6735e-001 47617 82448,82500,82474
 1.8000e+001 82526  2.5945e-001 -8.2031e-001 -7.9976e-004 47617 82422,82500,82448
 1.8000e+001 82902 -7.3639e-001 -1.1262e+000  2.4324e-002 47255 82729,82807,82755
 1.8000e+001 82879 -1.0651e-001 -1.6949e+000  4.7750e-001 47255 82703,82807,82729
 1.8000e+001 82856 -1.0394e+000 -1.1598e+000  3.6386e-001 47255 82755,82807,82781
 1.8000e+001 82833  1.3210e+000 -1.0833e+000  6.2119e-001 47255 82677,82807,82703
 1.8000e+001 83182  3.6876e-001 -8.8071e-001  1.4346e-001 46680 83032,83084,83058
 1.8000e+001 83159  5.1620e-001 -3.2676e-001  1.5523e-001 46680 83205,83084,83032
 1.8000e+001 83136  7.8238e-001 -1.4247e-001 -7.3969e-002 46680 83006,83110,83084
 1.8000e+001 83231  2.6379e-001 -4.8924e-001  8.4083e-002 46680 83006,83084,83205
 1.8000e+001 83737 -6.8134e-001 -2.9019e-001 -1.1859e-002 46290 83832,83760,83492
 1.8000e+001 83714 -5.1588e-001  3.4794e-002 -1.5293e-001 46290 83760,83440,83414
 1.8000e+001 83691 -3.9390e-001 -4.7100e-001 -6.4221e-002 46290 83832,83492,83466
 1.8000e+001 83668 -5.7253e-001 -9.7286e-001  1.6355e-001 46290 83492,83570,83544
 1.8000e+001 83645 -4.2382e-001 -1.6202e-001 -3.0150e-001 46290 83414,83596,83570
 1.8000e+001 83622 -7.3233e-001 -7.1498e-001  3.8436e-001 46290 83492,83544,83518
 1.8000e+001 83786 -6.9867e-001 -2.6639e-001  1.5677e-002 46290 83570,83492,83760
 1.8000e+001 83809 -6.5389e-001 -3.9782e-001 -1.8039e-001 46290 83570,83760,83414
 1.8000e+001 83858 -3.1354e-001 -7.8110e-002  9.0744e-002 46290 83440,83760,83832
 1.8000e+001 83881  1.9307e-001 -2.1797e-001 -2.1003e-002 46290 83440,83832,83466
 1.8000e+001 84161 -9.1228e-002 -7.8387e-001  3.4722e-001 45829 84011,84063,84037
 1.8000e+001 84138  2.8311e-002 -4.6867e-001  9.1426e-002 45829 84011,84089,84063
 1.8000e+001 84115  7.8581e-002 -4.4416e-001  1.5001e-001 45829 83985,84089,84011
 1.8000e+001 84311  8.8219e-002 -8.4380e-002  1.3120e-001 45631 84184,84236,84210
 1.8000e+001 84288 -1.3568e-001 -9.5749e-001 -7.3246e-002 45631 84184,84262,84236
 1.8000e+001 84657 -1.1676e-001 -4.6047e-001 -2.5659e-002 45155 84680,84490,84412
 1.8000e+001 84634 -1.7373e-001 -4.2020e-001 -1.1451e-002 45155 84680,84412,84360
 1.8000e+001 84611 -1.7868e-001 -5.0210e-001  1.9047e-002 45155 84412,84490,84438
 1.8000e+001 84588  2.5978e-003 -3.1843e-001 -4.6974e-002 45155 84334,84516,84360
 1.8000e+001 84565 -2.0873e-001 -4.8995e-001 -1.5413e-001 45155 84360,84412,84386
 1.8000e+001 84542 -1.5329e-001 -4.2701e-001  6.1125e-002 45155 84438,84490,84464
 1.8000e+001 84706 -9.4072e-002 -4.2681e-001 -3.7201e-002 45155 84516,84490,84680
 1.8000e+001 84729 -1.3717e-001 -3.7515e-001 -2.9395e-002 45155 84516,84680,84360
 1.8000e+001 85077  2.2493e-001 -1.2152e-001  4.5092e-002 44508 85100,84754,84910
 1.8000e+001 85054  2.7405e-001  1.9308e-001  6.6327e-002 44508 84754,84936,84910
 1.8000e+001 85031  6.7855e-002 -2.8671e-001  2.0573e-001 44508 85100,84910,84884
 1.8000e+001 85008 -7.2794e-002 -2.9066e-001  6.2977e-002 44508 84780,84884,84832
 1.8000e+001 84985  1.7058e-001  1.5950e-001 -1.3493e-001 44508 84780,84832,84806
 1.8000e+001 84962  5.8219e-001  1.3466e-001 -1.2009e-001 44508 84832,84884,84858
 1.8000e+001 85126  9.6264e-002  1.3229e-001 -7.6795e-002 44508 84780,84754,85100
 1.8000e+001 85149 -2.1862e-002 -3.4990e-002  7.0010e-002 44508 84780,85100,84884
 1.8000e+001 85482 -4.6328e-001 -7.0011e-001 -4.1875e-002 44104 85335,85387,85361
 1.8000e+001 85459 -3.8908e-001 -1.0465e+000 -5.1038e-003 44104 85309,85387,85335
 1.8000e+001 85436 -1.7115e-001 -7.8368e-001  1.2960e-001 44104 85257,85387,85309
 1.8000e+001 85413 -3.2683e-001 -1.3778e+000  9.1877e-002 44104 85257,85309,85283
 1.8000e+001 85811 -1.2200e-001 -2.9356e-001 -4.9322e-002 43600 85586,85664,85612
 1.8000e+001 85788 -1.8009e-001 -3.7141e-001 -1.7427e-002 43600 85586,85690,85664
 1.8000e+001 85765  8.4802e-003 -3.0085e-001 -4.4267e-002 43600 85586,85716,85690
 1.8000e+001 85742 -1.0573e-001 -3.0475e-001 -1.9823e-002 43600 85612,85664,85638
 1.8000e+001 86010 -2.2173e-002 -3.5787e-001 -9.6413e-002 43224 85886,85938,85912
 1.8000e+001 85987  8.1493e-002  3.5033e-002 -1.4885e-001 43224 85834,85938,85886
 1.8000e+001 85964 -3.2076e-001 -4.0336e-001  2.2887e-002 43224 85834,85886,85860
 1.8000e+001 86420  1.7586e+000  9.1067e-001 -3.8072e-001 42820 86195,86299,86221
 1.8000e+001 86397  1.3192e+000  8.3550e-001 -9.8933e-001 42820 86195,86325,86299
 1.8000e+001 86374  1.0828e+000  1.0213e+000 -6.8476e-002 42820 86221,86299,86273
 1.8000e+001 86351  1.0148e+000  5.7437e-001  8.5190e-002 42820 86221,86273,86247
 1.8000e+001 86749  3.1332e-001 -2.8375e-001 -2.1550e-001 42223 86550,86602,86576
 1.8000e+001 86726  9.7230e-001 -6.5329e-001 -4.6104e-002 42223 86550,86628,86602
 1.8000e+001 86703  4.4246e-002 -9.5954e-001  2.7166e-001 42223 86524,86628,86550
 1.8000e+001 86680  5.6295e-001 -2.8339e-002  6.6908e-002 42223 86524,86654,86628
 1.8000e+001 87078  6.8711e-001 -2.0393e-001  2.2754e-001 41883 87173,87101,86905
 1.8000e+001 87055  5.0288e-001  4.1696e-001 -3.0140e-002 41883 87101,86879,86853
 1.8000e+001 87032  1.2966e-001  5.0484e-002 -1.9587e-002 41883 86853,86983,86931
 1.8000e+001 87009  2.6441e-002 -3.2028e-001  6.3955e-002 41883 86931,86983,86957
 1.8000e+001 87127  8.2174e-001 -6.3319e-002 -3.5436e-002 41883 86931,86905,87101
 1.8000e+001 87150  2.3024e-001 -2.1637e-001 -6.4193e-002 41883 86931,87101,86853
 1.8000e+001 87199  1.7235e-001 -1.8440e-001  1.9544e-001 41883 86879,87101,87173
 1.8000e+001 87558  9.4890e-002  3.8254e-001 -6.5482e-002 41471 87382,87460,87408
 1.8000e+001 87535 -5.3875e-001  2.1303e-002 -2.1451e-001 41471 87382,87486,87460
 1.8000e+001 87512 -1.5075e-001  2.9131e-001 -1.7925e-001 41471 87408,87460,87434
 1.8000e+001 87806  1.4427e-001 -2.1536e-001  5.6249e-002 41017 87829,87607,87581
 1.8000e+001 87783  1.0232e-001 -3.4721e-001  9.6172e-002 41017 87829,87581,87685
 1.8000e+001 87760  3.1537e-001 -8.3188e-002  2.8499e-003 41017 87581,87711,87685
 1.8000e+001 87737  3.0759e-001 -7.5478e-001  4.5245e-002 41017 87633,87685,87659
 1.8000e+001 87855  1.3422e-001 -2.6182e-001  1.5553e-001 41017 87633,87607,87829
 1.8000e+001 87878  8.1452e-002 -4.0163e-001  1.9811e-001 41017 87633,87829,87685
 1.8000e+001 88258 -3.1763e-002 -1.8112e-002  2.5130e-002 40613 88281,88036,88010
 1.8000e+001 88235  1.2002e-003 -2.0043e-002  1.1757e-002 40613 88281,88010,88088
 1.8000e+001 88212 -3.5356e-003 -2.7542e-002  1.6335e-002 40613 87984,88088,88010
 1.8000e+001 88189  4.4620e-004 -1.4222e-002  2.7585e-003 40613 87984,88114,88088
 1.8000e+001 88166 -1.5935e-002 -2.3298e-002  6.7832e-003 40613 87984,88140,88114
 1.8000e+001 88307 -3.6121e-003 -2.0479e-002  1.7250e-002 40613 88062,88036,88281
 1.8000e+001 88330  4.2958e-002 -7.7867e-003 -5.9443e-004 40613 88062,88281,88088
 1.8000e+001 88649  3.6752e-002 -7.0284e-002 -8.8612e-003 40095 88375,88505,88401
 1.8000e+001 88626 -1.4898e-002 -4.1000e-002 -2.6070e-002 40095 88375,88531,88505
 1.8000e+001 88603  4.3730e-002 -5.6907e-002 -2.0727e-003 40095 88401,88505,88479
 1.8000e+001 88580 -6.1166e-002 -3.8470e-001 -1.4637e-001 40095 88427,88479,88453
 1.8000e+001 88557  2.2684e-002 -4.3016e-002  2.9873e-003 40095 88401,88479,88427
 1.8000e+001 89078  9.9011e-001 -2.0594e-001 -2.1727e-001 39897 89101,88833,88807
 1.8000e+001 89055  5.8020e-001 -5.9688e-001 -4.0532e-001 39897 89101,88807,88911
 1.8000e+001 89032  7.3343e-001 -1.0289e-001 -3.7632e-001 39897 88781,88911,88807
 1.8000e+001 89009 -1.4199e-001 -7.8745e-001 -8.6482e-001 39897 88781,88937,88911
 1.8000e+001 88986  1.9912e+000  3.2627e-001 -4.1740e-001 39897 88833,88885,88859
 1.8000e+001 88963  5.2742e-001 -1.2162e-001 -5.4329e-001 39897 88755,88937,88781
 1.8000e+001 89127  1.4026e+000 -6.9190e-001 -6.8339e-001 39897 88885,88833,89101
 1.8000e+001 89150  6.7267e-001 -1.3076e+000 -9.5692e-001 39897 88885,89101,88911
 1.8000e+001 89300 -5.8138e-001 -9.2224e-001  8.2776e-002 39607 89453,89323,89199
 1.8000e+001 89277 -9.8873e-001 -7.7045e-001 -7.8900e-003 39607 89525,89453,89199
 1.8000e+001 89349 -5.7441e-001 -9.4153e-001 -1.1683e-001 39607 89225,89199,89323
 1.8000e+001 89479 -6.6803e-001 -5.7421e-001  9.3407e-002 39607 89251,89323,89453
 1.8000e+001 89502 -3.2846e-001 -2.0797e-001  3.7496e-001 39607 89251,89453,89173
 1.8000e+001 89551 -7.5517e-002 -4.6674e-001  1.5105e-002 39607 89173,89453,89525
 1.8000e+001 90264 -6.7333e-001 -1.7305e+000 -1.9433e-001 39039 89996,90074,90048
 1.8000e+001 90241 -3.4518e-001 -7.1764e-001 -1.3733e-001 39039 89918,90074,89996
 1.8000e+001 90218 -4.9195e-001 -9.1402e-001 -7.1578e-002 39039 89918,89996,89944
 1.8000e+001 90195 -4.7823e-001 -7.5848e-001 -1.1933e-001 39039 89892,90074,89918
 1.8000e+001 90172  7.2680e-002 -1.7233e+000 -2.6561e-001 39039 89996,90048,90022
 1.8000e+001 90149 -1.0713e+000  3.2928e-001 -1.4023e-001 39039 89892,90100,90074
 1.8000e+001 90126 -7.2688e-001 -1.0237e+000  9.9666e-002 39039 89944,89996,89970
 1.8000e+001 90770 -1.3199e-001 -3.7722e-001  1.0911e-004 38635 90473,90603,90577
 1.8000e+001 90747 -7.6978e-002 -3.4950e-001 -1.1309e-002 38635 90447,90603,90473
 1.8000e+001 90724 -8.0389e-002 -4.2463e-001 -3.2822e-002 38635 90499,90577,90551
 1.8000e+001 90701 -1.7896e-001 -4.9832e-001  2.5584e-002 38635 90473,90577,90499
 1.8000e+001 90678 -1.0921e-001 -5.8819e-001 -6.9427e-003 38635 90499,90551,90525
 1.8000e+001 90655 -2.2138e-001 -3.8778e-001  4.3296e-002 38635 90447,90629,90603
 1.8000e+001 90871 -5.5563e-002 -3.5247e-001 -9.8317e-002 38231 90793,90845,90819
 1.8000e+001 91458  1.6134e-002 -2.0406e-001 -2.9559e-002 37534 91161,91317,91291
 1.8000e+001 91435 -1.6233e-001 -1.2188e-001  4.4763e-002 37534 91135,91317,91161
 1.8000e+001 91412 -2.7705e-001 -1.0833e+000 -2.7203e-001 37534 91187,91291,91239
 1.8000e+001 91389 -4.7217e-002 -1.0758e+000  9.9869e-002 37534 91161,91291,91187
 1.8000e+001 91366 -4.8389e-002 -7.8004e-001 -1.5528e-001 37534 91239,91291,91265
 1.8000e+001 91343  5.2332e-001 -1.1475e+000 -6.1548e-001 37534 91187,91239,91213
 1.8000e+001 91915 -3.1152e-001 -8.1417e-001  1.3575e-001 37080 91938,91745,91667
 1.8000e+001 91892 -2.2559e-002 -7.6382e-001  4.7866e-002 37080 91938,91667,91797
 1.8000e+001 91869  1.4549e-001 -2.6743e-001  7.9851e-002 37080 91641,91797,91667
 1.8000e+001 91846 -3.2996e-001 -9.1159e-001  2.9449e-002 37080 91667,91719,91693
 1.8000e+001 91823 -2.5730e-001 -7.1377e-001  9.3484e-002 37080 91667,91745,91719
 1.8000e+001 91964 -4.5289e-001 -9.2622e-001  3.8858e-001 37080 91771,91745,91938
 1.8000e+001 91987 -1.6797e-001 -7.7875e-001  2.6685e-001 37080 91771,91938,91797
 1.8000e+001 92235 -2.2188e-001 -3.8511e-001 -2.0855e-002 36397 92036,92088,92062
 1.8000e+001 92212 -1.5806e-001 -3.4564e-001 -4.6841e-002 36397 92036,92114,92088
 1.8000e+001 92189 -6.2683e-002 -2.7296e-001  6.0391e-003 36397 92036,92140,92114
 1.8000e+001 92166 -8.5922e-002 -3.4330e-001 -1.5542e-002 36397 92010,92140,92036
 1.8000e+001 92694  1.6156e-001  5.3699e-003 -3.0294e-002 36057 92446,92498,92472
 1.8000e+001 92671  1.8618e-001 -4.8831e-002  5.4801e-002 36057 92446,92550,92498
 1.8000e+001 92648 -5.6861e-002 -3.8175e-001  1.6308e-001 36057 92446,92576,92550
 1.8000e+001 92625  1.4492e-001  8.7231e-004 -2.9864e-001 36057 92420,92576,92446
 1.8000e+001 92602  3.4150e-002  2.1997e-002  1.9532e-001 36057 92498,92550,92524
 1.8000e+001 93023 -2.1389e-001 -3.2403e-001 -3.9203e-002 35717 92876,92928,92902
 1.8000e+001 93000 -1.6717e-001 -3.5343e-001 -5.0224e-002 35717 92824,92928,92876
 1.8000e+001 92977 -8.8130e-002 -3.6696e-001 -1.0155e-002 35717 92798,92928,92824
 1.8000e+001 92954 -1.9051e-001 -4.7651e-001 -1.4658e-001 35717 92824,92876,92850
 1.8000e+001 93499  3.6623e-001 -4.3631e-001  1.6860e-001 35405 93522,93309,93257
 1.8000e+001 93476  3.3587e-001 -3.7300e-001  1.8014e-001 35405 93666,93522,93257
 1.8000e+001 93453  3.1588e-001 -1.0851e+000  1.5502e-001 35405 93594,93127,93335
 1.8000e+001 93430  2.0270e-001 -4.2153e-001  1.8413e-001 35405 93666,93257,93231
 1.8000e+001 93407 -1.2890e-002 -1.3568e+000 -9.4260e-002 35405 93127,93179,93153
 1.8000e+001 93384 -3.8763e-001 -1.6547e-001  3.8650e-001 35405 93179,93231,93205
 1.8000e+001 93361  3.8440e-001  1.2845e-001 -5.7631e-002 35405 93257,93309,93283
 1.8000e+001 93548  4.9687e-001 -3.1777e-001  3.3722e-001 35405 93335,93309,93522
 1.8000e+001 93571  3.5411e-001 -6.0444e-001  2.3277e-001 35405 93594,93335,93522
 1.8000e+001 93620  3.6885e-001 -5.6835e-001  8.4550e-002 35405 93179,93127,93594
 1.8000e+001 93643  1.8650e-001 -3.8652e-001  1.0472e-001 35405 93738,93594,93522
 1.8000e+001 93692  1.8220e-001 -3.7629e-001  1.2193e-001 35405 93738,93522,93666
 1.8000e+001 93715  1.4615e-001 -3.6273e-001  1.1182e-001 35405 93179,93666,93231
 1.8000e+001 93764  1.9779e-001 -3.5963e-001  1.0596e-001 35405 93179,93594,93738
 1.8000e+001 93787  1.9138e-001 -3.5082e-001  1.2007e-001 35405 93179,93738,93666
 1.8000e+001 94372  8.0435e-001 -8.5371e-003 -1.6602e-002 34951 94395,94127,94075
 1.8000e+001 94349  1.0539e+000 -5.3434e-002  7.8813e-002 34951 94395,94075,94231
 1.8000e+001 94326  1.3480e+000 -2.4977e-001 -3.8764e-001 34951 94049,94231,94075
 1.8000e+001 94303  9.2318e-001  4.3713e-001 -1.8090e-002 34951 94075,94127,94101
 1.8000e+001 94280  1.3374e+000  6.7137e-001  5.0866e-001 34951 94127,94205,94153
 1.8000e+001 94257  1.1186e+000 -1.1056e-001  6.0431e-001 34951 94153,94205,94179
 1.8000e+001 94421  1.0022e+000 -5.4285e-002  1.2839e-001 34951 94205,94127,94395
 1.8000e+001 94444  1.4526e+000  2.8896e-002  2.1469e-001 34951 94205,94395,94231
 1.8000e+001 94692  1.7549e-002 -7.5619e-002 -1.6153e-002 34397 94715,94519,94467
 1.8000e+001 94669  1.2376e-002 -5.0865e-002 -8.8402e-003 34397 94715,94467,94597
 1.8000e+001 94646  1.4268e-002 -8.4011e-002 -2.5213e-002 34397 94545,94597,94571
 1.8000e+001 94623  2.4271e-002 -7.3113e-002  1.4424e-002 34397 94467,94519,94493
 1.8000e+001 94741 -4.6360e-003 -1.5735e-001 -2.9806e-002 34397 94545,94519,94715
 1.8000e+001 94764  2.8437e-002 -7.6313e-002 -1.8362e-002 34397 94545,94715,94597
 1.8000e+001 94985  8.3268e-002 -1.2427e-001  1.2053e-002 33985 94835,94913,94887
 1.8000e+001 94962 -7.0036e-002 -4.8377e-001  1.5515e-002 33985 94809,94913,94835
 1.8000e+001 94939  9.4958e-003 -1.3579e-001  2.1499e-002 33985 94835,94887,94861
 1.8000e+001 95186 -4.5216e-002 -5.5673e-001 -2.1320e-001 33645 95281,95209,95036
 1.8000e+001 95163  3.5244e-001 -5.9416e-001  3.9291e-002 33645 95209,95010,95088
 1.8000e+001 95140  3.5663e-001 -2.9575e-001 -1.9578e-003 33645 95010,95114,95088
 1.8000e+001 95235 -2.7776e-001 -7.0557e-001 -3.0857e-001 33645 95062,95036,95209
 1.8000e+001 95258 -1.9054e-001 -8.0811e-001  2.5994e-001 33645 95413,95209,95088
 1.8000e+001 95307  2.5700e-001 -2.7387e-002 -4.0031e-001 33645 95010,95209,95281
 1.8000e+001 95439  1.1641e-001 -4.6299e-001  1.2545e-001 33645 95062,95209,95413
 1.8000e+001 95766 -2.1404e-001 -7.6533e-002 -3.0961e-001 33141 95789,95593,95567
 1.8000e+001 95743 -7.0699e-003 -2.2617e-001 -9.6852e-002 33141 95861,95789,95567
 1.8000e+001 95720 -2.2237e-002 -1.9172e-001 -3.2189e-002 33141 95861,95567,95671
 1.8000e+001 95697 -8.6792e-003 -2.3291e-001 -4.4324e-002 33141 95541,95671,95567
 1.8000e+001 95815 -4.4080e-002  3.3171e-001 -2.6759e-001 33141 95619,95593,95789
 1.8000e+001 95838  2.9950e-002 -3.2712e-002 -9.2018e-002 33141 95619,95789,95645
 1.8000e+001 95887  4.4339e-002 -1.1130e-001 -1.0688e-001 33141 95645,95789,95861
 1.8000e+001 95910  2.3865e-002 -7.9264e-002 -3.3633e-002 33141 95645,95861,95671
 1.8000e+001 96060 -2.2291e-001 -3.0087e-001 -1.2405e-001 32487 95959,96011,95985
 1.8000e+001 96037 -6.4319e-002 -2.7612e-001 -2.5696e-002 32487 95933,96011,95959
 1.8000e+001 96570 -1.9104e-001 -3.7189e-001  2.3291e-001 32033 96665,96593,96377
 1.8000e+001 96547 -1.7210e-001 -3.3978e-001 -1.3292e-001 32033 96737,96593,96325
 1.8000e+001 96524 -2.4939e-001 -5.1274e-001  1.3352e-001 32033 96665,96377,96351
 1.8000e+001 96501 -2.3553e-001 -4.8900e-001 -1.1857e-001 32033 96737,96325,96299
 1.8000e+001 96478 -2.5830e-001 -1.5621e-001 -1.2013e-001 32033 96247,96429,96299
 1.8000e+001 96455 -5.9068e-001 -1.1648e+000 -1.3467e-001 32033 96247,96299,96273
 1.8000e+001 96619  1.3299e-001 -1.4880e-001  2.7407e-001 32033 96809,96593,96403
 1.8000e+001 96642  3.4912e-001  4.2701e-001 -3.5006e-001 32033 96403,96593,96429
 1.8000e+001 96691  5.9796e-002 -7.1108e-001  6.0149e-002 32033 96325,96593,96665
 1.8000e+001 96714 -1.5503e-001 -9.7171e-001 -7.7006e-002 32033 96325,96665,96351
 1.8000e+001 96763 -2.3979e-001 -2.8291e-001 -6.2650e-002 32033 96429,96593,96737
 1.8000e+001 96786 -2.6415e-001 -3.5446e-001 -6.8447e-002 32033 96429,96737,96299
 1.8000e+001 96835 -6.4883e-003 -2.8662e-001  2.1139e-001 32033 96377,96593,96809
 1.8000e+001 97064 -1.3596e-002 -6.3028e-002 -2.8041e-002 31671 97087,96989,96963
 1.8000e+001 97041 -2.3894e-002 -7.2856e-002 -1.2608e-002 31671 97087,96963,96937
 1.8000e+001 97113 -4.7795e-003 -4.6331e-002 -3.1332e-002 31671 97159,97087,97015
 1.8000e+001 97136  7.7755e-003 -2.0838e-003 -5.5931e-003 31671 97015,97087,96937
 1.8000e+001 97185 -1.7129e-002 -7.9218e-002 -2.3325e-002 31671 96989,97087,97159
 1.8000e+001 97563  1.5665e-002 -6.1602e-002  8.4584e-003 31117 97586,97367,97341
 1.8000e+001 97540  1.1568e-005 -6.7856e-002  6.9814e-003 31117 97658,97586,97341
 1.8000e+001 97517 -1.8923e-002 -6.6715e-002 -8.3586e-004 31117 97658,97341,97315
 1.8000e+001 97494  6.3488e-002 -9.3260e-002 -2.9553e-002 31117 97289,97445,97315
 1.8000e+001 97471 -1.2185e-002  2.6081e-002 -5.9962e-003 31117 97367,97419,97393
 1.8000e+001 97612 -2.3026e-002 -7.5726e-002  2.0947e-002 31117 97419,97367,97586
 1.8000e+001 97635  4.6477e-002 -5.5908e-002  2.8792e-002 31117 97419,97586,97445
 1.8000e+001 97684  3.6795e-002 -7.6123e-002  9.5247e-003 31117 97445,97586,97658
 1.8000e+001 97707  1.4561e-002 -7.8100e-002  9.7911e-004 31117 97445,97658,97315
 1.8000e+001 98215  5.9097e-002 -4.1738e-002 -1.6985e-001 30563 98238,97996,97944
 1.8000e+001 98192 -1.4405e-001 -3.0432e-002 -1.8283e-001 30563 98310,98238,97944
 1.8000e+001 98169 -3.4009e-001 -2.4118e-001 -3.1496e-001 30563 98310,97944,97918
 1.8000e+001 98146  1.9693e-001 -2.4674e-002 -5.1238e-002 30563 97892,98074,97918
 1.8000e+001 98123  1.7367e-001 -4.9792e-002  3.8476e-002 30563 97996,98048,98022
 1.8000e+001 98100 -2.1854e-001 -1.1429e-001 -2.2160e-001 30563 97944,97996,97970
 1.8000e+001 98264 -3.8081e-003  1.8852e-002 -1.2954e-001 30563 98048,97996,98238
 1.8000e+001 98287  1.6909e-001  3.3107e-001  1.0543e-001 30563 98048,98238,98074
 1.8000e+001 98336  5.4697e-002 -7.3334e-002 -1.2928e-002 30563 98074,98238,98310
 1.8000e+001 98359 -8.0263e-002 -1.0658e-001 -1.0653e-001 30563 98074,98310,97918
 1.8000e+001 98607 -3.1339e-001 -2.9768e-002  1.6190e-002 30073 98630,98460,98408
 1.8000e+001 98584 -4.9169e-001 -1.0076e-001 -2.7320e-002 30073 98630,98408,98382
 1.8000e+001 98561 -1.4037e-001 -8.0668e-002 -4.8843e-002 30073 98382,98512,98486
 1.8000e+001 98538 -1.7979e-001 -7.5139e-002  1.1177e-001 30073 98408,98460,98434
 1.8000e+001 98656 -2.1349e-001 -1.3825e-001 -2.1361e-002 30073 98486,98460,98630
 1.8000e+001 98679 -3.3007e-001 -1.6182e-001 -5.4839e-002 30073 98486,98630,98382
 1.8000e+001 99157  7.9298e-001 -4.4764e-002  8.7133e-002 29669 99180,98837,98811
 1.8000e+001 99134  5.7170e-001 -3.2923e-002  3.5031e-001 29669 99324,99180,98811
 1.8000e+001 99111  2.7856e-001  1.7620e-002  2.6671e-002 29669 99252,98863,98837
 1.8000e+001 99088  5.6295e-001 -1.2315e-001  3.7630e-001 29669 99324,98811,98993
 1.8000e+001 99065  1.4340e-001  4.8771e-002  1.2473e-002 29669 98863,98941,98915
 1.8000e+001 99042 -6.8641e-001 -6.4515e-002 -5.1570e-002 29669 98863,98915,98889
 1.8000e+001 99019  3.5150e-001 -1.8527e-001  5.2668e-001 29669 98785,98993,98811
 1.8000e+001 99206  3.9487e-001 -2.1574e-001  9.5351e-002 29669 99252,98837,99180
 1.8000e+001 99229  1.2946e-001 -1.3051e-001  4.2000e-001 29669 98941,99180,98967
 1.8000e+001 99278  3.5188e-001  1.5915e-001  7.4494e-002 29669 98941,98863,99252
 1.8000e+001 99301  5.7586e-001  7.0754e-002  1.8325e-001 29669 98941,99252,99180
 1.8000e+001 99350  5.5178e-001  7.8497e-002  3.4434e-001 29669 98967,99180,99324
 1.8000e+001 99373  5.6227e-001  4.0555e-003  3.5720e-001 29669 98967,99324,98993
 1.8000e+001 99958  4.6728e-001  6.9952e-002  5.3778e-002 29051 99981,99765,99739
 1.8000e+001 99935  2.8066e-001 -4.8115e-002 -3.5201e-002 29051 99981,99739,99661
 1.8000e+001 99912  2.7690e-001 -8.5735e-001 -7.0278e-003 29051 99765,99817,99791
 1.8000e+001 99889  4.7518e-001 -2.1323e-001 -1.9126e-001 29051 99635,99817,99661
 1.8000e+001 99866  1.8041e-001 -2.5679e-002  4.3441e-002 29051 99661,99739,99687
 1.8000e+001 99843  3.8903e-002 -7.2474e-002  4.6337e-002 29051 99687,99739,99713
 1.8000e+001 100007  5.9758e-001 -7.4677e-002  5.1509e-002 29051 99817,99765,99981
 1.8000e+001 100030  4.7220e-001 -1.0399e-001  1.5134e-003 29051 99817,99981,99661
 1.8000e+001 100278  6.2069e-001 -1.1945e-001  1.9855e-001 28525 100445,100301,100131
 1.8000e+001 100255  2.8885e-001  1.8122e-001  1.4793e-001 28525 100373,100301,100079
 1.8000e+001 100232  2.5065e-001 -5.5326e-002  1.6470e-001 28525 100373,100079,100053
 1.8000e+001 100209  4.2716e-001  2.7278e-002  4.7914e-002 28525 100445,100131,100105
 1.8000e+001 100327  8.8015e-001 -1.0238e-001  2.6465e-001 28525 100517,100301,100157
 1.8000e+001 100350  5.8070e-001  5.3457e-001  2.2820e-001 28525 100157,100301,100183
 1.8000e+001 100399  3.1333e-001 -7.0313e-002  2.7306e-001 28525 100183,100301,100373
 1.8000e+001 100422  3.2643e-001 -2.3700e-001  2.9040e-001 28525 100183,100373,100053
 1.8000e+001 100471  3.6317e-001 -1.7990e-001 -1.0076e-001 28525 100079,100301,100445
 1.8000e+001 100494 -1.7615e-001 -2.8526e-001 -2.6706e-001 28525 100079,100445,100105
 1.8000e+001 100543  1.0233e+000  1.2115e-001  3.1858e-002 28525 100131,100301,100517
 1.8000e+001 101209 -7.2079e-001 -5.2157e-002 -4.8925e-002 28185 100938,101016,100990
 1.8000e+001 101186 -8.9357e-001 -1.1542e-002  7.2426e-004 28185 100912,101016,100938
 1.8000e+001 101163 -2.3063e-001  1.9177e-001  8.7681e-002 28185 100912,101068,101016
 1.8000e+001 101140 -9.3449e-001  9.2772e-002 -1.5846e-002 28185 100886,101068,100912
 1.8000e+001 101117 -2.4108e-001  4.0239e-001  1.4085e-001 28185 101016,101068,101042
 1.8000e+001 101094 -2.1453e+000 -4.7579e-001 -6.8329e-002 28185 100938,100990,100964
 1.8000e+001 101408  1.7107e-001 -1.2396e-001 -1.1431e-001 27781 101503,101431,101310
 1.8000e+001 101385 -1.1943e-001  9.2607e-002 -3.6231e-001 27781 101431,101258,101232
 1.8000e+001 101362  2.1358e-001 -1.4772e-001 -1.3770e-001 27781 101503,101310,101284
 1.8000e+001 101457  7.3357e-001  1.3223e-001 -1.8324e-001 27781 101336,101310,101431
 1.8000e+001 101480  2.0701e-001  2.4623e-001 -4.1125e-001 27781 101575,101431,101232
 1.8000e+001 101529  3.4355e-001 -9.0344e-002 -3.0404e-001 27781 101258,101431,101503
 1.8000e+001 101552  2.3117e-001 -1.7583e-001 -1.5240e-001 27781 101705,101503,101284
 1.8000e+001 101601  3.7245e-001  5.1848e-001 -4.8376e-001 27781 101336,101431,101575
 1.8000e+001 101731 -6.6691e-002 -2.5894e-001 -3.1106e-001 27781 101258,101503,101705
 1.8000e+001 102237 -3.0341e-001 -1.5930e-001  4.6125e-002 27419 102476,102260,101992
 1.8000e+001 102214 -1.5945e-001 -2.8081e-001  2.1057e-003 27419 102260,101940,101914
 1.8000e+001 102191 -3.8537e-001 -3.4759e-001  4.5107e-002 27419 102404,102332,102096
 1.8000e+001 102168 -3.2917e-001 -3.4028e-001 -1.2689e-002 27419 102404,102096,102044
 1.8000e+001 102145 -2.7219e-001 -1.8432e-001  6.5169e-002 27419 102476,101992,101966
 1.8000e+001 102122 -2.3379e-001 -3.3685e-001 -2.7090e-002 27419 102044,102096,102070
 1.8000e+001 102286 -4.1281e-001 -2.8723e-001  9.4876e-002 27419 102018,101992,102260
 1.8000e+001 102309 -3.2898e-001 -2.4105e-001  1.4381e-002 27419 102332,102018,102260
 1.8000e+001 102358 -3.7044e-001 -5.1939e-001  1.5002e-001 27419 101914,102096,102332
 1.8000e+001 102381 -2.6652e-001 -3.7958e-001  5.1580e-002 27419 101914,102332,102260
 1.8000e+001 102430 -2.6517e-001 -3.1726e-001  1.0418e-002 27419 102018,102332,102404
 1.8000e+001 102453 -2.2847e-001 -3.0633e-001 -5.3367e-002 27419 102018,102404,102044
 1.8000e+001 102502 -2.1083e-001 -2.4787e-001  6.7966e-002 27419 101940,102260,102476
 1.8000e+001 102525  1.9411e-001 -5.2272e-002  9.0089e-003 27419 101940,102476,101966
 1.8000e+001 103031 -5.7880e-002 -1.6271e-001  1.9429e-001 26715 102708,102786,102760
 1.8000e+001 103008  2.3620e-001 -1.1367e-001  3.4953e-002 26715 102708,102890,102786
 1.8000e+001 102985  6.6332e-001 -3.7948e-001  9.2379e-002 26715 102838,102890,102864
 1.8000e+001 102962  3.1400e-001 -1.8457e-001  1.6998e-001 26715 102786,102890,102838
 1.8000e+001 102939  1.0988e+000  2.0217e-001  5.8241e-001 26715 102786,102838,102812
 1.8000e+001 102916 -8.5896e-002 -2.4313e-003  1.5108e-002 26715 102708,102760,102734
 1.8000e+001 103279  6.9636e-003 -1.3833e-002  1.6600e-002 26303 103302,103158,103080
 1.8000e+001 103256  3.4937e-004  1.9621e-003  1.9320e-002 26303 103302,103080,103054
 1.8000e+001 103233 -3.0240e-002 -3.2290e-002  8.7754e-003 26303 103080,103158,103106
 1.8000e+001 103210  5.4982e-002 -1.2674e-002  8.0256e-003 26303 103106,103158,103132
 1.8000e+001 103328  1.2961e-002  8.2517e-006  1.0687e-002 26303 103184,103158,103302
 1.8000e+001 103351  1.1194e-003  1.0814e-002  1.7457e-002 26303 103184,103302,103054
 1.8000e+001 103501 -2.7317e-001 -3.6738e-001  1.5551e-002 25849 103374,103426,103400
 1.8000e+001 103478 -2.8310e-001 -2.6312e-001  2.1617e-002 25849 103374,103452,103426
 1.8000e+001 104090  9.2623e-002  3.6551e-003  1.2182e-001 25445 103793,103871,103819
 1.8000e+001 104067  2.7027e-001  7.1162e-002  4.5676e-002 25445 103793,103949,103871
 1.8000e+001 104044  3.2639e-001  5.6940e-002  1.4429e-001 25445 103871,103949,103923
 1.8000e+001 104021 -2.9023e-002  4.4141e-002 -3.8225e-002 25445 103819,103871,103845
 1.8000e+001 103998  3.7967e-001  1.8020e-001  1.6892e-001 25445 103767,103949,103793
 1.8000e+001 103975  3.7429e-001  6.7121e-002  1.5253e-001 25445 103871,103923,103897
 1.8000e+001 104419 -1.2196e-001 -8.1789e-002 -7.2366e-002 25083 104220,104298,104272
 1.8000e+001 104396 -2.7365e-001 -2.7282e-001 -3.3558e-003 25083 104220,104324,104298
 1.8000e+001 104373 -8.0084e-002 -7.4164e-002 -3.8413e-002 25083 104220,104272,104246
 1.8000e+001 104350 -2.6689e-001 -2.8867e-001 -7.4005e-003 25083 104194,104324,104220
 1.8000e+001 105102  7.9409e-002 -1.7167e-001  4.1071e-002 24793 104785,104863,104837
 1.8000e+001 105079  1.0259e-001 -2.4345e-001 -1.1436e-001 24793 104759,104863,104785
 1.8000e+001 105056  6.0556e-002 -2.8111e-002 -1.2193e-001 24793 104759,104915,104863
 1.8000e+001 105033  7.4271e-002 -1.2207e-001 -1.5343e-001 24793 104733,104915,104759
 1.8000e+001 105010  3.4950e-001  1.0038e-001 -1.5057e-001 24793 104863,104915,104889
 1.8000e+001 104987 -9.4198e-002  1.3880e-002 -2.7839e-001 24793 104681,104915,104733
 1.8000e+001 104964  1.1670e-003 -2.5108e-001  1.4641e-003 24793 104785,104837,104811
 1.8000e+001 104941 -5.0532e-002  2.4967e-001 -2.5507e-001 24793 104681,104733,104707
 1.8000e+001 105252  9.5933e-001  3.3486e-001 -4.4604e-002 24389 105477,105275,105177
 1.8000e+001 105229  3.4966e-001  8.0255e-002  2.1134e-001 24389 105347,105275,105151
 1.8000e+001 105301  8.9777e-001  2.0062e-001 -1.9352e-002 24389 105203,105177,105275
 1.8000e+001 105324  1.2857e+000  9.0891e-001  3.2363e-001 24389 105203,105275,105125
 1.8000e+001 105373  9.8015e-001  4.5103e-001  9.9765e-003 24389 105125,105275,105347
 1.8000e+001 105503  7.0352e-001 -1.6573e-001 -1.3648e-001 24389 105151,105275,105477
 1.8000e+001 106088 -2.9110e-001  3.2315e-001  3.6426e-001 23735 105791,105921,105895
 1.8000e+001 106065 -9.6329e-001  1.2397e-001  4.8167e-001 23735 105765,105921,105791
 1.8000e+001 106042 -4.9354e-002  5.3741e-001  2.9121e-001 23735 105765,105947,105921
 1.8000e+001 106019 -1.1737e+000 -1.3230e-002  4.5654e-001 23735 105817,105895,105869
 1.8000e+001 105996 -7.4138e-001  1.4275e-001  4.5538e-001 23735 105791,105895,105817
 1.8000e+001 105973 -7.0106e-001 -1.9241e-001  4.6317e-001 23735 105817,105869,105843
 1.8000e+001 106417  4.3970e-001  9.3000e-001 -1.4716e-001 23295 106218,106296,106270
 1.8000e+001 106394  3.5204e-001  4.1374e-001 -1.4993e-001 23295 106218,106322,106296
 1.8000e+001 106371  1.4601e-001  2.8291e-001 -2.3892e-001 23295 106218,106270,106244
 1.8000e+001 106348  5.2786e-001  4.8889e-001 -5.9844e-002 23295 106192,106322,106218
 1.8000e+001 106746  9.1303e-002  3.5056e-001  1.6327e-001 23005 106521,106599,106547
 1.8000e+001 106723  4.5806e-001  6.9572e-001  2.0607e-002 23005 106521,106651,106599
 1.8000e+001 106700  5.3813e-001  1.8548e-001 -1.9841e-001 23005 106547,106599,106573
 1.8000e+001 106677  5.8281e-001  6.6207e-001  3.3539e-001 23005 106599,106651,106625
 1.8000e+001 107331 -1.6909e-002  6.4423e-002 -8.3403e-002 22601 107060,107190,107138
 1.8000e+001 107308 -1.9757e-001  2.3237e-001 -1.4717e-001 22601 107034,107190,107060
 1.8000e+001 107285 -5.2237e-001 -1.4551e-001 -6.9878e-002 22601 107060,107138,107112
 1.8000e+001 107262 -3.0875e-001  4.0469e-001  2.2236e-001 22601 107008,107190,107034
 1.8000e+001 107239  1.1020e-001 -7.7653e-001  8.8297e-002 22601 107060,107112,107086
 1.8000e+001 107216 -3.0303e-001  6.6337e-001  1.3894e-001 22601 107138,107190,107164
 1.8000e+001 107807 -1.8544e-001  1.1269e-001 -3.3992e-002 22031 107974,107902,107617
 1.8000e+001 107784 -2.1411e-001  2.5472e-001 -1.0917e-001 22031 107830,107565,107513
 1.8000e+001 107761 -6.8648e-002  7.0958e-002 -1.2713e-001 22031 108046,107830,107513
 1.8000e+001 107738 -1.2242e-001  2.2929e-001  1.4827e-002 22031 107974,107617,107591
 1.8000e+001 107715 -8.9795e-002  2.1080e-002 -1.2868e-001 22031 108046,107513,107461
 1.8000e+001 107692 -5.9084e-001  3.4913e-001 -1.9394e-001 22031 107513,107565,107539
 1.8000e+001 107669  4.8216e-002  1.9576e-001 -2.0676e-001 22031 107461,107513,107487
 1.8000e+001 107856 -2.8230e-001  1.8012e-001 -6.4300e-002 22031 107902,107565,107830
 1.8000e+001 107879 -1.3198e-001 -5.3709e-002  1.8772e-003 22031 107643,107830,107435
 1.8000e+001 107928 -4.7158e-001  2.2249e-001 -2.2560e-001 22031 107643,107617,107902
 1.8000e+001 107951 -2.8235e-001  1.6294e-001  3.1326e-002 22031 107643,107902,107830
 1.8000e+001 108000 -2.3725e-001  2.7890e-001 -5.3933e-002 22031 107565,107902,107974
 1.8000e+001 108023 -2.3187e-001  2.4787e-001 -4.4807e-002 22031 107565,107974,107591
 1.8000e+001 108072 -2.7583e-002  1.0388e-002 -5.3409e-002 22031 107435,107830,108046
 1.8000e+001 108095 -6.1860e-002 -6.9032e-002 -5.6198e-002 22031 107435,108046,107461
 1.8000e+001 108196  1.8293e-002 -2.9190e-002  1.2473e-002 21783 108118,108170,108144
 1.8000e+001 108655  1.1913e-001  6.8234e-001  4.0294e-001 21379 108407,108485,108459
 1.8000e+001 108632  1.3769e+000  3.7827e-002  5.4093e-001 21379 108407,108511,108485
 1.8000e+001 108609  1.4244e+000  3.5665e-002  5.1877e-001 21379 108381,108511,108407
 1.8000e+001 108586  5.7176e-001  6.0441e-001 -3.0594e-001 21379 108381,108537,108511
 1.8000e+001 108563  3.6278e-001  9.2823e-002  1.8342e-001 21379 108407,108459,108433
 1.8000e+001 109082  4.2083e-002 -1.6460e-001 -1.4285e-002 20974 109105,108863,108811
 1.8000e+001 109059 -5.0458e-002 -2.0623e-001 -5.7169e-004 20974 109105,108811,108759
 1.8000e+001 109036  2.1896e-003 -4.4125e-001  5.1041e-002 20974 109177,108889,108863
 1.8000e+001 109013 -3.5848e-002 -1.7355e-001  1.0316e-002 20974 108811,108863,108837
 1.8000e+001 108990  4.0932e-002 -1.5374e-002 -3.2901e-003 20974 108759,108941,108915
 1.8000e+001 108967  1.2348e-002 -1.3896e-002 -8.0175e-004 20974 108759,108811,108785
 1.8000e+001 109131 -4.1361e-002 -3.4624e-001  1.1883e-002 20974 109177,108863,109105
 1.8000e+001 109154  1.0786e-003 -1.1645e-002 -9.7435e-003 20974 108915,109105,108759
 1.8000e+001 109203 -3.2674e-002 -3.6750e-001 -7.1684e-002 20974 108915,108889,109177
 1.8000e+001 109226  6.0805e-003 -1.2553e-001 -9.3507e-002 20974 108915,109177,109105
 1.8000e+001 109496 -3.6037e-001  8.4741e-002 -4.2054e-002 20470 109271,109375,109297
 1.8000e+001 109473 -3.2454e-001  1.3229e-001 -6.4990e-002 20470 109271,109401,109375
 1.8000e+001 109450 -4.3971e-001 -3.0395e-003 -7.5753e-002 20470 109297,109375,109349
 1.8000e+001 109427 -6.3834e-001 -3.9108e-001  1.3619e-001 20470 109297,109349,109323
 1.8000e+001 109955  1.0050e-001  5.9370e-001  3.7544e-001 20123 110050,109733,109707
 1.8000e+001 109932 -2.3178e-001  3.8954e-001  2.8938e-001 20123 110050,109707,109681
 1.8000e+001 109909  1.7309e-001  2.5690e-001  3.0725e-001 20123 109978,109759,109733
 1.8000e+001 109886  2.7956e-002  1.8273e-001  2.7587e-001 20123 110122,109978,109733
 1.8000e+001 109863  1.9309e-001  9.9229e-002  2.0733e-001 20123 109785,109837,109811
 1.8000e+001 110004  1.5098e-001  2.3295e-001  2.4202e-001 20123 109785,109759,109978
 1.8000e+001 110027  1.2159e-001  1.9572e-001  1.9305e-001 20123 109785,109978,109837
 1.8000e+001 110076 -5.4343e-002  2.9165e-001  2.2527e-001 20123 110122,109733,110050
 1.8000e+001 110099 -5.2140e-002  3.9414e-001  1.3669e-001 20123 109837,110050,109681
 1.8000e+001 110148  1.8549e-001  3.3616e-001  2.1228e-001 20123 109837,109978,110122
 1.8000e+001 110171  1.1239e-001  4.3270e-001  1.6101e-001 20123 109837,110122,110050
 1.8000e+001 110500  4.9551e-001  4.8537e-002 -1.7923e-002 19511 110301,110379,110353
 1.8000e+001 110477  1.0306e+000  5.1438e-001 -2.4215e-001 19511 110301,110405,110379
 1.8000e+001 110454  4.1985e-001  1.6729e-001 -2.0196e-002 19511 110275,110405,110301
 1.8000e+001 110431  4.5130e-001  2.0508e-002  9.4335e-002 19511 110301,110353,110327
 1.8000e+001 110957  1.4344e-001  9.6906e-001 -1.9336e-001 19107 110683,110735,110709
 1.8000e+001 110934  3.0471e-001  2.0282e-001 -5.5632e-001 19107 110683,110813,110735
 1.8000e+001 110911  6.9935e-001  8.9855e-001 -3.9787e-001 19107 110735,110813,110761
 1.8000e+001 110888  6.3534e-001 -8.6662e-002  1.6044e-001 19107 110683,110839,110813
 1.8000e+001 110865  5.9799e-001  6.1827e-001 -4.6017e-001 19107 110761,110813,110787
 1.8000e+001 111335  2.9584e-001 -5.1137e-001  1.2125e-001 18653 111087,111165,111139
 1.8000e+001 111312  5.1764e-001  1.9233e-003 -5.0898e-002 18653 111087,111217,111165
 1.8000e+001 111289  1.6093e-001 -2.1724e-001  4.0333e-001 18653 111061,111217,111087
 1.8000e+001 111266  3.6040e-001 -7.2578e-001  3.4570e-001 18653 111087,111139,111113
 1.8000e+001 111243  4.2565e-001 -1.2813e-001 -1.7443e-001 18653 111165,111217,111191
 1.8000e+001 111735 -4.8936e-001 -2.7027e-001  9.1980e-002 18213 111461,111513,111487
 1.8000e+001 111712 -3.6018e-001 -3.1442e-001  4.1441e-002 18213 111461,111617,111513
 1.8000e+001 111689 -2.8497e-001 -1.3729e-001  4.6561e-002 18213 111513,111617,111591
 1.8000e+001 111666 -1.3609e-001 -1.6628e-001  8.7285e-002 18213 111513,111591,111539
 1.8000e+001 111643 -1.1011e-002 -7.8702e-002  4.0383e-002 18213 111539,111591,111565
 1.8000e+001 111885  3.2671e-001 -1.1762e+000  1.1677e-001 17659 111784,111836,111810
 1.8000e+001 111862  4.3859e-001 -6.8478e-001  3.2003e-001 17659 111758,111836,111784
 1.8000e+001 112287 -6.6275e-002 -6.9416e-001 -2.8643e-001 17411 112065,112169,112143
 1.8000e+001 112264 -3.7915e-001 -2.5755e-001 -2.5663e-001 17411 112039,112169,112065
 1.8000e+001 112241 -2.1311e-001 -7.7755e-002 -3.7913e-002 17411 112013,112169,112039
 1.8000e+001 112218  2.5472e+000 -3.7124e-001 -6.5650e-001 17411 112091,112143,112117
 1.8000e+001 112195  3.9734e-002 -6.4679e-001 -8.3871e-002 17411 112065,112143,112091
 1.8000e+001 112508 -3.4097e-001  3.2182e-001  5.0720e-002 17007 112384,112436,112410
 1.8000e+001 112485 -2.2508e-001  4.3620e-001  1.0001e-001 17007 112332,112436,112384
 1.8000e+001 112462 -3.3207e-001  2.2709e-001  6.2250e-002 17007 112332,112384,112358
 1.8000e+001 112658 -8.7469e-001 -4.0134e-001  2.9579e-001 16553 112557,112609,112583
 1.8000e+001 112635 -1.3774e+000 -9.1290e-002  3.8089e-001 16553 112531,112609,112557
 1.8000e+001 112761  4.6059e-002 -2.8251e-001  1.3014e-002 16355 112683,112735,112709
 1.8000e+001 112913 -5.9318e-001  4.0737e-001  4.1702e-002 15949 112786,112838,112812
 1.8000e+001 112890 -2.4028e-001  1.0216e+000 -1.2191e-001 15949 112786,112864,112838
 1.8000e+001 113065  2.3874e-002 -1.3922e-001 -2.4096e-003 15609 112938,112990,112964
 1.8000e+001 113042 -3.6808e-002 -3.0796e-001 -8.3847e-002 15609 112938,113016,112990
 1.8000e+001 113420  4.9470e-001  3.9125e-001  1.2590e-001 15284 113247,113325,113299
 1.8000e+001 113397  4.7799e-001  3.4863e-001  5.6197e-002 15284 113195,113325,113247
 1.8000e+001 113374  3.7425e-001  3.0693e-001  5.6428e-002 15284 113195,113247,113221
 1.8000e+001 113351  4.3312e-001  5.9951e-001  1.2906e-001 15284 113247,113299,113273
 1.8000e+001 113521  1.6551e-002 -3.8592e-002  9.6884e-003 202 113443,113495,113469
 1.8500e+001 65564 -5.4824e-004  2.9101e-004  7.1128e-002 65155 65414,65466,65440
 1.8500e+001 65541  6.6982e-002 -1.0939e-001 -1.0830e-002 65155 65414,65492,65466
 1.8500e+001 65518 -2.2754e-003 -1.4575e-001  3.5602e-003 65155 65388,65492,65414
 1.8500e+001 65883  1.7060e-001 -8.0683e-001 -3.5324e-002 64957 65635,65739,65713
 1.8500e+001 65860  1.3516e-001 -1.2302e+000 -7.7304e-002 64957 65635,65765,65739
 1.8500e+001 65837 -9.7773e-002 -1.3631e+000 -2.9723e-003 64957 65609,65765,65635
 1.8500e+001 65814  1.4351e-001 -1.0113e+000  2.7878e-001 64957 65635,65713,65687
 1.8500e+001 65791  3.0942e-002 -1.2354e+000  1.5734e-001 64957 65635,65687,65661
 1.8500e+001 65984 -2.7058e-002 -3.9814e-002  4.5310e-002 64781 65906,65958,65932
 1.8500e+001 66232 -4.2988e-001 -5.2522e-001  4.7742e-001 64469 66007,66059,66033
 1.8500e+001 66209  7.1722e-002 -6.7375e-001  5.1291e-001 64469 66007,66085,66059
 1.8500e+001 66186 -2.6939e-001 -1.4340e+000  6.7626e-001 64469 66007,66137,66085
 1.8500e+001 66163 -1.3140e-001 -1.7624e+000  1.3618e+000 64469 66085,66137,66111
 1.8500e+001 66504  9.2430e-003 -1.1466e+000  3.0801e-002 64271 66279,66383,66305
 1.8500e+001 66481  1.2524e-001 -1.1474e+000 -3.9750e-002 64271 66279,66409,66383
 1.8500e+001 66458  2.2041e-001 -1.4553e+000  3.0755e-002 64271 66305,66357,66331
 1.8500e+001 66435 -8.2973e-002 -1.3094e+000  7.0963e-002 64271 66305,66383,66357
 1.8500e+001 66705  3.7899e-001 -3.3150e+000  2.9918e-001 64073 66728,66581,66555
 1.8500e+001 66682  3.1545e-001 -2.3770e+000  5.2569e-001 64073 66728,66555,66529
 1.8500e+001 66659  1.7900e-001 -2.1609e+000 -3.3359e-001 64073 66581,66633,66607
 1.8500e+001 66754 -1.7294e-001 -2.4385e+000 -4.1002e-002 64073 66633,66581,66728
 1.8500e+001 66777  2.7311e-002 -1.1892e+000  4.0338e-002 64073 66633,66728,66529
 1.8500e+001 66951 -1.7927e-001 -5.6847e-001 -7.3328e-002 63783 66824,66876,66850
 1.8500e+001 66928  6.5588e-001 -4.5975e-001  2.6219e-001 63783 66824,66902,66876
 1.8500e+001 67201 -6.1533e-001 -1.6068e+000 -1.6193e-001 63585 66976,67080,67054
 1.8500e+001 67178 -1.3800e-001 -1.4299e+000  9.6172e-002 63585 66976,67106,67080
 1.8500e+001 67155  2.9271e-001 -1.8193e+000 -6.5121e-001 63585 66976,67054,67028
 1.8500e+001 67132  5.4147e-002 -2.4164e+000 -5.4629e-001 63585 66976,67028,67002
 1.8500e+001 67654  9.0229e-002 -8.8414e-001 -2.1503e-002 63295 67357,67487,67383
 1.8500e+001 67631  9.6350e-002 -1.1053e+000  1.3300e-001 63295 67331,67487,67357
 1.8500e+001 67608 -6.7023e-002 -1.3026e+000 -2.0122e-002 63295 67331,67513,67487
 1.8500e+001 67585  1.7973e-003 -1.3250e+000  6.0467e-003 63295 67435,67487,67461
 1.8500e+001 67562 -6.6264e-002 -1.3455e+000  2.2892e-003 63295 67383,67487,67435
 1.8500e+001 67539  2.9441e-002 -1.2329e+000  4.4653e-002 63295 67383,67435,67409
 1.8500e+001 67853 -8.2990e-002 -1.2183e+000  5.5842e-003 62891 67876,67703,67677
 1.8500e+001 67830 -6.1507e-002 -1.2630e+000 -2.2146e-002 62891 67876,67677,67781
 1.8500e+001 67807  8.6707e-003 -1.0594e+000 -8.2059e-002 62891 67948,67729,67703
 1.8500e+001 67902 -4.1899e-002 -1.1983e+000  1.2828e-002 62891 67948,67703,67876
 1.8500e+001 67925 -2.0155e-001 -1.1783e+000  4.9378e-002 62891 67755,67876,67781
 1.8500e+001 67974 -1.0023e-001 -8.7344e-001 -8.4913e-002 62891 67755,67729,67948
 1.8500e+001 67997 -7.4324e-002 -9.4486e-001 -1.0083e-002 62891 67755,67948,67876
 1.8500e+001 68218  3.0489e-002 -1.4607e-003 -3.8122e-002 62693 68042,68120,68068
 1.8500e+001 68195 -5.5707e-003  4.1015e-003  9.0784e-003 62693 68042,68146,68120
 1.8500e+001 68172 -9.5834e-002  1.4372e-001 -2.8734e-002 62693 68068,68120,68094
 1.8500e+001 68468  1.1745e-001 -1.2629e+000 -2.9950e-001 62289 68491,68295,68269
 1.8500e+001 68445 -4.4683e-002 -1.4445e+000 -2.9837e-002 62289 68563,68491,68269
 1.8500e+001 68422 -1.6763e-001 -1.0183e+000  3.1367e-001 62289 68563,68269,68243
 1.8500e+001 68399 -4.9124e-001 -6.9958e-001 -8.2462e-002 62289 68295,68347,68321
 1.8500e+001 68517  2.0186e-001 -8.2914e-001 -3.1947e-001 62289 68347,68295,68491
 1.8500e+001 68540 -1.3314e-001 -9.9622e-001 -2.5880e-001 62289 68347,68491,68373
 1.8500e+001 68589  2.8087e-001 -5.8797e-001 -9.4214e-002 62289 68373,68491,68563
 1.8500e+001 68612 -1.2224e-002 -4.5473e-001  2.7063e-001 62289 68373,68563,68243
 1.8500e+001 68911 -8.0323e-002 -1.1834e+000 -4.6207e-003 62091 69222,68934,68741
 1.8500e+001 68888  1.2070e-001 -1.1562e+000 -4.5439e-002 62091 69006,68934,68689
 1.8500e+001 68865  1.6077e-001 -1.1292e+000  1.0807e-002 62091 69006,68689,68663
 1.8500e+001 68842 -1.3730e-001 -1.2029e+000 -1.4183e-001 62091 69078,68793,68767
 1.8500e+001 68819 -2.0626e-001 -1.2548e+000  1.4422e-001 62091 69222,68741,68715
 1.8500e+001 68960 -1.9882e-001 -1.1975e+000  1.0506e-002 62091 68767,68741,68934
 1.8500e+001 68983 -6.6558e-002 -1.2498e+000 -4.1922e-002 62091 69078,68767,68934
 1.8500e+001 69032  1.0525e-001 -1.1664e+000 -2.7669e-002 62091 69150,69006,68637
 1.8500e+001 69055  9.4458e-002 -1.1808e+000 -1.4060e-002 62091 68637,69006,68663
 1.8500e+001 69104 -3.8268e-002 -9.7166e-001 -6.9665e-002 62091 68637,68793,69078
 1.8500e+001 69127  7.2993e-002 -1.1234e+000 -9.2834e-003 62091 69150,68637,69078
 1.8500e+001 69176  3.5073e-002 -1.1817e+000 -5.1323e-002 62091 68934,69006,69150
 1.8500e+001 69199 -3.0594e-002 -1.1604e+000 -2.3286e-002 62091 68934,69150,69078
 1.8500e+001 69248 -8.3045e-003 -1.0377e+000 -3.7210e-002 62091 68689,68934,69222
 1.8500e+001 69271 -3.2701e-002 -9.9048e-001  6.8404e-002 62091 68689,69222,68715
 1.8500e+001 69521 -4.7209e-004 -2.2654e-001 -1.1430e-001 61893 69544,69348,69296
 1.8500e+001 69498  3.1176e-002 -2.6949e-001 -5.5574e-002 61893 69544,69296,69400
 1.8500e+001 69475  1.3055e-002 -6.8101e-002  1.0307e-001 61893 69296,69426,69400
 1.8500e+001 69452  4.8821e-002 -1.4805e+000 -3.2338e-001 61893 69296,69348,69322
 1.8500e+001 69570  1.9210e-002 -1.6847e-001 -1.1524e-001 61893 69374,69348,69544
 1.8500e+001 69593  5.6414e-002 -1.9514e-001 -4.7754e-002 61893 69374,69544,69400
 1.8500e+001 70046  6.7058e-002 -9.5214e-001 -9.3200e-003 61467 69749,69905,69879
 1.8500e+001 70023  1.4243e-001 -7.4931e-001  2.1384e-001 61467 69723,69905,69749
 1.8500e+001 70000  5.2438e-002 -1.0077e+000 -3.4693e-002 61467 70069,69827,69775
 1.8500e+001 69977 -1.1925e-001 -1.4541e+000  1.1692e-001 61467 70069,69775,69749
 1.8500e+001 69954 -4.8743e-002 -7.2062e-001 -3.4028e-002 61467 70141,69853,69827
 1.8500e+001 69931  9.5371e-002 -1.2998e+000 -3.9380e-001 61467 69775,69827,69801
 1.8500e+001 70095  7.8772e-003 -7.9773e-001 -8.4212e-002 61467 70141,69827,70069
 1.8500e+001 70118  5.9026e-002 -9.9254e-001 -9.1978e-004 61467 69879,70069,69749
 1.8500e+001 70167  3.5978e-003 -8.3756e-001 -2.8948e-002 61467 69879,69853,70141
 1.8500e+001 70190 -2.0778e-002 -1.0201e+000 -7.9698e-002 61467 69879,70141,70069
 1.8500e+001 70291 -1.0913e-001 -1.6800e+000 -1.9294e-001 61013 70213,70265,70239
 1.8500e+001 70441  2.3106e-001 -3.0079e-001 -3.0758e-002 60651 70340,70392,70366
 1.8500e+001 70418 -3.9267e-001 -2.5174e+000  1.2573e-002 60651 70314,70392,70340
 1.8500e+001 70642  6.7844e-002 -8.0444e-001 -2.4698e-001 60311 70665,70492,70466
 1.8500e+001 70619 -1.7058e-001 -1.4264e+000 -3.5987e-001 60311 70665,70466,70570
 1.8500e+001 70596 -3.4250e+000 -1.2399e-001  2.6001e-001 60311 70492,70544,70518
 1.8500e+001 70691  6.3326e-002 -1.7123e-001  3.9144e-001 60311 70544,70492,70665
 1.8500e+001 70714 -3.2461e-001 -1.1177e+000  2.9164e-001 60311 70544,70665,70570
 1.8500e+001 70964  2.9683e-001 -1.3854e+000  1.3739e-001 59907 70987,70765,70739
 1.8500e+001 70941  2.8045e-001 -1.4482e+000 -6.7642e-002 59907 71059,70987,70739
 1.8500e+001 70918  1.4308e-001 -1.6954e+000 -5.4700e-003 59907 71059,70739,70869
 1.8500e+001 70895  1.5202e-001 -1.2303e+000 -1.3963e-003 59907 70817,70869,70843
 1.8500e+001 71013  1.2869e+000 -9.0180e-001  5.8712e-001 59907 70791,70765,70987
 1.8500e+001 71036  3.9967e-001 -1.5524e+000  1.7874e-001 59907 70791,70987,70817
 1.8500e+001 71085  1.1506e-001 -1.2963e+000 -4.6080e-002 59907 70817,70987,71059
 1.8500e+001 71108  1.2588e-001 -1.3657e+000 -4.8152e-002 59907 70817,71059,70869
 1.8500e+001 71441 -1.0126e+000 -1.6851e+000  5.9340e-001 59417 71464,71242,71216
 1.8500e+001 71418 -7.2894e-001 -1.1232e+000  8.2005e-001 59417 71464,71216,71320
 1.8500e+001 71395 -6.7238e-001 -8.9316e-001  7.9008e-001 59417 71216,71346,71320
 1.8500e+001 71372 -5.6346e-001 -1.4100e+000  1.1775e-001 59417 71268,71320,71294
 1.8500e+001 71490 -1.2686e+000 -1.7177e+000 -1.1259e-002 59417 71268,71242,71464
 1.8500e+001 71513 -1.0056e+000 -8.6512e-001  1.8936e-001 59417 71268,71464,71320
 1.8500e+001 71712  1.6314e+000  1.4479e+000  4.7605e-001 58913 71562,71614,71588
 1.8500e+001 71689  9.8168e-001  1.0156e+000  2.7010e-001 58913 71536,71614,71562
 1.8500e+001 71666  5.2965e-001  1.9279e+000 -1.7356e-001 58913 71536,71640,71614
 1.8500e+001 72171 -1.2068e+000 -2.2825e+000  5.1045e-001 58409 72194,72027,72001
 1.8500e+001 72148 -8.4665e-001 -2.7015e+000  5.0576e-003 58409 72194,72001,71949
 1.8500e+001 72125 -3.3266e-001 -1.3297e+000 -1.0533e-002 58409 71923,72053,71949
 1.8500e+001 72102 -1.4305e+000 -2.9716e+000  7.3288e-002 58409 71949,72001,71975
 1.8500e+001 72079  2.4697e-001 -8.6339e-001  2.7013e-001 58409 71897,72053,71923
 1.8500e+001 72220 -6.3005e-001 -1.9865e+000  6.4784e-001 58409 72053,72027,72194
 1.8500e+001 72243 -3.9578e-001 -2.3759e+000  1.5189e-001 58409 72053,72194,71949
 1.8500e+001 72491  8.6255e-001  1.2724e+000  3.3397e-001 57855 72514,72318,72292
 1.8500e+001 72468  1.1132e+000  1.1080e+000  7.0908e-001 57855 72514,72292,72266
 1.8500e+001 72445  7.2262e-001  1.2489e+000  3.9888e-001 57855 72318,72396,72370
 1.8500e+001 72422  5.8574e-001  1.3660e+000  3.2500e-001 57855 72318,72370,72344
 1.8500e+001 72540  8.3081e-001  1.4692e+000  4.3455e-001 57855 72396,72318,72514
 1.8500e+001 72563  8.5679e-001  1.6693e+000  5.6040e-001 57855 72396,72514,72266
 1.8500e+001 72811 -2.5961e-001 -2.3249e+000  1.2182e+000 57401 72612,72690,72638
 1.8500e+001 72788 -2.3021e+000 -3.1896e+000  1.5937e+000 57401 72586,72690,72612
 1.8500e+001 72765  3.8698e+000 -3.9739e+000  1.5408e-001 57401 72638,72690,72664
 1.8500e+001 72742  2.5667e-001 -1.3627e+000  7.4487e-001 57401 72586,72716,72690
 1.8500e+001 73144 -9.8774e-002 -1.1453e+000 -2.7909e-002 57004 72919,72997,72945
 1.8500e+001 73121 -1.8417e-001 -1.4186e+000  5.4271e-002 57004 72919,73049,72997
 1.8500e+001 73098 -2.2873e-001 -1.0270e+000 -1.3065e-001 57004 72945,72997,72971
 1.8500e+001 73075 -1.6074e-001 -1.4044e+000  8.7948e-002 57004 72997,73049,73023
 1.8500e+001 73650 -4.1977e-001 -3.3832e+000  1.6130e-001 56592 73673,73379,73353
 1.8500e+001 73627 -2.7722e-001 -2.5956e+000  1.0921e+000 56592 73673,73353,73327
 1.8500e+001 73604  6.6226e-002 -1.7156e+000  7.3513e-001 56592 73745,73509,73483
 1.8500e+001 73581  5.9200e-001 -2.6949e+000  5.6167e-001 56592 73379,73457,73405
 1.8500e+001 73558  1.3505e+000 -2.5931e+000  9.9158e-001 56592 73379,73483,73457
 1.8500e+001 73535  2.0128e+000 -1.5749e+000  1.0666e+000 56592 73405,73457,73431
 1.8500e+001 73699  2.9127e-002 -2.8231e+000  8.0378e-001 56592 73483,73379,73673
 1.8500e+001 73722  2.7947e-001 -2.7980e+000  1.1033e+000 56592 73745,73483,73673
 1.8500e+001 73771  9.5270e-002 -1.4112e-002  4.4146e-001 56592 73327,73509,73745
 1.8500e+001 73794  1.3722e-001 -1.0932e+000  1.0239e+000 56592 73327,73745,73673
 1.8500e+001 74123  6.1033e-002 -4.2482e-002 -7.5917e-001 56152 74146,74002,73924
 1.8500e+001 74100  3.2472e-001 -1.9128e-001 -4.6606e-001 56152 74146,73924,73898
 1.8500e+001 74077  1.0347e+000  6.9097e-001 -1.0827e+000 56152 73924,74002,73976
 1.8500e+001 74054  2.5623e-001 -1.0797e+000  2.3384e-001 56152 73924,73976,73950
 1.8500e+001 74172 -5.8642e-002  5.2796e-001 -6.4387e-001 56152 74028,74002,74146
 1.8500e+001 74195  2.6877e-001  1.3962e-001 -3.2663e-001 56152 74028,74146,73898
 1.8500e+001 74345  1.5788e+000 -4.0193e-001 -1.0139e+000 55634 74218,74270,74244
 1.8500e+001 74322 -2.5166e-001 -4.4178e-001 -5.3520e-001 55634 74218,74296,74270
 1.8500e+001 74823 -1.4149e-001 -2.8080e+000  3.6159e-001 55016 74918,74846,74581
 1.8500e+001 74800 -4.1042e-001 -2.7973e+000  1.0480e-001 55016 74846,74477,74633
 1.8500e+001 74777 -6.6226e-001 -3.1876e+000  5.3405e-001 55016 74918,74581,74555
 1.8500e+001 74754 -5.7684e-001 -2.4423e+000 -7.3756e-002 55016 74990,74503,74477
 1.8500e+001 74731 -3.4673e-001 -3.2943e+000 -6.9737e-001 55016 74451,74633,74477
 1.8500e+001 74708 -1.5335e+000 -2.2514e+000 -1.0272e+000 55016 74451,74659,74633
 1.8500e+001 74685 -1.5199e+000 -1.0600e+000  9.0181e-001 55016 74503,74555,74529
 1.8500e+001 74872 -5.5064e-001 -3.7236e+000  4.4711e-001 55016 74607,74581,74846
 1.8500e+001 74895 -2.2330e-001 -3.0534e+000  1.8897e-001 55016 74607,74846,74633
 1.8500e+001 74944 -6.9606e-001 -3.1236e+000  2.3449e-001 55016 74477,74846,74918
 1.8500e+001 74967 -4.5280e-001 -2.5848e+000  1.7951e-001 55016 74990,74477,74918
 1.8500e+001 75016 -1.0076e+000 -2.6082e+000  2.0183e-001 55016 74555,74503,74990
 1.8500e+001 75039 -9.7698e-001 -2.9397e+000  4.7173e-001 55016 74555,74990,74918
 1.8500e+001 75287 -9.1203e-001 -6.6111e+000  9.4430e-001 54726 75310,75140,75114
 1.8500e+001 75264 -1.4443e+000 -5.6644e+000  6.3485e-001 54726 75310,75114,75088
 1.8500e+001 75241  2.2167e-001 -4.6330e+000  1.4775e-001 54726 75088,75192,75166
 1.8500e+001 75218 -8.2413e-001 -1.0126e+000  9.1715e-001 54726 75062,75192,75088
 1.8500e+001 75336 -1.4052e-001 -6.0116e+000  4.6166e-001 54726 75166,75140,75310
 1.8500e+001 75359 -1.2135e+000 -5.2021e+000  3.6492e-001 54726 75166,75310,75088
 1.8500e+001 75946 -1.3556e-001 -5.2250e-001 -2.1665e-001 54322 75969,75701,75649
 1.8500e+001 75923  1.6905e-001 -3.6982e-001 -2.7403e-001 54322 75969,75649,75623
 1.8500e+001 75900 -2.0203e-002 -3.8025e-001 -5.4499e-002 54322 76041,75753,75701
 1.8500e+001 75877 -5.6765e-002 -8.4403e-001 -6.1711e-002 54322 75623,75805,75779
 1.8500e+001 75854 -6.3795e-002 -4.7486e-001  1.3960e-001 54322 75701,75753,75727
 1.8500e+001 75831 -3.9404e-003 -1.4305e-001 -9.7629e-002 54322 75649,75701,75675
 1.8500e+001 75995  8.7006e-002 -4.3381e-001 -1.3862e-001 54322 76041,75701,75969
 1.8500e+001 76018  1.0616e-001 -5.5499e-001 -1.4565e-001 54322 75779,75969,75623
 1.8500e+001 76067 -1.0035e-001 -5.2186e-001 -1.3548e-002 54322 75779,75753,76041
 1.8500e+001 76090 -1.5860e-002 -6.2245e-001 -9.5189e-002 54322 75779,76041,75969
 1.8500e+001 76468 -3.5224e-002 -5.4451e-001 -9.2074e-002 53868 76491,76272,76220
 1.8500e+001 76445  5.5990e-002 -5.6915e-001 -3.6654e-002 53868 76491,76220,76324
 1.8500e+001 76422 -2.6210e-002 -7.3943e-001 -1.1993e-001 53868 76220,76272,76246
 1.8500e+001 76399  1.0099e-001 -6.3308e-001 -6.7887e-002 53868 76194,76324,76220
 1.8500e+001 76376  5.8104e-001 -4.4003e-001  5.2881e-002 53868 76194,76350,76324
 1.8500e+001 76517  1.8038e-002 -4.9388e-001 -4.3494e-002 53868 76298,76272,76491
 1.8500e+001 76540  1.0740e-001 -5.3282e-001  7.7618e-003 53868 76298,76491,76324
 1.8500e+001 76690 -3.6480e-003 -6.9857e-001  6.5741e-002 53356 76589,76641,76615
 1.8500e+001 76667 -2.1887e-001 -9.4252e-001 -2.7885e-002 53356 76563,76641,76589
 1.8500e+001 76938  2.0654e-001  2.7675e-001  1.1020e-001 53009 77105,76961,76765
 1.8500e+001 76915 -1.2106e-001 -1.7097e+000 -6.0935e-001 53009 76961,76713,76843
 1.8500e+001 76892 -2.4195e-001 -8.1644e-001  2.8621e-002 53009 77033,76817,76791
 1.8500e+001 76869  6.3178e-001  1.6909e+000 -2.0068e-002 53009 77105,76765,76739
 1.8500e+001 76987 -2.9344e-001 -8.3483e-001 -1.8273e-001 53009 76791,76765,76961
 1.8500e+001 77010 -1.9984e-001 -5.4644e-001 -2.2761e-001 53009 77033,76791,76961
 1.8500e+001 77059  1.7408e-001 -5.8417e-001 -2.1171e-001 53009 76843,76817,77033
 1.8500e+001 77082  1.3209e-001 -4.7138e-001 -4.5103e-001 53009 76843,77033,76961
 1.8500e+001 77131  7.6326e-001 -1.5755e-001 -1.0299e+000 53009 76713,76961,77105
 1.8500e+001 77154  9.5721e-001  3.5897e-001 -1.1906e+000 53009 76713,77105,76739
 1.8500e+001 77355  2.9822e-001 -4.1833e+000  3.5397e-001 52390 77378,77257,77231
 1.8500e+001 77332  4.5889e-001 -5.5302e+000  5.6426e-001 52390 77378,77231,77179
 1.8500e+001 77309  1.1237e+000 -3.9354e+000  4.9360e-001 52390 77179,77231,77205
 1.8500e+001 77404  6.2368e-001 -5.2662e+000  1.0298e+000 52390 77283,77257,77378
 1.8500e+001 77427  5.2591e-001 -7.0700e+000  1.1333e+000 52390 77283,77378,77179
 1.8500e+001 77677 -1.2218e+000  1.1163e+000 -1.5382e+000 51986 77700,77504,77478
 1.8500e+001 77654 -2.8132e-001  1.0517e+000 -1.3505e+000 51986 77700,77478,77452
 1.8500e+001 77631  3.9143e-001  1.0691e+000 -1.4480e+000 51986 77772,77556,77530
 1.8500e+001 77608  3.5682e+000  2.0756e+000 -2.3155e+000 51986 77452,77582,77556
 1.8500e+001 77726 -4.3178e-001  1.4359e+000 -1.0023e+000 51986 77530,77504,77700
 1.8500e+001 77749  3.3539e-001  1.0172e+000 -1.1670e+000 51986 77772,77530,77700
 1.8500e+001 77798  6.0806e-002  9.0182e-001 -1.3336e+000 51986 77452,77556,77772
 1.8500e+001 77821 -1.1379e-001  8.8294e-001 -1.0926e+000 51986 77452,77772,77700
 1.8500e+001 78282 -9.5971e-001 -3.5692e+000 -6.4399e-002 51738 78008,78138,78060
 1.8500e+001 78259 -1.7046e+000 -4.7518e+000  2.3465e+000 51738 78008,78164,78138
 1.8500e+001 78236 -6.5946e-001 -1.8858e+000  5.1175e-001 51738 78086,78138,78112
 1.8500e+001 78213 -4.6144e-001 -1.5970e+000  6.2042e-001 51738 78060,78138,78086
 1.8500e+001 78190 -1.9474e-002 -4.8035e+000 -6.5411e-001 51738 78008,78060,78034
 1.8500e+001 78432  1.8999e-001 -4.0800e-001  1.6091e-002 51148 78305,78357,78331
 1.8500e+001 78409  1.2084e-001 -3.1461e-001  2.1831e-002 51148 78305,78383,78357
 1.8500e+001 78891 -1.7248e-001 -6.4167e-001 -1.4468e-001 50808 78914,78695,78669
 1.8500e+001 78868 -1.0050e-001 -4.6529e-001 -1.2758e-001 50808 78914,78669,78643
 1.8500e+001 78845 -8.5789e-002 -6.1042e-001 -4.0569e-001 50808 78643,78773,78747
 1.8500e+001 78822 -7.9481e-002 -6.9140e-001 -4.0031e-001 50808 78617,78773,78643
 1.8500e+001 78799 -3.1954e-001 -6.2812e-001 -1.8158e-001 50808 78695,78747,78721
 1.8500e+001 78940 -2.2599e-001 -5.1918e-001 -2.6292e-001 50808 78747,78695,78914
 1.8500e+001 78963 -1.6839e-001 -4.2370e-001 -2.3886e-001 50808 78747,78914,78643
 1.8500e+001 79260  7.8136e-002 -5.2774e-001 -8.0482e-002 50468 79283,79090,79012
 1.8500e+001 79237  2.9117e-001 -5.2738e-001 -2.2293e-002 50468 79283,79012,78986
 1.8500e+001 79214 -1.4712e-001 -6.2619e-001 -1.0356e-001 50468 79012,79090,79038
 1.8500e+001 79191  1.2336e-001 -4.8518e-001  8.0090e-002 50468 78986,79142,79116
 1.8500e+001 79168 -8.3414e-002 -6.2748e-001 -1.3053e-001 50468 79038,79090,79064
 1.8500e+001 79309 -1.3706e-001 -4.8977e-001 -9.4164e-002 50468 79116,79090,79283
 1.8500e+001 79332  1.2375e-001 -4.4380e-001 -1.9449e-002 50468 79116,79283,78986
 1.8500e+001 79889  7.0513e-001  1.0207e+000 -4.6351e-001 50064 79569,79725,79699
 1.8500e+001 79866  9.1307e-001  1.1313e+000 -3.2435e-001 50064 79543,79725,79569
 1.8500e+001 79843  7.8419e-001  6.9243e-001 -4.9806e-001 50064 79621,79699,79673
 1.8500e+001 79820  1.0057e+000  1.1860e+000 -8.0630e-001 50064 79595,79699,79621
 1.8500e+001 79797  1.5882e+000  1.2954e+000 -5.7890e-001 50064 79569,79699,79595
 1.8500e+001 79774  2.6380e-001  9.9714e-001 -2.5469e-001 50064 79517,79725,79543
 1.8500e+001 79751  4.3774e-001  6.5806e-001 -5.4716e-001 50064 79621,79673,79647
 1.8500e+001 80169  9.2768e-001  1.4563e+000 -6.4381e-001 49724 80019,80097,80071
 1.8500e+001 80146  8.6082e-001  1.7675e+000 -7.1803e-001 49724 79993,80097,80019
 1.8500e+001 80123  6.4639e-001  1.3837e+000 -7.5895e-001 49724 80019,80071,80045
 1.8500e+001 80626  2.2467e-001  3.5971e-001  2.3828e-001 49277 80352,80482,80378
 1.8500e+001 80603 -1.7186e-001  2.3850e-001 -4.2998e-002 49277 80352,80508,80482
 1.8500e+001 80580 -1.0557e-001 -3.6380e-001  3.6657e-002 49277 80378,80482,80456
 1.8500e+001 80557 -1.8627e-002 -7.0217e-001  3.1240e-001 49277 80378,80430,80404
 1.8500e+001 80534 -2.5120e-002 -2.8327e-001  2.4782e-001 49277 80378,80456,80430
 1.8500e+001 81230  3.3189e-001 -3.6227e-001  1.7265e-001 48716 81253,80835,80809
 1.8500e+001 81207  2.8315e-001 -3.5410e-001  3.8548e-001 48716 81397,81253,80809
 1.8500e+001 81184  1.2810e-002  1.0167e-001 -7.9352e-002 48716 81325,80913,80887
 1.8500e+001 81161 -1.8373e-001 -4.7877e-001  5.0771e-001 48716 81397,80809,81017
 1.8500e+001 81138 -2.2188e-001  3.1284e-001 -2.0039e-001 48716 81469,80965,80913
 1.8500e+001 81115 -1.6132e-001 -6.4360e-001  1.6696e-001 48716 80835,80887,80861
 1.8500e+001 81092  1.1942e+000 -2.4955e-001  1.0166e+000 48716 80809,81043,81017
 1.8500e+001 81069 -2.8778e-002  1.3147e-001 -3.5879e-001 48716 80913,80965,80939
 1.8500e+001 81279  9.7131e-002 -3.2211e-001  4.0650e-002 48716 80887,80835,81253
 1.8500e+001 81302 -1.2217e-001  6.6514e-002 -1.9419e-002 48716 81325,80887,81253
 1.8500e+001 81351  5.7987e-002  2.1917e-001 -9.3068e-002 48716 81469,80913,81325
 1.8500e+001 81374 -9.5755e-002  4.1693e-001  6.5002e-002 48716 80991,81325,81253
 1.8500e+001 81423 -4.4640e-001  2.5717e-002  4.8064e-001 48716 80991,81253,81397
 1.8500e+001 81446 -9.9503e-001 -1.9973e-001  6.5279e-001 48716 80991,81397,81017
 1.8500e+001 81495 -6.6224e-001  2.5492e-001 -1.7431e-001 48716 80991,80965,81469
 1.8500e+001 81518 -4.3757e-001  1.2058e-001 -6.7992e-002 48716 80991,81469,81325
 1.8500e+001 81717 -8.8296e-002 -5.7410e-001  4.7227e-002 48262 81740,81567,81541
 1.8500e+001 81694 -2.0913e-001 -5.7680e-001 -6.0026e-004 48262 81740,81541,81645
 1.8500e+001 81671 -1.5857e-001 -5.9528e-001 -2.8957e-002 48262 81567,81619,81593
 1.8500e+001 81766 -1.6409e-001 -5.8058e-001 -2.3685e-002 48262 81619,81567,81740
 1.8500e+001 81789 -2.9496e-001 -6.1004e-001 -8.0129e-002 48262 81619,81740,81645
 1.8500e+001 81939  8.1061e-001  9.5523e-001 -5.1880e-001 47957 82034,81962,81864
 1.8500e+001 81916  6.4851e-001  7.0223e-001 -1.6665e-001 47957 82166,81962,81838
 1.8500e+001 81988 -6.4194e-001  8.5731e-001 -5.7756e-001 47957 82294,81962,81890
 1.8500e+001 82011  5.1979e-001  1.5477e+000  2.5107e-001 47957 81890,81962,81812
 1.8500e+001 82060  7.4742e-001  1.5650e+000 -2.2983e-002 47957 81838,81962,82034
 1.8500e+001 82192  7.7032e-001  7.9611e-001  2.7069e-001 47957 81812,81962,82166
 1.8500e+001 82320 -1.6009e-001  9.0487e-001 -6.8062e-001 47957 81864,81962,82294
 1.8500e+001 82549 -1.7604e-002 -6.0671e-001 -1.6996e-001 47617 82448,82500,82474
 1.8500e+001 82526  2.5522e-001 -8.4265e-001 -1.7826e-003 47617 82422,82500,82448
 1.8500e+001 82902 -2.5532e-001 -8.9196e-001  1.4820e-001 47255 82729,82807,82755
 1.8500e+001 82879 -8.5368e-002 -2.1220e+000  3.9727e-001 47255 82703,82807,82729
 1.8500e+001 82856 -6.0278e-001 -9.9149e-001  5.1214e-001 47255 82755,82807,82781
 1.8500e+001 82833  1.3458e+000 -1.5088e+000  5.4133e-001 47255 82677,82807,82703
 1.8500e+001 83182  3.0402e-001 -8.5299e-001  1.0108e-001 46680 83032,83084,83058
 1.8500e+001 83159  4.6743e-001 -3.1289e-001  1.2603e-001 46680 83205,83084,83032
 1.8500e+001 83136  6.9592e-001 -1.9019e-001 -1.1196e-001 46680 83006,83110,83084
 1.8500e+001 83231  1.8201e-001 -5.1646e-001  3.1316e-002 46680 83006,83084,83205
 1.8500e+001 83737 -7.0301e-001 -2.7050e-001 -1.8598e-002 46290 83832,83760,83492
 1.8500e+001 83714 -5.4471e-001  5.6003e-002 -1.6271e-001 46290 83760,83440,83414
 1.8500e+001 83691 -4.0123e-001 -4.6154e-001 -7.3411e-002 46290 83832,83492,83466
 1.8500e+001 83668 -6.1129e-001 -9.3777e-001  1.3542e-001 46290 83492,83570,83544
 1.8500e+001 83645 -4.5764e-001 -1.6069e-001 -3.2218e-001 46290 83414,83596,83570
 1.8500e+001 83622 -7.5628e-001 -6.6125e-001  3.6715e-001 46290 83492,83544,83518
 1.8500e+001 83786 -7.1572e-001 -2.5088e-001  2.4123e-003 46290 83570,83492,83760
 1.8500e+001 83809 -6.7853e-001 -3.9198e-001 -2.0272e-001 46290 83570,83760,83414
 1.8500e+001 83858 -3.1707e-001 -5.2668e-002  8.7630e-002 46290 83440,83760,83832
 1.8500e+001 83881  2.1885e-001 -1.9437e-001 -3.1480e-002 46290 83440,83832,83466
 1.8500e+001 84161 -6.3219e-002 -7.7014e-001  3.2764e-001 45829 84011,84063,84037
 1.8500e+001 84138  2.5615e-002 -4.7027e-001  7.6987e-002 45829 84011,84089,84063
 1.8500e+001 84115  7.9761e-002 -4.4433e-001  1.3083e-001 45829 83985,84089,84011
 1.8500e+001 84311  1.0559e-001 -8.3190e-002  6.4369e-002 45631 84184,84236,84210
 1.8500e+001 84288 -1.3330e-001 -8.4281e-001 -3.7951e-002 45631 84184,84262,84236
 1.8500e+001 84657 -1.2857e-001 -4.4532e-001 -3.0179e-002 45155 84680,84490,84412
 1.8500e+001 84634 -1.8281e-001 -4.0981e-001 -1.7770e-002 45155 84680,84412,84360
 1.8500e+001 84611 -1.9410e-001 -4.8935e-001  1.7018e-002 45155 84412,84490,84438
 1.8500e+001 84588 -3.7512e-003 -3.1165e-001 -5.1421e-002 45155 84334,84516,84360
 1.8500e+001 84565 -2.1961e-001 -4.8289e-001 -1.7062e-001 45155 84360,84412,84386
 1.8500e+001 84542 -1.6924e-001 -4.1994e-001  5.5754e-002 45155 84438,84490,84464
 1.8500e+001 84706 -1.0588e-001 -4.1619e-001 -4.0707e-002 45155 84516,84490,84680
 1.8500e+001 84729 -1.4677e-001 -3.6977e-001 -3.3993e-002 45155 84516,84680,84360
 1.8500e+001 85077  2.2052e-001 -9.0530e-002  3.0571e-002 44508 85100,84754,84910
 1.8500e+001 85054  2.7300e-001  2.2917e-001  5.0314e-002 44508 84754,84936,84910
 1.8500e+001 85031  5.8688e-002 -2.6315e-001  1.9980e-001 44508 85100,84910,84884
 1.8500e+001 85008 -5.2399e-002 -2.2420e-001  3.4739e-002 44508 84780,84884,84832
 1.8500e+001 84985  1.8344e-001  2.1592e-001 -1.5097e-001 44508 84780,84832,84806
 1.8500e+001 84962  4.9136e-001  1.0731e-001 -1.0520e-001 44508 84832,84884,84858
 1.8500e+001 85126  8.7934e-002  1.7592e-001 -9.5743e-002 44508 84780,84754,85100
 1.8500e+001 85149 -3.3655e-002  6.6782e-004  5.8963e-002 44508 84780,85100,84884
 1.8500e+001 85482 -5.0147e-001 -7.3320e-001 -6.1410e-002 44104 85335,85387,85361
 1.8500e+001 85459 -4.2062e-001 -1.0756e+000 -2.6890e-002 44104 85309,85387,85335
 1.8500e+001 85436 -1.9618e-001 -8.1211e-001  1.1443e-001 44104 85257,85387,85309
 1.8500e+001 85413 -3.4696e-001 -1.3653e+000  8.4950e-002 44104 85257,85309,85283
 1.8500e+001 85811 -1.3419e-001 -2.7195e-001 -6.2156e-002 43600 85586,85664,85612
 1.8500e+001 85788 -1.8532e-001 -3.4766e-001 -3.6429e-002 43600 85586,85690,85664
 1.8500e+001 85765  5.8716e-004 -2.8900e-001 -5.7433e-002 43600 85586,85716,85690
 1.8500e+001 85742 -1.2781e-001 -2.8964e-001 -2.8300e-002 43600 85612,85664,85638
 1.8500e+001 86010 -3.1232e-002 -3.4430e-001 -1.2001e-001 43224 85886,85938,85912
 1.8500e+001 85987  8.1418e-002  7.6034e-002 -1.7390e-001 43224 85834,85938,85886
 1.8500e+001 85964 -3.4153e-001 -3.8373e-001  6.6326e-003 43224 85834,85886,85860
 1.8500e+001 86420  1.6983e+000  8.9203e-001 -3.3229e-001 42820 86195,86299,86221
 1.8500e+001 86397  1.2428e+000  7.4201e-001 -9.2206e-001 42820 86195,86325,86299
 1.8500e+001 86374  1.0797e+000  1.0631e+000 -4.5312e-002 42820 86221,86299,86273
 1.8500e+001 86351  1.0113e+000  6.1607e-001  1.0767e-001 42820 86221,86273,86247
 1.8500e+001 86749  3.8126e-001 -1.8365e-001 -2.0506e-001 42223 86550,86602,86576
 1.8500e+001 86726  9.3323e-001 -5.6337e-001 -3.1871e-002 42223 86550,86628,86602
 1.8500e+001 86703  3.0498e-002 -8.6870e-001  2.4947e-001 42223 86524,86628,86550
 1.8500e+001 86680  5.1518e-001 -5.4738e-002  4.2971e-002 42223 86524,86654,86628
 1.8500e+001 87078  6.5667e-001 -1.7082e-001  2.0968e-001 41883 87173,87101,86905
 1.8500e+001 87055  4.7784e-001  4.6841e-001 -3.8769e-002 41883 87101,86879,86853
 1.8500e+001 87032  1.1541e-001  8.2656e-002 -4.4814e-002 41883 86853,86983,86931
 1.8500e+001 87009  1.1157e-002 -2.5320e-001  1.0943e-002 41883 86931,86983,86957
 1.8500e+001 87127  7.9082e-001 -2.7220e-002 -4.7238e-002 41883 86931,86905,87101
 1.8500e+001 87150  2.0208e-001 -1.7131e-001 -8.3298e-002 41883 86931,87101,86853
 1.8500e+001 87199  1.7797e-001 -1.3625e-001  1.8538e-001 41883 86879,87101,87173
 1.8500e+001 87558  1.1065e-002  3.1542e-001 -2.4305e-002 41471 87382,87460,87408
 1.8500e+001 87535 -4.9730e-001 -6.9406e-002 -1.9736e-001 41471 87382,87486,87460
 1.8500e+001 87512 -1.9440e-001  8.8591e-002 -1.1567e-001 41471 87408,87460,87434
 1.8500e+001 87806  1.4266e-001 -1.7925e-001  4.4807e-002 41017 87829,87607,87581
 1.8500e+001 87783  9.9462e-002 -3.1752e-001  8.9089e-002 41017 87829,87581,87685
 1.8500e+001 87760  3.2824e-001 -5.2020e-002 -8.4106e-003 41017 87581,87711,87685
 1.8500e+001 87737  3.0480e-001 -7.2326e-001  4.5302e-002 41017 87633,87685,87659
 1.8500e+001 87855  1.3028e-001 -2.2864e-001  1.4873e-001 41017 87633,87607,87829
 1.8500e+001 87878  7.5248e-002 -3.7548e-001  1.9582e-001 41017 87633,87829,87685
 1.8500e+001 88258 -1.5179e-002 -3.1313e-003  4.9055e-003 40613 88281,88036,88010
 1.8500e+001 88235  1.0081e-002  1.7176e-005 -5.4438e-003 40613 88281,88010,88088
 1.8500e+001 88212  4.4530e-003 -2.5384e-002  1.2055e-002 40613 87984,88088,88010
 1.8500e+001 88189  2.7551e-003 -2.7684e-002  6.8639e-003 40613 87984,88114,88088
 1.8500e+001 88166 -1.4362e-002 -3.9635e-003 -9.8200e-005 40613 87984,88140,88114
 1.8500e+001 88307  7.8426e-003 -1.0282e-002 -5.6008e-003 40613 88062,88036,88281
 1.8500e+001 88330  4.6124e-002  8.7606e-003 -2.0694e-002 40613 88062,88281,88088
 1.8500e+001 88649  1.4624e-002 -3.7162e-002 -3.7370e-003 40095 88375,88505,88401
 1.8500e+001 88626 -2.7677e-004 -2.8326e-002 -8.9714e-003 40095 88375,88531,88505
 1.8500e+001 88603  1.5133e-002 -5.1443e-002 -1.1583e-002 40095 88401,88505,88479
 1.8500e+001 88580  1.1413e-001 -2.0417e-001 -4.2146e-002 40095 88427,88479,88453
 1.8500e+001 88557  6.1121e-003 -8.7553e-002 -5.2565e-003 40095 88401,88479,88427
 1.8500e+001 89078  9.5601e-001 -1.8106e-001 -1.9471e-001 39897 89101,88833,88807
 1.8500e+001 89055  5.9664e-001 -5.7641e-001 -3.9052e-001 39897 89101,88807,88911
 1.8500e+001 89032  7.8666e-001 -6.6370e-002 -3.3960e-001 39897 88781,88911,88807
 1.8500e+001 89009 -7.6880e-002 -7.5240e-001 -8.3634e-001 39897 88781,88937,88911
 1.8500e+001 88986  1.8529e+000  3.1946e-001 -4.2145e-001 39897 88833,88885,88859
 1.8500e+001 88963  5.8835e-001 -4.0216e-002 -5.2143e-001 39897 88755,88937,88781
 1.8500e+001 89127  1.3278e+000 -6.6339e-001 -6.2584e-001 39897 88885,88833,89101
 1.8500e+001 89150  6.6537e-001 -1.2780e+000 -9.0115e-001 39897 88885,89101,88911
 1.8500e+001 89300 -5.4594e-001 -8.4777e-001  7.2230e-002 39607 89453,89323,89199
 1.8500e+001 89277 -9.3834e-001 -7.0193e-001 -1.5153e-002 39607 89525,89453,89199
 1.8500e+001 89349 -5.3205e-001 -8.6090e-001 -9.8739e-002 39607 89225,89199,89323
 1.8500e+001 89479 -6.2115e-001 -5.1241e-001  7.9502e-002 39607 89251,89323,89453
 1.8500e+001 89502 -3.0311e-001 -1.6912e-001  3.4352e-001 39607 89251,89453,89173
 1.8500e+001 89551 -5.6736e-002 -4.0237e-001 -2.1806e-004 39607 89173,89453,89525
 1.8500e+001 90264 -6.7727e-001 -1.6527e+000 -1.9703e-001 39039 89996,90074,90048
 1.8500e+001 90241 -3.4025e-001 -6.5199e-001 -1.3170e-001 39039 89918,90074,89996
 1.8500e+001 90218 -4.8976e-001 -8.6534e-001 -6.5878e-002 39039 89918,89996,89944
 1.8500e+001 90195 -5.3525e-001 -7.2219e-001 -1.2199e-001 39039 89892,90074,89918
 1.8500e+001 90172  5.0654e-002 -1.6376e+000 -2.6183e-001 39039 89996,90048,90022
 1.8500e+001 90149 -1.1021e+000  3.7646e-001 -1.5104e-001 39039 89892,90100,90074
 1.8500e+001 90126 -7.0313e-001 -9.6582e-001  1.0632e-001 39039 89944,89996,89970
 1.8500e+001 90770 -1.4461e-001 -3.6236e-001 -7.2134e-003 38635 90473,90603,90577
 1.8500e+001 90747 -1.0088e-001 -3.4251e-001 -1.1581e-002 38635 90447,90603,90473
 1.8500e+001 90724 -1.0546e-001 -4.1682e-001 -2.7956e-002 38635 90499,90577,90551
 1.8500e+001 90701 -1.8979e-001 -4.7695e-001  1.7132e-002 38635 90473,90577,90499
 1.8500e+001 90678 -1.2084e-001 -5.6439e-001 -7.8203e-003 38635 90499,90551,90525
 1.8500e+001 90655 -2.2892e-001 -3.7822e-001  3.6934e-002 38635 90447,90629,90603
 1.8500e+001 90871 -6.8437e-002 -3.4159e-001 -9.8735e-002 38231 90793,90845,90819
 1.8500e+001 91458  1.3392e-002 -1.9616e-001 -3.7209e-002 37534 91161,91317,91291
 1.8500e+001 91435 -1.6212e-001 -1.2235e-001  3.1482e-002 37534 91135,91317,91161
 1.8500e+001 91412 -2.7010e-001 -1.0338e+000 -2.6712e-001 37534 91187,91291,91239
 1.8500e+001 91389 -4.7442e-002 -1.0248e+000  8.5986e-002 37534 91161,91291,91187
 1.8500e+001 91366 -5.1078e-002 -7.4111e-001 -1.5461e-001 37534 91239,91291,91265
 1.8500e+001 91343  5.1296e-001 -1.0796e+000 -6.0322e-001 37534 91187,91239,91213
 1.8500e+001 91915 -3.2216e-001 -7.7788e-001  1.3189e-001 37080 91938,91745,91667
 1.8500e+001 91892 -5.3589e-002 -7.3241e-001  4.8266e-002 37080 91938,91667,91797
 1.8500e+001 91869  8.3970e-002 -2.4475e-001  6.0110e-002 37080 91641,91797,91667
 1.8500e+001 91846 -3.5564e-001 -8.7597e-001  3.7774e-002 37080 91667,91719,91693
 1.8500e+001 91823 -2.9070e-001 -6.9774e-001  9.8381e-002 37080 91667,91745,91719
 1.8500e+001 91964 -4.5497e-001 -8.8515e-001  3.6721e-001 37080 91771,91745,91938
 1.8500e+001 91987 -1.8925e-001 -7.4725e-001  2.5201e-001 37080 91771,91938,91797
 1.8500e+001 92235 -2.4065e-001 -3.7280e-001 -2.0501e-002 36397 92036,92088,92062
 1.8500e+001 92212 -1.7570e-001 -3.3207e-001 -4.6971e-002 36397 92036,92114,92088
 1.8500e+001 92189 -7.9981e-002 -2.6112e-001  3.1801e-003 36397 92036,92140,92114
 1.8500e+001 92166 -1.1700e-001 -3.2280e-001 -1.8114e-002 36397 92010,92140,92036
 1.8500e+001 92694  1.7586e-001  7.4125e-003 -3.3477e-002 36057 92446,92498,92472
 1.8500e+001 92671  1.9829e-001 -5.7764e-002  5.5659e-002 36057 92446,92550,92498
 1.8500e+001 92648 -8.1695e-002 -4.0331e-001  1.7661e-001 36057 92446,92576,92550
 1.8500e+001 92625  1.5545e-001  1.0172e-002 -3.1116e-001 36057 92420,92576,92446
 1.8500e+001 92602  3.6230e-002  2.6071e-002  2.1485e-001 36057 92498,92550,92524
 1.8500e+001 93023 -2.3469e-001 -3.0476e-001 -4.1714e-002 35717 92876,92928,92902
 1.8500e+001 93000 -1.8401e-001 -3.3494e-001 -5.2973e-002 35717 92824,92928,92876
 1.8500e+001 92977 -1.1250e-001 -3.5344e-001 -1.0443e-002 35717 92798,92928,92824
 1.8500e+001 92954 -1.9754e-001 -4.4510e-001 -1.6424e-001 35717 92824,92876,92850
 1.8500e+001 93499  3.8349e-001 -3.9826e-001  1.6647e-001 35405 93522,93309,93257
 1.8500e+001 93476  3.3684e-001 -3.3532e-001  1.8475e-001 35405 93666,93522,93257
 1.8500e+001 93453  3.2165e-001 -1.0546e+000  1.5519e-001 35405 93594,93127,93335
 1.8500e+001 93430  2.0578e-001 -3.8991e-001  1.9556e-001 35405 93666,93257,93231
 1.8500e+001 93407  3.9888e-002 -1.2334e+000 -8.6217e-002 35405 93127,93179,93153
 1.8500e+001 93384 -3.3620e-001 -1.1152e-001  3.7733e-001 35405 93179,93231,93205
 1.8500e+001 93361  4.0386e-001  1.5280e-001 -5.1064e-002 35405 93257,93309,93283
 1.8500e+001 93548  4.8698e-001 -2.9444e-001  3.2602e-001 35405 93335,93309,93522
 1.8500e+001 93571  3.5190e-001 -5.6781e-001  2.3172e-001 35405 93594,93335,93522
 1.8500e+001 93620  3.8229e-001 -5.3121e-001  8.1708e-002 35405 93179,93127,93594
 1.8500e+001 93643  1.8985e-001 -3.4878e-001  1.0346e-001 35405 93738,93594,93522
 1.8500e+001 93692  1.8311e-001 -3.3534e-001  1.2667e-001 35405 93738,93522,93666
 1.8500e+001 93715  1.5431e-001 -3.1743e-001  1.2384e-001 35405 93179,93666,93231
 1.8500e+001 93764  2.0500e-001 -3.1297e-001  1.0436e-001 35405 93179,93594,93738
 1.8500e+001 93787  1.9640e-001 -3.0098e-001  1.2349e-001 35405 93179,93738,93666
 1.8500e+001 94372  8.0854e-001  1.3370e-002 -2.6775e-002 34951 94395,94127,94075
 1.8500e+001 94349  1.0426e+000 -3.0558e-002  6.4183e-002 34951 94395,94075,94231
 1.8500e+001 94326  1.4138e+000 -1.9694e-001 -4.0196e-001 34951 94049,94231,94075
 1.8500e+001 94303  9.8902e-001  4.8045e-001 -6.9908e-002 34951 94075,94127,94101
 1.8500e+001 94280  1.2802e+000  6.7811e-001  4.8109e-001 34951 94127,94205,94153
 1.8500e+001 94257  1.0835e+000 -5.8513e-002  5.8363e-001 34951 94153,94205,94179
 1.8500e+001 94421  9.9374e-001 -2.6515e-002  1.0845e-001 34951 94205,94127,94395
 1.8500e+001 94444  1.4150e+000  4.9336e-002  1.9139e-001 34951 94205,94395,94231
 1.8500e+001 94692  1.8184e-003 -1.3351e-001 -9.0874e-003 34397 94715,94519,94467
 1.8500e+001 94669  3.1219e-003 -1.4133e-001 -1.1234e-002 34397 94715,94467,94597
 1.8500e+001 94646  2.4890e-002  1.4922e-002  1.3619e-003 34397 94545,94597,94571
 1.8500e+001 94623 -3.2873e-002 -2.2490e-001  1.3477e-002 34397 94467,94519,94493
 1.8500e+001 94741  7.4059e-003 -9.7006e-002 -4.2387e-003 34397 94545,94519,94715
 1.8500e+001 94764 -5.4461e-003 -1.2796e-001 -6.3065e-003 34397 94545,94715,94597
 1.8500e+001 94985  3.4764e-002 -2.6308e-001  1.3107e-002 33985 94835,94913,94887
 1.8500e+001 94962 -4.5945e-002 -4.7765e-001  5.9195e-002 33985 94809,94913,94835
 1.8500e+001 94939 -6.3856e-002 -2.9362e-001  3.0857e-002 33985 94835,94887,94861
 1.8500e+001 95186 -4.4874e-002 -5.1621e-001 -2.1851e-001 33645 95281,95209,95036
 1.8500e+001 95163  3.3757e-001 -5.7107e-001  4.0853e-002 33645 95209,95010,95088
 1.8500e+001 95140  3.5445e-001 -2.7740e-001 -3.1770e-003 33645 95010,95114,95088
 1.8500e+001 95235 -2.8458e-001 -6.5616e-001 -2.9445e-001 33645 95062,95036,95209
 1.8500e+001 95258 -1.8668e-001 -7.7719e-001  2.5928e-001 33645 95413,95209,95088
 1.8500e+001 95307  2.3840e-001 -2.6608e-002 -3.9203e-001 33645 95010,95209,95281
 1.8500e+001 95439  9.0202e-002 -4.5711e-001  1.3557e-001 33645 95062,95209,95413
 1.8500e+001 95766 -2.2947e-001 -3.5418e-002 -3.2286e-001 33141 95789,95593,95567
 1.8500e+001 95743 -1.6623e-002 -1.9425e-001 -9.9236e-002 33141 95861,95789,95567
 1.8500e+001 95720 -3.3420e-002 -1.5811e-001 -3.0845e-002 33141 95861,95567,95671
 1.8500e+001 95697 -1.7068e-002 -2.0677e-001 -4.5152e-002 33141 95541,95671,95567
 1.8500e+001 95815 -5.3534e-002  3.9280e-001 -2.8072e-001 33141 95619,95593,95789
 1.8500e+001 95838  2.4839e-002  1.0786e-002 -9.6660e-002 33141 95619,95789,95645
 1.8500e+001 95887  3.8944e-002 -7.2483e-002 -1.1261e-001 33141 95645,95789,95861
 1.8500e+001 95910  1.3887e-002 -4.0041e-002 -3.5300e-002 33141 95645,95861,95671
 1.8500e+001 96060 -2.4888e-001 -2.7068e-001 -1.2869e-001 32487 95959,96011,95985
 1.8500e+001 96037 -8.8931e-002 -2.4596e-001 -2.9467e-002 32487 95933,96011,95959
 1.8500e+001 96570 -1.8910e-001 -3.3264e-001  2.3470e-001 32033 96665,96593,96377
 1.8500e+001 96547 -1.7788e-001 -2.9382e-001 -1.2428e-001 32033 96737,96593,96325
 1.8500e+001 96524 -2.4560e-001 -4.6848e-001  1.3890e-001 32033 96665,96377,96351
 1.8500e+001 96501 -2.3138e-001 -4.2778e-001 -1.1467e-001 32033 96737,96325,96299
 1.8500e+001 96478 -2.4193e-001 -1.1521e-001 -1.1399e-001 32033 96247,96429,96299
 1.8500e+001 96455 -5.6177e-001 -1.1120e+000 -1.3751e-001 32033 96247,96299,96273
 1.8500e+001 96619  1.2059e-001 -1.2522e-001  2.6616e-001 32033 96809,96593,96403
 1.8500e+001 96642  3.3526e-001  4.4505e-001 -3.3914e-001 32033 96403,96593,96429
 1.8500e+001 96691  5.3385e-002 -6.5995e-001  6.7736e-002 32033 96325,96593,96665
 1.8500e+001 96714 -1.5423e-001 -9.1141e-001 -6.4545e-002 32033 96325,96665,96351
 1.8500e+001 96763 -2.3321e-001 -2.4125e-001 -6.1356e-002 32033 96429,96593,96737
 1.8500e+001 96786 -2.5385e-001 -3.0723e-001 -6.9635e-002 32033 96429,96737,96299
 1.8500e+001 96835  4.7600e-003 -2.4319e-001  2.1234e-001 32033 96377,96593,96809
 1.8500e+001 97064 -4.0167e-002 -7.8343e-002 -2.9743e-002 31671 97087,96989,96963
 1.8500e+001 97041 -1.1941e-002 -9.2550e-002  4.2695e-002 31671 97087,96963,96937
 1.8500e+001 97113  1.0978e-002 -9.8339e-002 -1.4741e-004 31671 97159,97087,97015
 1.8500e+001 97136 -1.4287e-002 -7.9501e-002  1.4459e-002 31671 97015,97087,96937
 1.8500e+001 97185  1.2990e-002  4.7404e-002 -2.3314e-002 31671 96989,97087,97159
 1.8500e+001 97563 -7.7400e-003 -1.4442e-001 -2.7036e-002 31117 97586,97367,97341
 1.8500e+001 97540 -2.0510e-003 -1.1823e-001 -7.1537e-003 31117 97658,97586,97341
 1.8500e+001 97517 -5.8677e-003 -1.1754e-001 -8.7235e-003 31117 97658,97341,97315
 1.8500e+001 97494  3.7953e-002 -8.5974e-002  1.0193e-002 31117 97289,97445,97315
 1.8500e+001 97471 -2.0657e-002 -2.4160e-002  2.2354e-002 31117 97367,97419,97393
 1.8500e+001 97612 -7.8309e-002 -9.4354e-002 -1.3970e-002 31117 97419,97367,97586
 1.8500e+001 97635  1.8304e-002 -8.7461e-002  2.3468e-002 31117 97419,97586,97445
 1.8500e+001 97684  3.7220e-003 -1.1765e-001 -7.5188e-003 31117 97445,97586,97658
 1.8500e+001 97707 -6.0774e-004 -1.1737e-001 -9.1432e-003 31117 97445,97658,97315
 1.8500e+001 98215  5.4204e-002 -1.4630e-002 -1.6888e-001 30563 98238,97996,97944
 1.8500e+001 98192 -1.3924e-001  6.3126e-003 -1.7789e-001 30563 98310,98238,97944
 1.8500e+001 98169 -3.2641e-001 -2.0965e-001 -2.9859e-001 30563 98310,97944,97918
 1.8500e+001 98146  1.8448e-001  1.0285e-002 -3.3308e-002 30563 97892,98074,97918
 1.8500e+001 98123  1.6260e-001  1.7030e-002  1.8581e-002 30563 97996,98048,98022
 1.8500e+001 98100 -2.0800e-001 -7.3521e-002 -2.3222e-001 30563 97944,97996,97970
 1.8500e+001 98264 -3.2005e-003  5.2440e-002 -1.3110e-001 30563 98048,97996,98238
 1.8500e+001 98287  1.5788e-001  3.6278e-001  1.0555e-001 30563 98048,98238,98074
 1.8500e+001 98336  3.9364e-002 -4.5178e-002 -6.6720e-003 30563 98074,98238,98310
 1.8500e+001 98359 -8.3900e-002 -8.2517e-002 -9.0806e-002 30563 98074,98310,97918
 1.8500e+001 98607 -3.4082e-001  8.7408e-003  1.6658e-002 30073 98630,98460,98408
 1.8500e+001 98584 -5.2687e-001 -5.9728e-002 -2.7259e-002 30073 98630,98408,98382
 1.8500e+001 98561 -1.6001e-001 -3.3157e-002 -5.7991e-002 30073 98382,98512,98486
 1.8500e+001 98538 -2.0348e-001 -3.6961e-002  1.1393e-001 30073 98408,98460,98434
 1.8500e+001 98656 -2.3742e-001 -9.9552e-002 -2.2309e-002 30073 98486,98460,98630
 1.8500e+001 98679 -3.5935e-001 -1.1862e-001 -5.6517e-002 30073 98486,98630,98382
 1.8500e+001 99157  7.5348e-001 -1.8473e-002  7.0404e-002 29669 99180,98837,98811
 1.8500e+001 99134  5.2046e-001 -9.5052e-003  3.4607e-001 29669 99324,99180,98811
 1.8500e+001 99111  2.0936e-001  1.1249e-002  2.8289e-002 29669 99252,98863,98837
 1.8500e+001 99088  5.1035e-001 -8.8380e-002  3.6911e-001 29669 99324,98811,98993
 1.8500e+001 99065  6.5770e-002  4.7105e-003 -8.2411e-003 29669 98863,98941,98915
 1.8500e+001 99042 -6.9587e-001 -9.6541e-002 -6.8954e-002 29669 98863,98915,98889
 1.8500e+001 99019  3.6204e-001 -1.2542e-001  5.0995e-001 29669 98785,98993,98811
 1.8500e+001 99206  3.3527e-001 -1.9863e-001  8.8373e-002 29669 99252,98837,99180
 1.8500e+001 99229  7.9284e-002 -1.1924e-001  4.1283e-001 29669 98941,99180,98967
 1.8500e+001 99278  3.0111e-001  1.3389e-001  7.3565e-002 29669 98941,98863,99252
 1.8500e+001 99301  5.2505e-001  5.6570e-002  1.7412e-001 29669 98941,99252,99180
 1.8500e+001 99350  5.0019e-001  8.7903e-002  3.3969e-001 29669 98967,99180,99324
 1.8500e+001 99373  5.0789e-001  2.3538e-002  3.5108e-001 29669 98967,99324,98993
 1.8500e+001 99958  4.8155e-001  1.7088e-002  1.9283e-002 29051 99981,99765,99739
 1.8500e+001 99935  3.2559e-001 -4.0739e-002 -5.7140e-002 29051 99981,99739,99661
 1.8500e+001 99912  3.0090e-001 -7.8202e-001 -1.8481e-002 29051 99765,99817,99791
 1.8500e+001 99889  5.6556e-001 -1.5875e-001 -2.4716e-001 29051 99635,99817,99661
 1.8500e+001 99866  2.8465e-001  7.8897e-003 -1.7385e-002 29051 99661,99739,99687
 1.8500e+001 99843  1.5668e-001 -2.8565e-002 -1.9914e-002 29051 99687,99739,99713
 1.8500e+001 100007  5.9697e-001 -7.1367e-002  1.0078e-002 29051 99817,99765,99981
 1.8500e+001 100030  4.8139e-001 -7.0632e-002 -3.5074e-002 29051 99817,99981,99661
 1.8500e+001 100278  6.6977e-001 -9.2291e-002  2.0907e-001 28525 100445,100301,100131
 1.8500e+001 100255  3.2695e-001  2.0362e-001  1.6845e-001 28525 100373,100301,100079
 1.8500e+001 100232  2.9540e-001 -1.4818e-002  1.8667e-001 28525 100373,100079,100053
 1.8500e+001 100209  4.8046e-001  5.3115e-002  6.0289e-002 28525 100445,100131,100105
 1.8500e+001 100327  9.2968e-001 -7.5502e-002  2.6252e-001 28525 100517,100301,100157
 1.8500e+001 100350  6.0466e-001  5.4745e-001  2.1666e-001 28525 100157,100301,100183
 1.8500e+001 100399  3.4304e-001 -2.7686e-002  2.8326e-001 28525 100183,100301,100373
 1.8500e+001 100422  3.5932e-001 -1.8187e-001  3.0149e-001 28525 100183,100373,100053
 1.8500e+001 100471  4.1781e-001 -1.5598e-001 -8.1651e-002 28525 100079,100301,100445
 1.8500e+001 100494 -1.0804e-001 -2.5702e-001 -2.4648e-001 28525 100079,100445,100105
 1.8500e+001 100543  1.0804e+000  1.4393e-001  3.9296e-002 28525 100131,100301,100517
 1.8500e+001 101209 -7.5176e-001 -2.5876e-002 -3.5159e-002 28185 100938,101016,100990
 1.8500e+001 101186 -9.0553e-001  1.3926e-003  3.3172e-003 28185 100912,101016,100938
 1.8500e+001 101163 -2.3195e-001  2.1057e-001  8.7542e-002 28185 100912,101068,101016
 1.8500e+001 101140 -9.4768e-001  8.9788e-002 -2.3832e-002 28185 100886,101068,100912
 1.8500e+001 101117 -2.5265e-001  4.0016e-001  1.4417e-001 28185 101016,101068,101042
 1.8500e+001 101094 -2.1981e+000 -4.5447e-001 -5.6241e-002 28185 100938,100990,100964
 1.8500e+001 101408  1.7948e-001 -8.6063e-002 -1.1466e-001 27781 101503,101431,101310
 1.8500e+001 101385 -1.1211e-001  1.5040e-001 -3.5859e-001 27781 101431,101258,101232
 1.8500e+001 101362  2.2832e-001 -1.1079e-001 -1.3976e-001 27781 101503,101310,101284
 1.8500e+001 101457  7.3636e-001  1.7498e-001 -1.9025e-001 27781 101336,101310,101431
 1.8500e+001 101480  2.2447e-001  3.1454e-001 -4.2450e-001 27781 101575,101431,101232
 1.8500e+001 101529  3.5287e-001 -4.5204e-002 -3.0240e-001 27781 101258,101431,101503
 1.8500e+001 101552  2.3770e-001 -1.5425e-001 -1.5125e-001 27781 101705,101503,101284
 1.8500e+001 101601  3.7220e-001  5.5074e-001 -4.9121e-001 27781 101336,101431,101575
 1.8500e+001 101731 -4.8892e-002 -2.1153e-001 -3.0575e-001 27781 101258,101503,101705
 1.8500e+001 102237 -3.2945e-001 -1.4391e-001  5.0626e-002 27419 102476,102260,101992
 1.8500e+001 102214 -1.8035e-001 -2.6307e-001  3.9408e-003 27419 102260,101940,101914
 1.8500e+001 102191 -4.1231e-001 -3.2666e-001  5.1896e-002 27419 102404,102332,102096
 1.8500e+001 102168 -3.5032e-001 -3.1741e-001 -1.1406e-002 27419 102404,102096,102044
 1.8500e+001 102145 -2.9504e-001 -1.7110e-001  7.1377e-002 27419 102476,101992,101966
 1.8500e+001 102122 -2.4526e-001 -3.0044e-001 -3.0719e-002 27419 102044,102096,102070
 1.8500e+001 102286 -4.5010e-001 -2.7653e-001  1.0470e-001 27419 102018,101992,102260
 1.8500e+001 102309 -3.5380e-001 -2.2434e-001  1.8905e-002 27419 102332,102018,102260
 1.8500e+001 102358 -3.9824e-001 -5.0420e-001  1.5851e-001 27419 101914,102096,102332
 1.8500e+001 102381 -2.9170e-001 -3.5887e-001  5.5746e-002 27419 101914,102332,102260
 1.8500e+001 102430 -2.8041e-001 -2.9451e-001  1.1642e-002 27419 102018,102332,102404
 1.8500e+001 102453 -2.3935e-001 -2.8043e-001 -5.8236e-002 27419 102018,102404,102044
 1.8500e+001 102502 -2.3412e-001 -2.2790e-001  7.3758e-002 27419 101940,102260,102476
 1.8500e+001 102525  1.7820e-001 -3.3124e-002  1.9661e-002 27419 101940,102476,101966
 1.8500e+001 103031  1.0628e-001 -4.3680e-002  8.4444e-002 26715 102708,102786,102760
 1.8500e+001 103008  2.7288e-001 -6.9285e-002 -1.0151e-002 26715 102708,102890,102786
 1.8500e+001 102985  6.9590e-001 -2.7790e-001  5.9065e-002 26715 102838,102890,102864
 1.8500e+001 102962  3.5662e-001 -1.6200e-001  1.4308e-001 26715 102786,102890,102838
 1.8500e+001 102939  1.1324e+000  2.2630e-001  5.9844e-001 26715 102786,102838,102812
 1.8500e+001 102916  7.3888e-002  3.0923e-003 -1.4594e-002 26715 102708,102760,102734
 1.8500e+001 103279 -3.7415e-003 -6.7531e-003  8.9180e-003 26303 103302,103158,103080
 1.8500e+001 103256 -4.0984e-003 -5.0257e-003  9.2913e-003 26303 103302,103080,103054
 1.8500e+001 103233 -1.5745e-002 -1.4004e-002  3.1056e-003 26303 103080,103158,103106
 1.8500e+001 103210  3.1553e-003 -9.8389e-003  2.8971e-003 26303 103106,103158,103132
 1.8500e+001 103328 -6.1079e-003 -3.3875e-003  7.5047e-003 26303 103184,103158,103302
 1.8500e+001 103351 -5.5011e-003 -9.2338e-004  8.7934e-003 26303 103184,103302,103054
 1.8500e+001 103501 -3.3508e-001 -3.4865e-001  2.6895e-002 25849 103374,103426,103400
 1.8500e+001 103478 -3.1490e-001 -2.2890e-001  1.9432e-002 25849 103374,103452,103426
 1.8500e+001 104090  9.9690e-002  2.1686e-002  1.2215e-001 25445 103793,103871,103819
 1.8500e+001 104067  2.7541e-001  8.8168e-002  4.6823e-002 25445 103793,103949,103871
 1.8500e+001 104044  3.3212e-001  8.0178e-002  1.4248e-001 25445 103871,103949,103923
 1.8500e+001 104021 -2.4635e-002  5.8226e-002 -3.2721e-002 25445 103819,103871,103845
 1.8500e+001 103998  3.6994e-001  1.9158e-001  1.7071e-001 25445 103767,103949,103793
 1.8500e+001 103975  3.8503e-001  7.7024e-002  1.4727e-001 25445 103871,103923,103897
 1.8500e+001 104419 -1.2770e-001 -5.5293e-002 -7.5851e-002 25083 104220,104298,104272
 1.8500e+001 104396 -2.9885e-001 -2.6207e-001  1.6138e-004 25083 104220,104324,104298
 1.8500e+001 104373 -7.8591e-002 -6.2290e-002 -3.1922e-002 25083 104220,104272,104246
 1.8500e+001 104350 -3.0264e-001 -2.7541e-001 -4.2549e-003 25083 104194,104324,104220
 1.8500e+001 105102  8.5667e-002 -1.5588e-001  3.6916e-002 24793 104785,104863,104837
 1.8500e+001 105079  1.0911e-001 -2.2306e-001 -1.1368e-001 24793 104759,104863,104785
 1.8500e+001 105056  5.9279e-002 -1.5856e-002 -1.2456e-001 24793 104759,104915,104863
 1.8500e+001 105033  6.7135e-002 -1.0238e-001 -1.4981e-001 24793 104733,104915,104759
 1.8500e+001 105010  3.3034e-001  1.0238e-001 -1.4015e-001 24793 104863,104915,104889
 1.8500e+001 104987 -9.7225e-002  2.1060e-002 -2.7051e-001 24793 104681,104915,104733
 1.8500e+001 104964  1.2303e-002 -2.3573e-001  5.2652e-004 24793 104785,104837,104811
 1.8500e+001 104941 -4.1356e-002  2.5817e-001 -2.5730e-001 24793 104681,104733,104707
 1.8500e+001 105252  9.4048e-001  3.0391e-001 -6.0841e-002 24389 105477,105275,105177
 1.8500e+001 105229  3.4355e-001  5.9690e-002  1.9945e-001 24389 105347,105275,105151
 1.8500e+001 105301  8.6669e-001  1.7936e-001 -2.9311e-002 24389 105203,105177,105275
 1.8500e+001 105324  1.2701e+000  8.9473e-001  3.1648e-001 24389 105203,105275,105125
 1.8500e+001 105373  9.6147e-001  4.3145e-001  4.6769e-004 24389 105125,105275,105347
 1.8500e+001 105503  6.9208e-001 -1.8715e-001 -1.4752e-001 24389 105151,105275,105477
 1.8500e+001 106088 -2.9552e-001  3.4142e-001  3.8356e-001 23735 105791,105921,105895
 1.8500e+001 106065 -9.9480e-001  1.2649e-001  4.9221e-001 23735 105765,105921,105791
 1.8500e+001 106042 -5.2465e-002  5.4091e-001  3.0056e-001 23735 105765,105947,105921
 1.8500e+001 106019 -1.2113e+000 -1.7072e-003  4.8050e-001 23735 105817,105895,105869
 1.8500e+001 105996 -7.6003e-001  1.5869e-001  4.7635e-001 23735 105791,105895,105817
 1.8500e+001 105973 -7.1608e-001 -1.5990e-001  4.7840e-001 23735 105817,105869,105843
 1.8500e+001 106417  4.6003e-001  9.9285e-001 -1.6137e-001 23295 106218,106296,106270
 1.8500e+001 106394  3.4953e-001  4.4021e-001 -1.5442e-001 23295 106218,106322,106296
 1.8500e+001 106371  1.5073e-001  3.0746e-001 -2.5003e-001 23295 106218,106270,106244
 1.8500e+001 106348  5.3801e-001  5.2078e-001 -6.2937e-002 23295 106192,106322,106218
 1.8500e+001 106746  1.8519e-001  3.8420e-001  1.3933e-001 23005 106521,106599,106547
 1.8500e+001 106723  5.0941e-001  6.8938e-001  1.3200e-002 23005 106521,106651,106599
 1.8500e+001 106700  5.8141e-001  2.1086e-001 -2.1162e-001 23005 106547,106599,106573
 1.8500e+001 106677  6.4157e-001  6.7155e-001  3.3008e-001 23005 106599,106651,106625
 1.8500e+001 107331  3.7799e-003  1.9390e-002 -2.0878e-002 22601 107060,107190,107138
 1.8500e+001 107308 -1.5753e-002  6.2921e-002 -2.7042e-002 22601 107034,107190,107060
 1.8500e+001 107285 -1.2798e-001 -3.5547e-002 -1.8422e-002 22601 107060,107138,107112
 1.8500e+001 107262 -3.8127e-002  1.1330e-001  7.2624e-002 22601 107008,107190,107034
 1.8500e+001 107239  1.1300e-001 -2.4061e-001  3.1489e-002 22601 107060,107112,107086
 1.8500e+001 107216 -7.2071e-002  1.7089e-001  3.6434e-002 22601 107138,107190,107164
 1.8500e+001 107807 -2.0066e-001  1.3800e-001 -3.7740e-002 22031 107974,107902,107617
 1.8500e+001 107784 -2.3456e-001  2.7922e-001 -1.1683e-001 22031 107830,107565,107513
 1.8500e+001 107761 -7.6170e-002  9.5767e-002 -1.3253e-001 22031 108046,107830,107513
 1.8500e+001 107738 -1.3406e-001  2.6024e-001  1.5280e-002 22031 107974,107617,107591
 1.8500e+001 107715 -9.7277e-002  4.0524e-002 -1.2880e-001 22031 108046,107513,107461
 1.8500e+001 107692 -6.5349e-001  3.8731e-001 -2.1283e-001 22031 107513,107565,107539
 1.8500e+001 107669  4.3786e-002  2.0038e-001 -2.1448e-001 22031 107461,107513,107487
 1.8500e+001 107856 -3.0463e-001  2.1027e-001 -6.7943e-002 22031 107902,107565,107830
 1.8500e+001 107879 -1.4932e-001 -3.2416e-002  6.1580e-003 22031 107643,107830,107435
 1.8500e+001 107928 -5.1225e-001  2.7495e-001 -2.4853e-001 22031 107643,107617,107902
 1.8500e+001 107951 -3.1058e-001  1.8925e-001  3.5128e-002 22031 107643,107902,107830
 1.8500e+001 108000 -2.5847e-001  3.1215e-001 -5.7883e-002 22031 107565,107902,107974
 1.8500e+001 108023 -2.5193e-001  2.7897e-001 -4.7567e-002 22031 107565,107974,107591
 1.8500e+001 108072 -3.9914e-002  2.7322e-002 -5.2571e-002 22031 107435,107830,108046
 1.8500e+001 108095 -7.6986e-002 -6.0553e-002 -4.9648e-002 22031 107435,108046,107461
 1.8500e+001 108196 -4.0557e-003 -2.3552e-002  4.5454e-003 21783 108118,108170,108144
 1.8500e+001 108655  1.1298e-001  6.5606e-001  3.8769e-001 21379 108407,108485,108459
 1.8500e+001 108632  1.3034e+000 -2.2891e-002  5.4217e-001 21379 108407,108511,108485
 1.8500e+001 108609  1.3590e+000 -1.4133e-001  3.8187e-001 21379 108381,108511,108407
 1.8500e+001 108586  5.2275e-001  3.4832e-001 -3.6062e-001 21379 108381,108537,108511
 1.8500e+001 108563  3.4731e-001  9.0756e-002  1.7673e-001 21379 108407,108459,108433
 1.8500e+001 109082  2.5952e-002 -5.1772e-002 -6.5753e-003 20974 109105,108863,108811
 1.8500e+001 109059 -1.7194e-002 -7.1757e-002  3.4669e-003 20974 109105,108811,108759
 1.8500e+001 109036  4.0315e-003 -1.0403e-001 -1.1085e-002 20974 109177,108889,108863
 1.8500e+001 109013 -4.6984e-003 -4.7639e-002  2.2535e-003 20974 108811,108863,108837
 1.8500e+001 108990  8.6838e-004 -7.4957e-003 -7.6761e-003 20974 108759,108941,108915
 1.8500e+001 108967  2.3972e-003 -1.9294e-002  5.8370e-003 20974 108759,108811,108785
 1.8500e+001 109131  9.5341e-003 -9.2263e-002 -9.1403e-003 20974 109177,108863,109105
 1.8500e+001 109154  6.4382e-003 -1.2446e-002 -4.1350e-003 20974 108915,109105,108759
 1.8500e+001 109203 -2.7576e-002 -9.6276e-002 -3.8949e-002 20974 108915,108889,109177
 1.8500e+001 109226 -3.2856e-003 -5.0375e-002 -2.9894e-002 20974 108915,109177,109105
 1.8500e+001 109496 -3.7733e-001  1.1341e-001 -4.1954e-002 20470 109271,109375,109297
 1.8500e+001 109473 -3.4497e-001  1.6602e-001 -6.7806e-002 20470 109271,109401,109375
 1.8500e+001 109450 -4.6661e-001  1.0459e-002 -8.0825e-002 20470 109297,109375,109349
 1.8500e+001 109427 -6.7784e-001 -4.0862e-001  1.4844e-001 20470 109297,109349,109323
 1.8500e+001 109955  1.1073e-001  6.6341e-001  4.0371e-001 20123 110050,109733,109707
 1.8500e+001 109932 -2.4081e-001  4.2597e-001  2.9923e-001 20123 110050,109707,109681
 1.8500e+001 109909  1.8710e-001  2.9940e-001  3.3680e-001 20123 109978,109759,109733
 1.8500e+001 109886  2.4609e-002  2.0119e-001  2.9452e-001 20123 110122,109978,109733
 1.8500e+001 109863  2.0410e-001  1.1286e-001  2.1041e-001 20123 109785,109837,109811
 1.8500e+001 110004  1.5487e-001  2.5626e-001  2.6087e-001 20123 109785,109759,109978
 1.8500e+001 110027  1.2017e-001  2.0961e-001  1.9788e-001 20123 109785,109978,109837
 1.8500e+001 110076 -6.3871e-002  3.2050e-001  2.3999e-001 20123 110122,109733,110050
 1.8500e+001 110099 -5.4914e-002  4.1396e-001  1.3691e-001 20123 109837,110050,109681
 1.8500e+001 110148  1.9423e-001  3.6981e-001  2.2492e-001 20123 109837,109978,110122
 1.8500e+001 110171  1.1518e-001  4.7488e-001  1.6942e-001 20123 109837,110122,110050
 1.8500e+001 110500  5.3988e-001  7.3555e-002 -2.9841e-002 19511 110301,110379,110353
 1.8500e+001 110477  1.0721e+000  5.4711e-001 -2.5323e-001 19511 110301,110405,110379
 1.8500e+001 110454  4.3545e-001  1.9017e-001 -3.3043e-002 19511 110275,110405,110301
 1.8500e+001 110431  4.9196e-001  5.7552e-002  1.1280e-001 19511 110301,110353,110327
 1.8500e+001 110957  1.4907e-001  9.1071e-001 -2.9937e-001 19107 110683,110735,110709
 1.8500e+001 110934  2.8012e-001  5.8717e-002 -6.5931e-001 19107 110683,110813,110735
 1.8500e+001 110911  6.4827e-001  8.4412e-001 -5.3258e-001 19107 110735,110813,110761
 1.8500e+001 110888  5.2074e-001 -2.8525e-001  8.9752e-002 19107 110683,110839,110813
 1.8500e+001 110865  5.1140e-001  5.2029e-001 -5.3107e-001 19107 110761,110813,110787
 1.8500e+001 111335  1.9458e-001 -3.9498e-001  4.0978e-002 18653 111087,111165,111139
 1.8500e+001 111312  4.6799e-001  1.4318e-002 -1.0813e-001 18653 111087,111217,111165
 1.8500e+001 111289  1.7041e-001 -1.6726e-001  2.6223e-001 18653 111061,111217,111087
 1.8500e+001 111266  1.4948e-001 -6.0440e-001  9.5531e-002 18653 111087,111139,111113
 1.8500e+001 111243  3.7477e-001 -1.5114e-001 -1.8664e-001 18653 111165,111217,111191
 1.8500e+001 111735 -5.0823e-001 -2.6473e-001  8.3869e-002 18213 111461,111513,111487
 1.8500e+001 111712 -3.9557e-001 -3.1965e-001  4.0228e-002 18213 111461,111617,111513
 1.8500e+001 111689 -3.2210e-001 -1.4867e-001  3.6704e-002 18213 111513,111617,111591
 1.8500e+001 111666 -1.6294e-001 -1.6873e-001  8.1458e-002 18213 111513,111591,111539
 1.8500e+001 111643 -4.9088e-002 -9.0489e-002  3.8922e-002 18213 111539,111591,111565
 1.8500e+001 111885  5.5267e-001 -6.5297e-001  1.5899e-001 17659 111784,111836,111810
 1.8500e+001 111862  6.8255e-001 -2.6407e-001  3.2068e-001 17659 111758,111836,111784
 1.8500e+001 112287  5.7100e-002 -1.8657e-001 -1.1773e-001 17411 112065,112169,112143
 1.8500e+001 112264 -9.7629e-002 -8.6290e-002 -8.8077e-002 17411 112039,112169,112065
 1.8500e+001 112241 -3.7210e-002 -1.9352e-002 -9.7924e-003 17411 112013,112169,112039
 1.8500e+001 112218  2.4102e+000  2.8698e-002 -5.8503e-001 17411 112091,112143,112117
 1.8500e+001 112195  5.8426e-002 -2.6258e-001 -4.1636e-002 17411 112065,112143,112091
 1.8500e+001 112508 -3.6113e-001  3.5679e-001  5.4472e-002 17007 112384,112436,112410
 1.8500e+001 112485 -2.3831e-001  4.7833e-001  1.0684e-001 17007 112332,112436,112384
 1.8500e+001 112462 -3.5238e-001  2.5503e-001  6.6670e-002 17007 112332,112384,112358
 1.8500e+001 112658 -9.2276e-001 -3.7940e-001  2.8018e-001 16553 112557,112609,112583
 1.8500e+001 112635 -1.3996e+000 -1.1306e-001  3.5082e-001 16553 112531,112609,112557
 1.8500e+001 112761  1.9276e-002 -1.1865e-001  4.6994e-003 16355 112683,112735,112709
 1.8500e+001 112913 -6.3235e-001  4.4883e-001  4.4775e-002 15949 112786,112838,112812
 1.8500e+001 112890 -2.5323e-001  1.1084e+000 -1.3114e-001 15949 112786,112864,112838
 1.8500e+001 113065  2.5839e-002 -5.5718e-002 -5.1363e-004 15609 112938,112990,112964
 1.8500e+001 113042  4.2864e-003 -1.1193e-001 -2.7561e-002 15609 112938,113016,112990
 1.8500e+001 113420  5.1899e-001  4.2851e-001  1.3182e-001 15284 113247,113325,113299
 1.8500e+001 113397  5.0175e-001  3.8468e-001  6.2877e-002 15284 113195,113325,113247
 1.8500e+001 113374  4.1309e-001  3.4863e-001  6.3834e-002 15284 113195,113247,113221
 1.8500e+001 113351  4.6803e-001  6.6183e-001  1.4082e-001 15284 113247,113299,113273
 1.8500e+001 113521  3.0195e-002 -2.3118e-002  1.8419e-002 202 113443,113495,113469
 1.9000e+001 65564 -1.6845e-001 -1.1444e-001  1.9778e-001 65155 65414,65466,65440
 1.9000e+001 65541  9.5354e-002 -8.7422e-003  5.6878e-003 65155 65414,65492,65466
 1.9000e+001 65518 -8.7474e-003 -4.9572e-002 -4.2638e-003 65155 65388,65492,65414
 1.9000e+001 65883  2.6609e-001 -1.1211e+000 -9.8480e-002 64957 65635,65739,65713
 1.9000e+001 65860  1.7298e-001 -1.7647e+000 -1.3579e-001 64957 65635,65765,65739
 1.9000e+001 65837 -1.3619e-001 -1.9518e+000 -1.7108e-002 64957 65609,65765,65635
 1.9000e+001 65814  2.0067e-001 -1.4942e+000  3.9023e-001 64957 65635,65713,65687
 1.9000e+001 65791  9.2295e-002 -1.8422e+000  1.9446e-001 64957 65635,65687,65661
 1.9000e+001 65984  5.1398e-002 -1.9049e-001 -3.9702e-002 64781 65906,65958,65932
 1.9000e+001 66232 -5.2786e-001 -6.5917e-001  5.8015e-001 64469 66007,66059,66033
 1.9000e+001 66209  2.3753e-001 -7.7519e-001  6.6247e-001 64469 66007,66085,66059
 1.9000e+001 66186 -1.2646e-001 -1.6421e+000  5.9270e-001 64469 66007,66137,66085
 1.9000e+001 66163  1.5739e-001 -1.7928e+000  1.4588e+000 64469 66085,66137,66111
 1.9000e+001 66504  1.7979e-002 -1.6152e+000  4.8072e-002 64271 66279,66383,66305
 1.9000e+001 66481  1.7317e-001 -1.6201e+000 -5.2153e-002 64271 66279,66409,66383
 1.9000e+001 66458  3.3205e-001 -2.0907e+000  5.7909e-002 64271 66305,66357,66331
 1.9000e+001 66435 -1.3171e-001 -1.8841e+000  1.1325e-001 64271 66305,66383,66357
 1.9000e+001 66705  2.7409e-001 -3.5109e+000  4.7431e-001 64073 66728,66581,66555
 1.9000e+001 66682  3.8185e-002 -2.7819e+000  6.2246e-001 64073 66728,66555,66529
 1.9000e+001 66659  5.5497e-001 -3.1100e+000 -5.7176e-001 64073 66581,66633,66607
 1.9000e+001 66754 -3.8836e-002 -2.8589e+000  2.1904e-001 64073 66633,66581,66728
 1.9000e+001 66777  6.6767e-003 -1.8368e+000  2.3308e-001 64073 66633,66728,66529
 1.9000e+001 66951 -2.9946e-001 -6.2924e-001 -1.9086e-001 63783 66824,66876,66850
 1.9000e+001 66928  1.0877e+000 -6.9180e-001  3.5938e-001 63783 66824,66902,66876
 1.9000e+001 67201 -7.3043e-001 -2.4114e+000 -1.4711e-001 63585 66976,67080,67054
 1.9000e+001 67178 -2.5240e-001 -2.2440e+000  2.0358e-001 63585 66976,67106,67080
 1.9000e+001 67155  1.0933e-001 -2.8600e+000 -6.1514e-001 63585 66976,67054,67028
 1.9000e+001 67132  3.3834e-001 -2.4037e+000 -3.8896e-001 63585 66976,67028,67002
 1.9000e+001 67654  1.3461e-001 -1.2915e+000 -2.3687e-002 63295 67357,67487,67383
 1.9000e+001 67631  1.5609e-001 -1.6089e+000  2.1909e-001 63295 67331,67487,67357
 1.9000e+001 67608 -1.0106e-001 -1.9229e+000 -2.5750e-002 63295 67331,67513,67487
 1.9000e+001 67585  4.8143e-003 -1.9701e+000  1.6292e-002 63295 67435,67487,67461
 1.9000e+001 67562 -9.3882e-002 -1.9945e+000  4.8925e-003 63295 67383,67487,67435
 1.9000e+001 67539  4.5085e-002 -1.8139e+000  7.0441e-002 63295 67383,67435,67409
 1.9000e+001 67853 -1.1193e-001 -1.7079e+000 -5.9032e-003 62891 67876,67703,67677
 1.9000e+001 67830 -1.2546e-001 -1.8384e+000 -2.5171e-002 62891 67876,67677,67781
 1.9000e+001 67807 -5.6545e-002 -1.4951e+000 -9.8735e-002 62891 67948,67729,67703
 1.9000e+001 67902 -1.1143e-001 -1.6893e+000  3.7120e-002 62891 67948,67703,67876
 1.9000e+001 67925 -3.3299e-001 -1.6802e+000  1.0141e-001 62891 67755,67876,67781
 1.9000e+001 67974 -1.8911e-001 -1.2319e+000 -9.7075e-002 62891 67755,67729,67948
 1.9000e+001 67997 -1.4168e-001 -1.3332e+000  1.2247e-002 62891 67755,67948,67876
 1.9000e+001 68218  2.4275e-002  2.7740e-002 -1.5548e-002 62693 68042,68120,68068
 1.9000e+001 68195 -2.8164e-002  1.3905e-002  2.8685e-003 62693 68042,68146,68120
 1.9000e+001 68172 -1.1893e-001  7.4442e-002  1.3108e-002 62693 68068,68120,68094
 1.9000e+001 68468  5.0660e-001 -1.6441e+000  4.6040e-001 62289 68491,68295,68269
 1.9000e+001 68445 -1.2277e-001 -1.7384e+000  7.6295e-002 62289 68563,68491,68269
 1.9000e+001 68422 -2.1225e-001 -1.3421e+000  3.9108e-001 62289 68563,68269,68243
 1.9000e+001 68399  7.8882e-002 -1.8888e+000  9.1748e-001 62289 68295,68347,68321
 1.9000e+001 68517  1.9984e-001 -2.5372e+000  4.0409e-001 62289 68347,68295,68491
 1.9000e+001 68540  1.3004e-002 -1.7351e+000 -1.7039e-001 62289 68347,68491,68373
 1.9000e+001 68589  1.5430e-001 -9.5094e-001  3.5277e-002 62289 68373,68491,68563
 1.9000e+001 68612 -9.7463e-002 -8.2454e-001  3.6682e-001 62289 68373,68563,68243
 1.9000e+001 68911 -9.9995e-002 -1.7270e+000  1.8105e-002 62091 69222,68934,68741
 1.9000e+001 68888  1.9754e-001 -1.6875e+000 -2.8058e-002 62091 69006,68934,68689
 1.9000e+001 68865  2.8641e-001 -1.6018e+000  7.6715e-002 62091 69006,68689,68663
 1.9000e+001 68842 -2.0867e-001 -1.7613e+000 -1.9805e-001 62091 69078,68793,68767
 1.9000e+001 68819 -2.6337e-001 -1.8197e+000  2.1219e-001 62091 69222,68741,68715
 1.9000e+001 68960 -2.8535e-001 -1.7469e+000  4.1063e-002 62091 68767,68741,68934
 1.9000e+001 68983 -9.7731e-002 -1.8345e+000 -4.1994e-002 62091 69078,68767,68934
 1.9000e+001 69032  1.6575e-001 -1.7021e+000 -1.7159e-002 62091 69150,69006,68637
 1.9000e+001 69055  1.4518e-001 -1.7245e+000  1.4892e-002 62091 68637,69006,68663
 1.9000e+001 69104 -5.8071e-002 -1.4097e+000 -8.1455e-002 62091 68637,68793,69078
 1.9000e+001 69127  1.1836e-001 -1.6396e+000  9.8229e-003 62091 69150,68637,69078
 1.9000e+001 69176  6.0326e-002 -1.7160e+000 -5.1849e-002 62091 68934,69006,69150
 1.9000e+001 69199 -4.0243e-002 -1.6906e+000 -8.8657e-003 62091 68934,69150,69078
 1.9000e+001 69248 -6.1760e-003 -1.5368e+000 -2.3904e-002 62091 68689,68934,69222
 1.9000e+001 69271 -3.8102e-002 -1.4754e+000  1.1378e-001 62091 68689,69222,68715
 1.9000e+001 69521  5.1338e-001 -7.7551e-001 -1.8730e-001 61893 69544,69348,69296
 1.9000e+001 69498  1.7472e-001 -8.8775e-001 -1.9328e-001 61893 69544,69296,69400
 1.9000e+001 69475 -7.0868e-002 -4.1929e-001  2.1844e-001 61893 69296,69426,69400
 1.9000e+001 69452  1.5343e-001 -3.4705e+000 -3.3379e-001 61893 69296,69348,69322
 1.9000e+001 69570  3.3871e-001 -5.5473e-001 -4.7351e-001 61893 69374,69348,69544
 1.9000e+001 69593 -2.7486e-001 -8.0795e-001 -4.5258e-001 61893 69374,69544,69400
 1.9000e+001 70046  1.0916e-001 -1.3898e+000 -9.4183e-003 61467 69749,69905,69879
 1.9000e+001 70023  2.1415e-001 -1.0960e+000  3.1578e-001 61467 69723,69905,69749
 1.9000e+001 70000  1.0497e-001 -1.4609e+000 -4.0683e-002 61467 70069,69827,69775
 1.9000e+001 69977 -1.6657e-001 -2.1315e+000  1.8852e-001 61467 70069,69775,69749
 1.9000e+001 69954 -5.4139e-002 -1.0278e+000 -4.4935e-002 61467 70141,69853,69827
 1.9000e+001 69931  1.7078e-001 -1.8848e+000 -5.6954e-001 61467 69775,69827,69801
 1.9000e+001 70095  2.9951e-002 -1.1435e+000 -1.2013e-001 61467 70141,69827,70069
 1.9000e+001 70118  9.8974e-002 -1.4395e+000  9.8676e-004 61467 69879,70069,69749
 1.9000e+001 70167  2.5497e-002 -1.2035e+000 -3.7550e-002 61467 69879,69853,70141
 1.9000e+001 70190 -1.2100e-002 -1.4774e+000 -1.1384e-001 61467 69879,70141,70069
 1.9000e+001 70291 -1.5884e-001 -2.4694e+000 -2.8228e-001 61013 70213,70265,70239
 1.9000e+001 70441  1.4483e-001 -2.1011e+000  2.5614e-001 60651 70340,70392,70366
 1.9000e+001 70418 -1.7197e-001 -2.6607e+000  1.2905e-001 60651 70314,70392,70340
 1.9000e+001 70642  1.0638e-001 -1.3158e+000 -4.5405e-001 60311 70665,70492,70466
 1.9000e+001 70619 -1.6599e-001 -2.0274e+000 -5.8517e-001 60311 70665,70466,70570
 1.9000e+001 70596 -3.7761e+000  2.2743e-002 -1.3922e-001 60311 70492,70544,70518
 1.9000e+001 70691  1.0351e-001 -5.9095e-001  2.7614e-001 60311 70544,70492,70665
 1.9000e+001 70714 -3.3994e-001 -1.6735e+000  1.5988e-001 60311 70544,70665,70570
 1.9000e+001 70964  3.4322e-001 -1.7380e+000  5.4863e-002 59907 70987,70765,70739
 1.9000e+001 70941  2.5179e-001 -1.9750e+000 -1.4165e-001 59907 71059,70987,70739
 1.9000e+001 70918  8.2452e-002 -2.5095e+000 -5.6853e-002 59907 71059,70739,70869
 1.9000e+001 70895  1.2178e-001 -1.7459e+000 -1.3191e-002 59907 70817,70869,70843
 1.9000e+001 71013  1.3104e+000 -1.2535e+000  5.8408e-001 59907 70791,70765,70987
 1.9000e+001 71036  3.8114e-001 -1.8716e+000  1.5415e-001 59907 70791,70987,70817
 1.9000e+001 71085  5.5485e-002 -1.6274e+000 -6.9328e-002 59907 70817,70987,71059
 1.9000e+001 71108  1.3390e-001 -1.8344e+000 -9.3682e-002 59907 70817,71059,70869
 1.9000e+001 71441 -1.5325e+000 -3.0325e+000  4.4607e-001 59417 71464,71242,71216
 1.9000e+001 71418 -1.1295e+000 -2.1401e+000  5.6713e-001 59417 71464,71216,71320
 1.9000e+001 71395 -6.7285e-001 -1.8425e+000  3.7866e-001 59417 71216,71346,71320
 1.9000e+001 71372 -4.4676e-001 -1.5542e+000 -3.7360e-001 59417 71268,71320,71294
 1.9000e+001 71490 -1.7898e+000 -3.0153e+000 -5.4957e-001 59417 71268,71242,71464
 1.9000e+001 71513 -1.2180e+000 -1.5586e+000 -4.8978e-001 59417 71268,71464,71320
 1.9000e+001 71712  2.5295e+000  2.0835e+000  5.2341e-001 58913 71562,71614,71588
 1.9000e+001 71689  1.9136e+000  1.3556e+000  4.3651e-002 58913 71536,71614,71562
 1.9000e+001 71666  8.4141e-001  1.7923e+000 -1.9099e-001 58913 71536,71640,71614
 1.9000e+001 72171 -1.1426e+000 -1.9832e+000  9.1652e-001 58409 72194,72027,72001
 1.9000e+001 72148 -3.9034e-001 -2.1214e+000  1.0934e-001 58409 72194,72001,71949
 1.9000e+001 72125  6.5819e-001 -4.7378e-001  7.2651e-002 58409 71923,72053,71949
 1.9000e+001 72102  7.7170e-001 -1.8538e+000  3.6199e-001 58409 71949,72001,71975
 1.9000e+001 72079  7.0019e-001 -4.8095e-001  5.0370e-002 58409 71897,72053,71923
 1.9000e+001 72220 -8.7305e-002 -1.5717e+000  8.6723e-001 58409 72053,72027,72194
 1.9000e+001 72243  3.3729e-001 -1.9498e+000  1.2677e-001 58409 72053,72194,71949
 1.9000e+001 72491  9.1523e-001  8.6035e-001  7.9127e-001 57855 72514,72318,72292
 1.9000e+001 72468  7.8700e-001  6.2273e-001  1.0633e+000 57855 72514,72292,72266
 1.9000e+001 72445  9.3225e-001  1.4312e-002  1.0786e+000 57855 72318,72396,72370
 1.9000e+001 72422  3.4960e-001  1.7316e+000  7.0933e-001 57855 72318,72370,72344
 1.9000e+001 72540  9.2098e-001  9.5187e-001  8.1706e-001 57855 72396,72318,72514
 1.9000e+001 72563  9.0951e-001  1.0882e+000  9.0690e-001 57855 72396,72514,72266
 1.9000e+001 72811 -3.1914e-002 -2.4888e+000  1.4841e+000 57401 72612,72690,72638
 1.9000e+001 72788 -2.6119e+000 -3.5859e+000  1.7868e+000 57401 72586,72690,72612
 1.9000e+001 72765  4.5173e+000 -4.2205e+000  3.5478e-001 57401 72638,72690,72664
 1.9000e+001 72742  3.1202e-001 -1.6256e+000  8.4780e-001 57401 72586,72716,72690
 1.9000e+001 73144 -2.5475e-001 -1.5849e+000  1.8224e-002 57004 72919,72997,72945
 1.9000e+001 73121 -3.2346e-001 -2.0539e+000  1.4775e-001 57004 72919,73049,72997
 1.9000e+001 73098 -3.9447e-001 -1.5217e+000 -4.8150e-002 57004 72945,72997,72971
 1.9000e+001 73075 -3.2315e-001 -2.1685e+000  2.3554e-001 57004 72997,73049,73023
 1.9000e+001 73650  2.6945e-001 -1.4813e+000  4.2213e-001 56592 73673,73379,73353
 1.9000e+001 73627  6.7088e-002 -1.4467e+000  5.6043e-001 56592 73673,73353,73327
 1.9000e+001 73604  5.7093e-001 -1.0493e+000  3.6805e-001 56592 73745,73509,73483
 1.9000e+001 73581  1.5688e+000 -2.1622e+000  1.1203e+000 56592 73379,73457,73405
 1.9000e+001 73558  9.3870e-001 -2.2624e+000  7.9646e-001 56592 73379,73483,73457
 1.9000e+001 73535  2.3052e+000 -2.5416e+000  8.5682e-001 56592 73405,73457,73431
 1.9000e+001 73699  2.0540e-001 -1.9637e+000  8.3148e-001 56592 73483,73379,73673
 1.9000e+001 73722  6.3352e-001 -1.7213e+000  6.0084e-001 56592 73745,73483,73673
 1.9000e+001 73771  4.9188e-001  1.0935e-001  9.6756e-002 56592 73327,73509,73745
 1.9000e+001 73794  3.7399e-001 -6.0988e-001  4.7460e-001 56592 73327,73745,73673
 1.9000e+001 74123 -7.6181e-001 -6.0971e-001 -1.1314e+000 56152 74146,74002,73924
 1.9000e+001 74100 -3.2586e-001 -9.4209e-001 -5.4359e-001 56152 74146,73924,73898
 1.9000e+001 74077  4.9546e-001  4.4697e-001 -1.5831e+000 56152 73924,74002,73976
 1.9000e+001 74054 -2.9963e-001 -1.3571e+000 -4.3620e-002 56152 73924,73976,73950
 1.9000e+001 74172 -8.5987e-001  5.2457e-001 -9.8020e-001 56152 74028,74002,74146
 1.9000e+001 74195 -3.6638e-001 -3.0667e-001 -3.3474e-001 56152 74028,74146,73898
 1.9000e+001 74345  6.6161e-001 -2.0139e-001 -2.4494e-001 55634 74218,74270,74244
 1.9000e+001 74322 -2.1351e-001 -7.4918e-002 -3.7007e-002 55634 74218,74296,74270
 1.9000e+001 74823 -1.4140e-001 -3.0576e+000  5.3891e-001 55016 74918,74846,74581
 1.9000e+001 74800 -5.9645e-001 -2.1793e+000  2.8634e-001 55016 74846,74477,74633
 1.9000e+001 74777 -5.2134e-001 -3.7477e+000  7.7458e-001 55016 74918,74581,74555
 1.9000e+001 74754 -5.6335e-001 -2.8244e+000  4.8461e-001 55016 74990,74503,74477
 1.9000e+001 74731 -2.9042e-001 -2.9008e+000 -1.0066e+000 55016 74451,74633,74477
 1.9000e+001 74708 -1.6078e+000 -2.1188e+000 -1.2326e+000 55016 74451,74659,74633
 1.9000e+001 74685 -5.6265e-001 -1.7786e+000  1.0122e+000 55016 74503,74555,74529
 1.9000e+001 74872 -5.1126e-001 -3.8995e+000  5.9475e-001 55016 74607,74581,74846
 1.9000e+001 74895 -6.2758e-001 -2.9815e+000  2.7629e-001 55016 74607,74846,74633
 1.9000e+001 74944 -6.9385e-001 -3.1106e+000  5.8747e-001 55016 74477,74846,74918
 1.9000e+001 74967 -5.7201e-001 -2.9149e+000  5.2120e-001 55016 74990,74477,74918
 1.9000e+001 75016 -5.4172e-001 -2.7947e+000  7.9104e-001 55016 74555,74503,74990
 1.9000e+001 75039 -6.4159e-001 -3.0873e+000  8.1666e-001 55016 74555,74990,74918
 1.9000e+001 75287 -6.9506e-001 -6.9356e+000  7.2319e-001 54726 75310,75140,75114
 1.9000e+001 75264 -1.2726e+000 -6.2133e+000  4.0128e-001 54726 75310,75114,75088
 1.9000e+001 75241  7.8464e-001 -5.2720e+000 -5.4920e-002 54726 75088,75192,75166
 1.9000e+001 75218 -7.4413e-001 -9.2583e-001  8.2850e-001 54726 75062,75192,75088
 1.9000e+001 75336  2.4346e-001 -6.4036e+000  4.5609e-001 54726 75166,75140,75310
 1.9000e+001 75359 -9.4188e-001 -5.9442e+000  2.7235e-001 54726 75166,75310,75088
 1.9000e+001 75946 -1.4679e-001 -6.9400e-001 -3.0783e-001 54322 75969,75701,75649
 1.9000e+001 75923  3.2867e-001 -4.4206e-001 -4.0590e-001 54322 75969,75649,75623
 1.9000e+001 75900  4.7221e-002 -4.9251e-001 -6.9182e-002 54322 76041,75753,75701
 1.9000e+001 75877 -3.4467e-002 -1.1992e+000 -7.7969e-002 54322 75623,75805,75779
 1.9000e+001 75854  3.4217e-004 -6.1964e-001  2.0390e-001 54322 75701,75753,75727
 1.9000e+001 75831 -6.2964e-003 -2.6952e-001 -1.4682e-001 54322 75649,75701,75675
 1.9000e+001 75995  1.9679e-001 -5.6935e-001 -1.8857e-001 54322 76041,75701,75969
 1.9000e+001 76018  2.2421e-001 -7.4433e-001 -2.1065e-001 54322 75779,75969,75623
 1.9000e+001 76067 -5.9099e-002 -6.9609e-001 -1.2642e-002 54322 75779,75753,76041
 1.9000e+001 76090  5.5554e-002 -8.4133e-001 -1.2937e-001 54322 75779,76041,75969
 1.9000e+001 76468 -1.6854e-002 -7.4444e-001 -1.2339e-001 53868 76491,76272,76220
 1.9000e+001 76445  1.0443e-001 -7.8710e-001 -3.9767e-002 53868 76491,76220,76324
 1.9000e+001 76422 -4.8300e-002 -1.0464e+000 -1.3892e-001 53868 76220,76272,76246
 1.9000e+001 76399  1.5065e-001 -9.0100e-001 -9.4580e-002 53868 76194,76324,76220
 1.9000e+001 76376  8.6820e-001 -6.1270e-001  8.8350e-002 53868 76194,76350,76324
 1.9000e+001 76517  5.6497e-002 -6.6213e-001 -6.3350e-002 53868 76298,76272,76491
 1.9000e+001 76540  1.7307e-001 -7.2704e-001  1.4775e-002 53868 76298,76491,76324
 1.9000e+001 76690  1.2759e-002 -9.6263e-001  9.4092e-002 53356 76589,76641,76615
 1.9000e+001 76667 -2.9459e-001 -1.3414e+000 -3.9786e-002 53356 76563,76641,76589
 1.9000e+001 76938  2.7446e-001 -5.7897e-003  2.5399e-001 53009 77105,76961,76765
 1.9000e+001 76915 -2.8089e-001 -2.2037e+000 -5.6232e-001 53009 76961,76713,76843
 1.9000e+001 76892 -2.7507e-001 -1.1598e+000  4.0978e-002 53009 77033,76817,76791
 1.9000e+001 76869  9.4497e-001  1.5445e+000  3.7740e-001 53009 77105,76765,76739
 1.9000e+001 76987 -3.9499e-001 -1.3355e+000 -1.1440e-001 53009 76791,76765,76961
 1.9000e+001 77010 -2.4355e-001 -9.3472e-001 -1.8537e-001 53009 77033,76791,76961
 1.9000e+001 77059  9.0863e-002 -9.5833e-001 -1.5827e-001 53009 76843,76817,77033
 1.9000e+001 77082  5.1749e-002 -8.6371e-001 -3.6948e-001 53009 76843,77033,76961
 1.9000e+001 77131  5.4098e-001 -6.0125e-001 -9.6673e-001 53009 76713,76961,77105
 1.9000e+001 77154  7.7241e-001 -7.8216e-002 -9.1349e-001 53009 76713,77105,76739
 1.9000e+001 77355 -2.5242e-001 -3.9247e+000  4.3560e-003 52390 77378,77257,77231
 1.9000e+001 77332  2.7385e-001 -5.7730e+000  4.6580e-001 52390 77378,77231,77179
 1.9000e+001 77309  8.7417e-001 -3.6596e+000  8.1206e-001 52390 77179,77231,77205
 1.9000e+001 77404 -2.6316e-001 -5.3404e+000  8.4178e-001 52390 77283,77257,77378
 1.9000e+001 77427 -3.9492e-003 -7.7026e+000  1.1962e+000 52390 77283,77378,77179
 1.9000e+001 77677 -1.2109e+000  6.1517e-001 -1.5883e+000 51986 77700,77504,77478
 1.9000e+001 77654 -2.6810e-001  4.3089e-001 -1.3199e+000 51986 77700,77478,77452
 1.9000e+001 77631  3.7155e-001  5.9568e-001 -1.4516e+000 51986 77772,77556,77530
 1.9000e+001 77608  3.8486e+000  1.5792e+000 -2.3522e+000 51986 77452,77582,77556
 1.9000e+001 77726 -4.0641e-001  1.1287e+000 -1.0812e+000 51986 77530,77504,77700
 1.9000e+001 77749  3.0252e-001  5.0382e-001 -1.2041e+000 51986 77772,77530,77700
 1.9000e+001 77798  7.1805e-002  4.3651e-001 -1.3167e+000 51986 77452,77556,77772
 1.9000e+001 77821 -8.6419e-002  4.0805e-001 -1.1046e+000 51986 77452,77772,77700
 1.9000e+001 78282 -9.2036e-001 -2.8873e+000  1.3481e-001 51738 78008,78138,78060
 1.9000e+001 78259 -7.5591e-001 -3.2416e+000  1.3006e+000 51738 78008,78164,78138
 1.9000e+001 78236 -9.0554e-001 -2.4399e+000  7.1446e-001 51738 78086,78138,78112
 1.9000e+001 78213 -7.3456e-001 -1.5964e+000  5.7115e-001 51738 78060,78138,78086
 1.9000e+001 78190  5.0787e-001 -4.7324e+000 -7.5786e-001 51738 78008,78060,78034
 1.9000e+001 78432  2.8630e-001 -5.0756e-001  1.9492e-002 51148 78305,78357,78331
 1.9000e+001 78409  1.9233e-001 -4.1987e-001  3.2638e-002 51148 78305,78383,78357
 1.9000e+001 78891 -1.2363e-001 -7.9519e-001 -2.9337e-001 50808 78914,78695,78669
 1.9000e+001 78868 -7.8097e-002 -6.5663e-001 -2.1839e-001 50808 78914,78669,78643
 1.9000e+001 78845 -1.5610e-001 -8.2189e-001 -4.9598e-001 50808 78643,78773,78747
 1.9000e+001 78822 -2.2167e-001 -9.5203e-001 -5.2348e-001 50808 78617,78773,78643
 1.9000e+001 78799 -4.0742e-001 -8.5201e-001 -3.0443e-001 50808 78695,78747,78721
 1.9000e+001 78940 -2.9652e-001 -7.2184e-001 -4.0023e-001 50808 78747,78695,78914
 1.9000e+001 78963 -1.7566e-001 -6.2386e-001 -3.3425e-001 50808 78747,78914,78643
 1.9000e+001 79260  1.5932e-001 -6.7121e-001 -1.0622e-001 50468 79283,79090,79012
 1.9000e+001 79237  4.6323e-001 -6.9574e-001 -2.6485e-002 50468 79283,79012,78986
 1.9000e+001 79214 -1.4015e-001 -8.0358e-001 -1.5338e-001 50468 79012,79090,79038
 1.9000e+001 79191  1.8368e-001 -6.9449e-001  1.6520e-001 50468 78986,79142,79116
 1.9000e+001 79168 -8.8855e-002 -8.0329e-001 -1.7359e-001 50468 79038,79090,79064
 1.9000e+001 79309 -1.3667e-001 -6.3414e-001 -1.1864e-001 50468 79116,79090,79283
 1.9000e+001 79332  2.3107e-001 -5.9930e-001 -1.7530e-002 50468 79116,79283,78986
 1.9000e+001 79889  8.8735e-002  4.2042e-001 -5.6868e-001 50064 79569,79725,79699
 1.9000e+001 79866  7.2647e-001  8.6377e-001 -1.6479e-001 50064 79543,79725,79569
 1.9000e+001 79843  2.4946e-001 -9.7133e-002 -7.5976e-001 50064 79621,79699,79673
 1.9000e+001 79820  6.5384e-001  8.4511e-001 -7.7923e-001 50064 79595,79699,79621
 1.9000e+001 79797  1.3465e+000  9.4895e-001 -5.0996e-001 50064 79569,79699,79595
 1.9000e+001 79774 -4.6169e-001  1.2600e-001 -4.9900e-001 50064 79517,79725,79543
 1.9000e+001 79751  3.9777e-001  5.9321e-001 -5.4021e-001 50064 79621,79673,79647
 1.9000e+001 80169  6.9378e-001  1.2127e+000 -4.8012e-001 49724 80019,80097,80071
 1.9000e+001 80146  7.7701e-001  1.2084e+000 -4.2972e-001 49724 79993,80097,80019
 1.9000e+001 80123  6.0212e-001  1.2532e+000 -6.8553e-001 49724 80019,80071,80045
 1.9000e+001 80626  4.8137e-001  3.6318e-001  3.1202e-001 49277 80352,80482,80378
 1.9000e+001 80603 -7.4196e-002  1.9167e-001 -7.1808e-002 49277 80352,80508,80482
 1.9000e+001 80580  9.5445e-003 -5.2542e-001  4.9546e-002 49277 80378,80482,80456
 1.9000e+001 80557  1.8670e-001 -8.2390e-001  3.9261e-001 49277 80378,80430,80404
 1.9000e+001 80534  1.9716e-001 -3.8625e-001  3.2095e-001 49277 80378,80456,80430
 1.9000e+001 81230  1.2021e+000 -2.8325e-002 -6.9531e-003 48716 81253,80835,80809
 1.9000e+001 81207  8.5459e-001 -4.7847e-001  6.3489e-001 48716 81397,81253,80809
 1.9000e+001 81184  3.3771e-001  1.4574e-001  2.4419e-001 48716 81325,80913,80887
 1.9000e+001 81161 -8.6503e-002 -4.3232e-001  8.2528e-001 48716 81397,80809,81017
 1.9000e+001 81138  7.6487e-002  2.0410e-001  1.7195e-001 48716 81469,80965,80913
 1.9000e+001 81115  9.8365e-002 -1.9135e-001  2.2520e-001 48716 80835,80887,80861
 1.9000e+001 81092  1.3949e+000  1.0055e-001  9.0329e-001 48716 80809,81043,81017
 1.9000e+001 81069  3.0407e-001  3.8476e-001  2.5964e-001 48716 80913,80965,80939
 1.9000e+001 81279  2.3762e-001 -4.4664e-001  8.3667e-002 48716 80887,80835,81253
 1.9000e+001 81302  3.7505e-001  1.3334e-001  1.6451e-001 48716 81325,80887,81253
 1.9000e+001 81351  3.5174e-001  1.5430e-001  2.7881e-001 48716 81469,80913,81325
 1.9000e+001 81374  2.4153e-001  2.8219e-001  3.3959e-001 48716 80991,81325,81253
 1.9000e+001 81423 -4.2928e-001 -1.8163e-001  6.6848e-001 48716 80991,81253,81397
 1.9000e+001 81446 -1.4634e+000 -2.4518e-001  9.3894e-001 48716 80991,81397,81017
 1.9000e+001 81495 -3.7226e-001  2.0946e-001  1.7064e-001 48716 80991,80965,81469
 1.9000e+001 81518 -1.5350e-001  1.1454e-001  2.7347e-001 48716 80991,81469,81325
 1.9000e+001 81717 -1.1194e-001 -7.7742e-001  5.3922e-002 48262 81740,81567,81541
 1.9000e+001 81694 -2.8342e-001 -8.0025e-001  8.4047e-003 48262 81740,81541,81645
 1.9000e+001 81671 -2.0236e-001 -7.3905e-001 -3.9036e-002 48262 81567,81619,81593
 1.9000e+001 81766 -2.1734e-001 -7.6781e-001 -5.0522e-002 48262 81619,81567,81740
 1.9000e+001 81789 -3.9737e-001 -8.1736e-001 -1.0715e-001 48262 81619,81740,81645
 1.9000e+001 81939  8.4556e-001  4.2745e-001 -2.0775e-001 47957 82034,81962,81864
 1.9000e+001 81916  1.0186e+000  2.9397e-001  1.5097e-001 47957 82166,81962,81838
 1.9000e+001 81988 -8.6849e-001  4.6254e-001 -5.9043e-001 47957 82294,81962,81890
 1.9000e+001 82011  6.1625e-001  1.5074e+000  4.2506e-001 47957 81890,81962,81812
 1.9000e+001 82060  7.7010e-001  7.9503e-001  1.5259e-001 47957 81838,81962,82034
 1.9000e+001 82192  1.5783e+000  5.4447e-001  2.6766e-001 47957 81812,81962,82166
 1.9000e+001 82320 -5.6400e-001  5.5530e-001 -5.9597e-001 47957 81864,81962,82294
 1.9000e+001 82549  8.7650e-003 -7.7853e-001 -2.0262e-001 47617 82448,82500,82474
 1.9000e+001 82526  3.2125e-001 -1.2208e+000  3.3248e-003 47617 82422,82500,82448
 1.9000e+001 82902 -2.7607e-001 -1.5149e+000  2.1781e-001 47255 82729,82807,82755
 1.9000e+001 82879  1.4750e-001 -1.8815e+000  5.2081e-001 47255 82703,82807,82729
 1.9000e+001 82856 -6.4802e-001 -1.3592e+000  7.1798e-001 47255 82755,82807,82781
 1.9000e+001 82833  1.7180e+000 -1.2086e+000  6.7888e-001 47255 82677,82807,82703
 1.9000e+001 83182  2.4684e-001 -9.3943e-001 -3.5584e-002 46680 83032,83084,83058
 1.9000e+001 83159  4.5855e-001 -4.4771e-001  3.0243e-002 46680 83205,83084,83032
 1.9000e+001 83136  6.7586e-001 -4.0136e-001 -2.3615e-001 46680 83006,83110,83084
 1.9000e+001 83231 -5.1255e-002 -7.6710e-001 -1.0716e-001 46680 83006,83084,83205
 1.9000e+001 83737 -5.5149e-001 -4.4104e-001 -2.4733e-001 46290 83832,83760,83492
 1.9000e+001 83714 -4.6472e-001 -5.7781e-001 -2.4813e-001 46290 83760,83440,83414
 1.9000e+001 83691 -4.6264e-001 -5.0893e-001 -2.6190e-001 46290 83832,83492,83466
 1.9000e+001 83668 -6.3309e-001 -9.4530e-001 -7.7911e-002 46290 83492,83570,83544
 1.9000e+001 83645 -2.5249e-001 -2.2463e-001 -3.4033e-001 46290 83414,83596,83570
 1.9000e+001 83622 -7.2155e-001 -6.2859e-001  1.7265e-001 46290 83492,83544,83518
 1.9000e+001 83786 -6.7509e-001 -5.2679e-001 -1.4616e-001 46290 83570,83492,83760
 1.9000e+001 83809 -4.7153e-001 -4.9022e-001 -1.9828e-001 46290 83570,83760,83414
 1.9000e+001 83858 -4.1234e-001 -5.4552e-001 -2.6483e-001 46290 83440,83760,83832
 1.9000e+001 83881 -7.7727e-002 -3.4826e-001 -3.8000e-001 46290 83440,83832,83466
 1.9000e+001 84161 -1.2214e-001 -9.9254e-001  3.6924e-001 45829 84011,84063,84037
 1.9000e+001 84138  4.8498e-002 -6.4466e-001  9.8275e-002 45829 84011,84089,84063
 1.9000e+001 84115  7.8210e-003 -6.6173e-001  1.0492e-001 45829 83985,84089,84011
 1.9000e+001 84311 -7.8918e-002 -3.7291e-001  2.0988e-003 45631 84184,84236,84210
 1.9000e+001 84288 -2.1453e-001 -5.2681e-001  1.3181e-001 45631 84184,84262,84236
 1.9000e+001 84657 -1.6495e-001 -5.3891e-001 -3.8704e-002 45155 84680,84490,84412
 1.9000e+001 84634 -2.2277e-001 -5.2383e-001 -3.4486e-002 45155 84680,84412,84360
 1.9000e+001 84611 -2.3702e-001 -5.8327e-001  1.7524e-003 45155 84412,84490,84438
 1.9000e+001 84588 -1.5883e-002 -4.3909e-001 -5.9639e-002 45155 84334,84516,84360
 1.9000e+001 84565 -2.8528e-001 -6.5525e-001 -2.0726e-001 45155 84360,84412,84386
 1.9000e+001 84542 -2.0746e-001 -4.8363e-001  5.8025e-002 45155 84438,84490,84464
 1.9000e+001 84706 -1.3176e-001 -5.3132e-001 -4.6262e-002 45155 84516,84490,84680
 1.9000e+001 84729 -1.7416e-001 -5.0415e-001 -4.4871e-002 45155 84516,84680,84360
 1.9000e+001 85077  2.3971e-001 -1.8369e-002 -1.4613e-003 44508 85100,84754,84910
 1.9000e+001 85054  2.8986e-001  3.2038e-001  2.3381e-002 44508 84754,84936,84910
 1.9000e+001 85031  1.0279e-001 -1.9054e-001  1.8192e-001 44508 85100,84910,84884
 1.9000e+001 85008  3.0731e-002 -1.4769e-001  1.0673e-002 44508 84780,84884,84832
 1.9000e+001 84985  2.8515e-001  3.4211e-001 -1.6643e-001 44508 84780,84832,84806
 1.9000e+001 84962  4.8949e-001  1.1642e-001 -9.8706e-002 44508 84832,84884,84858
 1.9000e+001 85126  1.2734e-001  2.6006e-001 -1.1619e-001 44508 84780,84754,85100
 1.9000e+001 85149  2.5654e-002  8.0519e-002  5.1946e-002 44508 84780,85100,84884
 1.9000e+001 85482 -7.5218e-001 -1.0678e+000 -8.2697e-002 44104 85335,85387,85361
 1.9000e+001 85459 -6.1572e-001 -1.4747e+000 -5.1498e-002 44104 85309,85387,85335
 1.9000e+001 85436 -3.0523e-001 -1.2722e+000  2.0233e-001 44104 85257,85387,85309
 1.9000e+001 85413 -3.7825e-001 -1.7484e+000  1.2188e-001 44104 85257,85309,85283
 1.9000e+001 85811 -1.7054e-001 -3.0135e-001 -9.7121e-002 43600 85586,85664,85612
 1.9000e+001 85788 -2.3370e-001 -4.3934e-001 -7.9848e-002 43600 85586,85690,85664
 1.9000e+001 85765  2.2347e-005 -4.1927e-001 -7.9384e-002 43600 85586,85716,85690
 1.9000e+001 85742 -1.4011e-001 -3.2772e-001 -3.2841e-002 43600 85612,85664,85638
 1.9000e+001 86010 -7.7820e-002 -4.6088e-001 -2.0482e-001 43224 85886,85938,85912
 1.9000e+001 85987  9.7641e-002  1.5502e-001 -2.7053e-001 43224 85834,85938,85886
 1.9000e+001 85964 -4.5352e-001 -3.6800e-001 -3.8133e-002 43224 85834,85886,85860
 1.9000e+001 86420  1.3949e+000  9.3476e-001 -2.6626e-001 42820 86195,86299,86221
 1.9000e+001 86397  8.9168e-001  4.6415e-001 -7.4416e-001 42820 86195,86325,86299
 1.9000e+001 86374  1.0217e+000  9.8849e-001 -9.3871e-002 42820 86221,86299,86273
 1.9000e+001 86351  1.0439e+000  7.2459e-001  8.9173e-002 42820 86221,86273,86247
 1.9000e+001 86749  3.7845e-001  1.8932e-002 -1.0660e-001 42223 86550,86602,86576
 1.9000e+001 86726  5.0484e-001 -2.5617e-001  1.6953e-002 42223 86550,86628,86602
 1.9000e+001 86703 -6.4160e-002 -4.6505e-001  1.3288e-001 42223 86524,86628,86550
 1.9000e+001 86680  2.6255e-001 -8.1598e-002 -5.0991e-002 42223 86524,86654,86628
 1.9000e+001 87078  5.2519e-001 -1.2863e-001  8.5446e-002 41883 87173,87101,86905
 1.9000e+001 87055  3.2779e-001  3.5756e-001 -1.8763e-001 41883 87101,86879,86853
 1.9000e+001 87032  1.9283e-002  2.2135e-002 -1.6274e-001 41883 86853,86983,86931
 1.9000e+001 87009 -8.7946e-002 -2.6332e-001 -1.4988e-001 41883 86931,86983,86957
 1.9000e+001 87127  6.2270e-001 -6.5372e-002 -1.6158e-001 41883 86931,86905,87101
 1.9000e+001 87150  9.0679e-002 -1.9524e-001 -1.9446e-001 41883 86931,87101,86853
 1.9000e+001 87199 -3.7208e-002 -1.8907e-001  2.2708e-002 41883 86879,87101,87173
 1.9000e+001 87558 -7.0093e-002 -1.0631e-002 -3.2588e-002 41471 87382,87460,87408
 1.9000e+001 87535 -3.3686e-001 -1.8830e-001 -1.0986e-001 41471 87382,87486,87460
 1.9000e+001 87512 -1.8309e-001 -7.7793e-002 -8.4348e-002 41471 87408,87460,87434
 1.9000e+001 87806  1.3724e-001 -2.2184e-001  7.3640e-002 41017 87829,87607,87581
 1.9000e+001 87783  8.0718e-002 -3.6060e-001  7.8046e-002 41017 87829,87581,87685
 1.9000e+001 87760  3.3805e-001 -6.1799e-002 -3.1647e-002 41017 87581,87711,87685
 1.9000e+001 87737  3.0256e-001 -7.5348e-001  3.7048e-002 41017 87633,87685,87659
 1.9000e+001 87855  1.5508e-001 -2.6051e-001  1.8149e-001 41017 87633,87607,87829
 1.9000e+001 87878  9.4834e-002 -4.0442e-001  1.8817e-001 41017 87633,87829,87685
 1.9000e+001 88258 -1.0107e-002 -1.9294e-002  1.2921e-002 40613 88281,88036,88010
 1.9000e+001 88235  6.7057e-003 -1.8415e-002  6.0578e-003 40613 88281,88010,88088
 1.9000e+001 88212  1.6952e-003 -2.4592e-002  9.6181e-003 40613 87984,88088,88010
 1.9000e+001 88189  8.8815e-003 -6.6423e-003  6.4040e-003 40613 87984,88114,88088
 1.9000e+001 88166 -1.7937e-003 -8.2815e-003  7.4852e-003 40613 87984,88140,88114
 1.9000e+001 88307  4.7681e-003 -2.1681e-002  7.9044e-003 40613 88062,88036,88281
 1.9000e+001 88330  2.9161e-002 -1.2252e-002 -1.5679e-003 40613 88062,88281,88088
 1.9000e+001 88649  1.9167e-002 -2.9276e-002 -1.8903e-003 40095 88375,88505,88401
 1.9000e+001 88626  2.6369e-003 -1.3011e-002 -1.0934e-002 40095 88375,88531,88505
 1.9000e+001 88603  2.1084e-002 -3.9195e-002 -7.4569e-003 40095 88401,88505,88479
 1.9000e+001 88580 -1.4640e-002 -1.2355e-001  6.6546e-003 40095 88427,88479,88453
 1.9000e+001 88557  1.7433e-002 -6.4674e-002 -3.8505e-003 40095 88401,88479,88427
 1.9000e+001 89078  1.0387e+000  1.5436e-001 -1.1216e-002 39897 89101,88833,88807
 1.9000e+001 89055  8.1479e-001 -1.7642e-001 -1.8288e-001 39897 89101,88807,88911
 1.9000e+001 89032  1.1554e+000  3.2226e-001 -3.1034e-002 39897 88781,88911,88807
 1.9000e+001 89009  4.8101e-001 -1.4803e-001 -3.2868e-001 39897 88781,88937,88911
 1.9000e+001 88986  1.5118e+000  3.6830e-001 -3.0956e-001 39897 88833,88885,88859
 1.9000e+001 88963  1.0013e+000  5.4397e-001 -9.4665e-002 39897 88755,88937,88781
 1.9000e+001 89127  1.2868e+000 -2.3657e-001 -3.1604e-001 39897 88885,88833,89101
 1.9000e+001 89150  8.3789e-001 -7.3968e-001 -5.4457e-001 39897 88885,89101,88911
 1.9000e+001 89300 -2.9585e-001 -5.5084e-001 -5.6813e-002 39607 89453,89323,89199
 1.9000e+001 89277 -4.6292e-001 -3.8604e-001 -8.0434e-002 39607 89525,89453,89199
 1.9000e+001 89349 -3.1543e-001 -5.6059e-001 -6.9214e-002 39607 89225,89199,89323
 1.9000e+001 89479 -3.4638e-001 -2.8048e-001 -5.4560e-002 39607 89251,89323,89453
 1.9000e+001 89502 -1.8619e-001 -7.4027e-002  1.1689e-001 39607 89251,89453,89173
 1.9000e+001 89551 -6.5472e-002 -2.5068e-001 -7.4074e-002 39607 89173,89453,89525
 1.9000e+001 90264 -7.2547e-001 -1.4793e+000 -2.2295e-001 39039 89996,90074,90048
 1.9000e+001 90241 -3.3661e-001 -4.5485e-001 -1.2528e-001 39039 89918,90074,89996
 1.9000e+001 90218 -4.6181e-001 -7.4308e-001 -7.9731e-002 39039 89918,89996,89944
 1.9000e+001 90195 -7.3945e-001 -6.4226e-001 -1.7356e-001 39039 89892,90074,89918
 1.9000e+001 90172 -6.2699e-002 -1.4104e+000 -2.4958e-001 39039 89996,90048,90022
 1.9000e+001 90149 -9.8985e-001  3.2043e-001 -2.5997e-001 39039 89892,90100,90074
 1.9000e+001 90126 -5.9064e-001 -8.0998e-001  1.4209e-001 39039 89944,89996,89970
 1.9000e+001 90770 -1.9119e-001 -4.2743e-001 -1.2000e-002 38635 90473,90603,90577
 1.9000e+001 90747 -1.4766e-001 -4.0055e-001 -3.1622e-002 38635 90447,90603,90473
 1.9000e+001 90724 -1.4365e-001 -4.6581e-001 -2.8140e-002 38635 90499,90577,90551
 1.9000e+001 90701 -2.4013e-001 -5.2801e-001  1.2424e-002 38635 90473,90577,90499
 1.9000e+001 90678 -1.5376e-001 -6.0943e-001 -1.0017e-002 38635 90499,90551,90525
 1.9000e+001 90655 -2.7654e-001 -4.6798e-001  1.8942e-002 38635 90447,90629,90603
 1.9000e+001 90871 -1.1758e-001 -4.2313e-001 -9.7687e-002 38231 90793,90845,90819
 1.9000e+001 91458 -8.6653e-002 -3.1168e-001 -9.8029e-002 37534 91161,91317,91291
 1.9000e+001 91435 -2.6342e-001 -2.6588e-001 -4.6775e-002 37534 91135,91317,91161
 1.9000e+001 91412 -3.4690e-001 -1.0453e+000 -2.6305e-001 37534 91187,91291,91239
 1.9000e+001 91389 -1.7444e-001 -1.0406e+000  1.9791e-002 37534 91161,91291,91187
 1.9000e+001 91366 -1.3777e-001 -7.4349e-001 -1.4867e-001 37534 91239,91291,91265
 1.9000e+001 91343  3.4434e-001 -9.8075e-001 -5.6029e-001 37534 91187,91239,91213
 1.9000e+001 91915 -3.7100e-001 -8.4199e-001  9.9792e-002 37080 91938,91745,91667
 1.9000e+001 91892 -1.0503e-001 -8.2647e-001 -2.6078e-002 37080 91938,91667,91797
 1.9000e+001 91869  2.6823e-002 -3.8432e-001 -1.0267e-002 37080 91641,91797,91667
 1.9000e+001 91846 -4.0124e-001 -8.8427e-001  1.5932e-002 37080 91667,91719,91693
 1.9000e+001 91823 -3.5876e-001 -7.6284e-001  6.7046e-002 37080 91667,91745,91719
 1.9000e+001 91964 -5.3437e-001 -1.0197e+000  3.3872e-001 37080 91771,91745,91938
 1.9000e+001 91987 -2.5045e-001 -8.6429e-001  1.7897e-001 37080 91771,91938,91797
 1.9000e+001 92235 -2.9203e-001 -4.1976e-001 -2.2070e-002 36397 92036,92088,92062
 1.9000e+001 92212 -2.2612e-001 -4.0445e-001 -4.7873e-002 36397 92036,92114,92088
 1.9000e+001 92189 -1.2583e-001 -3.3544e-001 -3.1146e-003 36397 92036,92140,92114
 1.9000e+001 92166 -1.6901e-001 -4.3888e-001 -3.6143e-002 36397 92010,92140,92036
 1.9000e+001 92694  2.0549e-001  2.3220e-003 -4.0099e-002 36057 92446,92498,92472
 1.9000e+001 92671  2.1783e-001 -8.6963e-002  4.8185e-002 36057 92446,92550,92498
 1.9000e+001 92648 -1.2836e-001 -4.3026e-001  1.8934e-001 36057 92446,92576,92550
 1.9000e+001 92625  1.6308e-001  2.5828e-002 -3.3117e-001 36057 92420,92576,92446
 1.9000e+001 92602  4.5778e-002  3.2257e-002  2.5130e-001 36057 92498,92550,92524
 1.9000e+001 93023 -2.9390e-001 -3.4154e-001 -4.3266e-002 35717 92876,92928,92902
 1.9000e+001 93000 -2.3586e-001 -3.8295e-001 -5.8954e-002 35717 92824,92928,92876
 1.9000e+001 92977 -1.6814e-001 -4.0463e-001 -1.4506e-002 35717 92798,92928,92824
 1.9000e+001 92954 -2.4891e-001 -4.8987e-001 -1.6721e-001 35717 92824,92876,92850
 1.9000e+001 93499  3.7863e-001 -2.8028e-001  1.3014e-001 35405 93522,93309,93257
 1.9000e+001 93476  2.6548e-001 -2.7877e-001  1.7697e-001 35405 93666,93522,93257
 1.9000e+001 93453  2.9823e-001 -6.6433e-001  1.5474e-001 35405 93594,93127,93335
 1.9000e+001 93430  2.0972e-001 -3.3780e-001  2.1762e-001 35405 93666,93257,93231
 1.9000e+001 93407  2.1022e-001 -7.8957e-001  4.4537e-002 35405 93127,93179,93153
 1.9000e+001 93384 -1.9752e-001 -6.9710e-002  3.7284e-001 35405 93179,93231,93205
 1.9000e+001 93361  3.2306e-001  4.5669e-002 -8.0441e-002 35405 93257,93309,93283
 1.9000e+001 93548  2.8719e-001 -2.9843e-001  1.8174e-001 35405 93335,93309,93522
 1.9000e+001 93571  2.5493e-001 -3.7555e-001  1.8411e-001 35405 93594,93335,93522
 1.9000e+001 93620  4.0165e-001 -3.6624e-001  9.2071e-002 35405 93179,93127,93594
 1.9000e+001 93643  2.2138e-001 -2.5458e-001  1.1709e-001 35405 93738,93594,93522
 1.9000e+001 93692  1.8720e-001 -2.4573e-001  1.4885e-001 35405 93738,93522,93666
 1.9000e+001 93715  1.9398e-001 -2.3449e-001  1.7049e-001 35405 93179,93666,93231
 1.9000e+001 93764  2.4166e-001 -2.1206e-001  1.0238e-001 35405 93179,93594,93738
 1.9000e+001 93787  2.2486e-001 -1.9594e-001  1.3055e-001 35405 93179,93738,93666
 1.9000e+001 94372  8.1960e-001  1.3968e-002 -2.3482e-002 34951 94395,94127,94075
 1.9000e+001 94349  1.0243e+000 -4.2928e-002  7.1135e-002 34951 94395,94075,94231
 1.9000e+001 94326  1.6348e+000 -1.5000e-001 -4.4471e-001 34951 94049,94231,94075
 1.9000e+001 94303  1.1594e+000  5.6833e-001 -1.6805e-001 34951 94075,94127,94101
 1.9000e+001 94280  1.2167e+000  7.0251e-001  4.5673e-001 34951 94127,94205,94153
 1.9000e+001 94257  1.0263e+000 -2.7354e-002  5.6434e-001 34951 94153,94205,94179
 1.9000e+001 94421  9.7726e-001  9.7226e-003  8.6681e-002 34951 94205,94127,94395
 1.9000e+001 94444  1.3344e+000  5.3962e-002  1.7972e-001 34951 94205,94395,94231
 1.9000e+001 94692  4.5254e-003 -1.0739e-001 -2.5303e-002 34397 94715,94519,94467
 1.9000e+001 94669 -7.5850e-003 -4.7792e-002 -7.8700e-003 34397 94715,94467,94597
 1.9000e+001 94646 -4.7423e-002 -1.2575e-001 -6.3546e-002 34397 94545,94597,94571
 1.9000e+001 94623 -2.6502e-002 -1.9562e-001  9.6917e-003 34397 94467,94519,94493
 1.9000e+001 94741 -5.5275e-002 -2.9162e-001 -5.9526e-002 34397 94545,94519,94715
 1.9000e+001 94764  2.0010e-002 -1.0578e-001 -2.9803e-002 34397 94545,94715,94597
 1.9000e+001 94985  5.0741e-002 -1.9700e-001  9.0017e-003 33985 94835,94913,94887
 1.9000e+001 94962  4.0754e-002 -2.1492e-001  1.0916e-002 33985 94809,94913,94835
 1.9000e+001 94939 -1.6643e-002 -2.2636e-001  2.4019e-002 33985 94835,94887,94861
 1.9000e+001 95186 -9.7692e-002 -5.4860e-001 -2.7164e-001 33645 95281,95209,95036
 1.9000e+001 95163  3.2624e-001 -6.3078e-001  1.1679e-002 33645 95209,95010,95088
 1.9000e+001 95140  3.3744e-001 -3.6564e-001 -2.6984e-002 33645 95010,95114,95088
 1.9000e+001 95235 -3.2814e-001 -6.7016e-001 -3.2309e-001 33645 95062,95036,95209
 1.9000e+001 95258 -2.4192e-001 -8.5380e-001  2.5289e-001 33645 95413,95209,95088
 1.9000e+001 95307  2.1645e-001 -6.6996e-002 -4.4661e-001 33645 95010,95209,95281
 1.9000e+001 95439  4.2202e-002 -5.0951e-001  1.2159e-001 33645 95062,95209,95413
 1.9000e+001 95766 -2.8103e-001 -7.1302e-002 -3.4354e-001 33141 95789,95593,95567
 1.9000e+001 95743 -6.0791e-002 -2.3865e-001 -1.0922e-001 33141 95861,95789,95567
 1.9000e+001 95720 -7.7815e-002 -2.0345e-001 -4.2193e-002 33141 95861,95567,95671
 1.9000e+001 95697 -5.0167e-002 -2.6869e-001 -6.0875e-002 33141 95541,95671,95567
 1.9000e+001 95815 -1.0035e-001  3.8570e-001 -3.0440e-001 33141 95619,95593,95789
 1.9000e+001 95838 -2.8385e-002 -2.3972e-002 -1.0735e-001 33141 95619,95789,95645
 1.9000e+001 95887 -5.4954e-003 -1.1923e-001 -1.2439e-001 33141 95645,95789,95861
 1.9000e+001 95910 -3.2596e-002 -8.8518e-002 -4.8754e-002 33141 95645,95861,95671
 1.9000e+001 96060 -3.0867e-001 -3.1036e-001 -1.2467e-001 32487 95959,96011,95985
 1.9000e+001 96037 -1.5679e-001 -3.0914e-001 -2.7448e-002 32487 95933,96011,95959
 1.9000e+001 96570 -2.6777e-001 -3.4727e-001  2.2810e-001 32033 96665,96593,96377
 1.9000e+001 96547 -2.5943e-001 -2.9955e-001 -8.3295e-002 32033 96737,96593,96325
 1.9000e+001 96524 -3.1399e-001 -4.6694e-001  1.4288e-001 32033 96665,96377,96351
 1.9000e+001 96501 -2.8039e-001 -3.9269e-001 -9.2068e-002 32033 96737,96325,96299
 1.9000e+001 96478 -2.7158e-001 -1.4956e-001 -9.8246e-002 32033 96247,96429,96299
 1.9000e+001 96455 -5.2961e-001 -1.0144e+000 -1.3928e-001 32033 96247,96299,96273
 1.9000e+001 96619 -1.3854e-002 -1.8938e-001  2.2742e-001 32033 96809,96593,96403
 1.9000e+001 96642  1.9900e-001  3.6657e-001 -2.8917e-001 32033 96403,96593,96429
 1.9000e+001 96691 -6.0256e-002 -6.3451e-001  8.4565e-002 32033 96325,96593,96665
 1.9000e+001 96714 -2.3759e-001 -8.5520e-001 -3.2165e-002 32033 96325,96665,96351
 1.9000e+001 96763 -2.7205e-001 -2.5566e-001 -4.0205e-002 32033 96429,96593,96737
 1.9000e+001 96786 -2.8061e-001 -3.0969e-001 -6.0431e-002 32033 96429,96737,96299
 1.9000e+001 96835 -1.0972e-001 -2.6620e-001  1.9329e-001 32033 96377,96593,96809
 1.9000e+001 97064 -1.5352e-002 -6.8705e-003 -8.9042e-003 31671 97087,96989,96963
 1.9000e+001 97041 -1.3004e-003 -1.0610e-002  1.7811e-002 31671 97087,96963,96937
 1.9000e+001 97113  2.2519e-002  2.0215e-003  2.1012e-003 31671 97159,97087,97015
 1.9000e+001 97136  1.6902e-002  3.0956e-002  2.0580e-002 31671 97015,97087,96937
 1.9000e+001 97185  7.3797e-004  1.1272e-002  5.9148e-003 31671 96989,97087,97159
 1.9000e+001 97563 -9.8160e-003 -1.0756e-001 -1.4539e-002 31117 97586,97367,97341
 1.9000e+001 97540 -2.5083e-002 -8.7428e-002  5.3091e-003 31117 97658,97586,97341
 1.9000e+001 97517 -3.2040e-002 -1.1761e-001  1.9272e-003 31117 97658,97341,97315
 1.9000e+001 97494  2.4425e-002 -2.0978e-001 -3.6603e-002 31117 97289,97445,97315
 1.9000e+001 97471  1.9663e-002 -2.8154e-002 -3.1919e-003 31117 97367,97419,97393
 1.9000e+001 97612 -3.4293e-003 -3.5965e-002 -2.5485e-002 31117 97419,97367,97586
 1.9000e+001 97635  2.7620e-002 -7.7209e-002  4.2715e-002 31117 97419,97586,97445
 1.9000e+001 97684  3.5668e-003 -1.3084e-001  2.2315e-002 31117 97445,97586,97658
 1.9000e+001 97707 -6.5446e-003 -1.6541e-001  1.7052e-002 31117 97445,97658,97315
 1.9000e+001 98215  2.2974e-003 -1.3635e-002 -1.8941e-001 30563 98238,97996,97944
 1.9000e+001 98192 -1.7606e-001  1.2557e-002 -1.9544e-001 30563 98310,98238,97944
 1.9000e+001 98169 -3.4890e-001 -2.1008e-001 -2.9831e-001 30563 98310,97944,97918
 1.9000e+001 98146  8.9341e-002 -1.4626e-002 -4.3792e-002 30563 97892,98074,97918
 1.9000e+001 98123  1.1938e-001  4.5213e-002 -1.8677e-002 30563 97996,98048,98022
 1.9000e+001 98100 -2.3939e-001 -5.5165e-002 -2.6696e-001 30563 97944,97996,97970
 1.9000e+001 98264 -4.3069e-002  5.2693e-002 -1.5843e-001 30563 98048,97996,98238
 1.9000e+001 98287  9.4283e-002  3.5057e-001  7.3672e-002 30563 98048,98238,98074
 1.9000e+001 98336 -2.8616e-002 -5.1647e-002 -2.3028e-002 30563 98074,98238,98310
 1.9000e+001 98359 -1.3354e-001 -9.4775e-002 -9.2448e-002 30563 98074,98310,97918
 1.9000e+001 98607 -4.0665e-001 -1.8698e-002  1.6159e-002 30073 98630,98460,98408
 1.9000e+001 98584 -5.9374e-001 -9.9003e-002 -3.1031e-002 30073 98630,98408,98382
 1.9000e+001 98561 -2.2402e-001 -8.2815e-002 -5.9072e-002 30073 98382,98512,98486
 1.9000e+001 98538 -2.6370e-001 -6.5723e-002  1.1683e-001 30073 98408,98460,98434
 1.9000e+001 98656 -3.0095e-001 -1.3763e-001 -2.3470e-002 30073 98486,98460,98630
 1.9000e+001 98679 -4.2297e-001 -1.6806e-001 -5.9346e-002 30073 98486,98630,98382
 1.9000e+001 99157  7.3023e-001  3.9096e-002  3.7879e-002 29669 99180,98837,98811
 1.9000e+001 99134  4.5279e-001  1.1236e-002  3.5002e-001 29669 99324,99180,98811
 1.9000e+001 99111  6.2533e-002 -1.2987e-002  5.9225e-002 29669 99252,98863,98837
 1.9000e+001 99088  4.4262e-001 -4.5157e-002  3.6687e-001 29669 99324,98811,98993
 1.9000e+001 99065 -2.3740e-002 -7.9955e-002 -1.8067e-002 29669 98863,98941,98915
 1.9000e+001 99042 -7.0942e-001 -1.4838e-001 -8.8779e-002 29669 98863,98915,98889
 1.9000e+001 99019  4.1988e-001 -3.4860e-002  4.7503e-001 29669 98785,98993,98811
 1.9000e+001 99206  2.3287e-001 -1.7757e-001  1.0069e-001 29669 99252,98837,99180
 1.9000e+001 99229  2.3013e-002 -1.3084e-001  4.3377e-001 29669 98941,99180,98967
 1.9000e+001 99278  2.2073e-001  6.8023e-002  1.0240e-001 29669 98941,98863,99252
 1.9000e+001 99301  4.7212e-001  1.4837e-002  1.9038e-001 29669 98941,99252,99180
 1.9000e+001 99350  4.3476e-001  8.1211e-002  3.4401e-001 29669 98967,99180,99324
 1.9000e+001 99373  4.3860e-001  3.6132e-002  3.5230e-001 29669 98967,99324,98993
 1.9000e+001 99958  4.8043e-001 -1.3968e-001 -2.6056e-002 29051 99981,99765,99739
 1.9000e+001 99935  3.9343e-001 -6.7129e-002 -7.3982e-002 29051 99981,99739,99661
 1.9000e+001 99912  2.8748e-001 -7.3055e-001 -5.9080e-003 29051 99765,99817,99791
 1.9000e+001 99889  7.4098e-001 -8.2760e-002 -3.4488e-001 29051 99635,99817,99661
 1.9000e+001 99866  4.6875e-001 -1.1904e-003 -1.1705e-001 29051 99661,99739,99687
 1.9000e+001 99843  3.5108e-001 -1.0303e-001 -5.9584e-002 29051 99687,99739,99713
 1.9000e+001 100007  5.6140e-001 -1.0612e-001 -4.9860e-002 29051 99817,99765,99981
 1.9000e+001 100030  4.6920e-001 -4.0886e-002 -8.3691e-002 29051 99817,99981,99661
 1.9000e+001 100278  6.4788e-001 -1.1294e-001  2.3160e-001 28525 100445,100301,100131
 1.9000e+001 100255  3.4787e-001  1.8704e-001  1.9314e-001 28525 100373,100301,100079
 1.9000e+001 100232  3.3591e-001  1.3554e-002  2.1721e-001 28525 100373,100079,100053
 1.9000e+001 100209  4.6525e-001  2.5011e-002  8.9841e-002 28525 100445,100131,100105
 1.9000e+001 100327  8.4959e-001 -7.8391e-002  2.6590e-001 28525 100517,100301,100157
 1.9000e+001 100350  5.6699e-001  5.1392e-001  2.3071e-001 28525 100157,100301,100183
 1.9000e+001 100399  3.3848e-001  6.4143e-003  2.8191e-001 28525 100183,100301,100373
 1.9000e+001 100422  3.6616e-001 -1.1679e-001  3.0420e-001 28525 100183,100373,100053
 1.9000e+001 100471  4.0548e-001 -1.6965e-001 -5.0210e-002 28525 100079,100301,100445
 1.9000e+001 100494 -1.0277e-001 -2.6907e-001 -2.0672e-001 28525 100079,100445,100105
 1.9000e+001 100543  1.0483e+000  1.4263e-001  6.5320e-002 28525 100131,100301,100517
 1.9000e+001 101209 -9.2288e-001 -2.6308e-002  8.5504e-003 28185 100938,101016,100990
 1.9000e+001 101186 -9.8394e-001 -1.2133e-002  2.5981e-002 28185 100912,101016,100938
 1.9000e+001 101163 -3.1661e-001  1.9733e-001  1.0588e-001 28185 100912,101068,101016
 1.9000e+001 101140 -9.7645e-001  6.0667e-002 -4.4695e-003 28185 100886,101068,100912
 1.9000e+001 101117 -3.5798e-001  3.5001e-001  1.7067e-001 28185 101016,101068,101042
 1.9000e+001 101094 -2.3579e+000 -4.3362e-001 -2.8517e-002 28185 100938,100990,100964
 1.9000e+001 101408  1.3403e-001 -1.1979e-001 -1.3061e-001 27781 101503,101431,101310
 1.9000e+001 101385 -1.6433e-001  1.4715e-001 -3.8320e-001 27781 101431,101258,101232
 1.9000e+001 101362  1.8418e-001 -1.3668e-001 -1.5051e-001 27781 101503,101310,101284
 1.9000e+001 101457  7.1345e-001  1.6008e-001 -2.1746e-001 27781 101336,101310,101431
 1.9000e+001 101480  1.8578e-001  3.2118e-001 -4.6062e-001 27781 101575,101431,101232
 1.9000e+001 101529  3.2146e-001 -5.1921e-002 -3.2346e-001 27781 101258,101431,101503
 1.9000e+001 101552  1.9099e-001 -1.9395e-001 -1.6215e-001 27781 101705,101503,101284
 1.9000e+001 101601  3.3277e-001  5.4340e-001 -5.3063e-001 27781 101336,101431,101575
 1.9000e+001 101731 -8.4733e-002 -2.2492e-001 -3.1275e-001 27781 101258,101503,101705
 1.9000e+001 102237 -4.0132e-001 -1.7592e-001  5.1515e-002 27419 102476,102260,101992
 1.9000e+001 102214 -2.3923e-001 -3.0219e-001 -3.6053e-003 27419 102260,101940,101914
 1.9000e+001 102191 -4.8623e-001 -3.7390e-001  4.9814e-002 27419 102404,102332,102096
 1.9000e+001 102168 -4.2140e-001 -3.6533e-001 -1.6795e-002 27419 102404,102096,102044
 1.9000e+001 102145 -3.6685e-001 -2.0329e-001  7.2385e-002 27419 102476,101992,101966
 1.9000e+001 102122 -3.0606e-001 -3.4787e-001 -3.7689e-002 27419 102044,102096,102070
 1.9000e+001 102286 -5.3805e-001 -3.2319e-001  1.1291e-001 27419 102018,101992,102260
 1.9000e+001 102309 -4.2448e-001 -2.6226e-001  1.6671e-002 27419 102332,102018,102260
 1.9000e+001 102358 -4.7092e-001 -5.5716e-001  1.6091e-001 27419 101914,102096,102332
 1.9000e+001 102381 -3.6255e-001 -4.0659e-001  5.3854e-002 27419 101914,102332,102260
 1.9000e+001 102430 -3.4772e-001 -3.3907e-001  9.6043e-003 27419 102018,102332,102404
 1.9000e+001 102453 -3.0533e-001 -3.2625e-001 -6.3908e-002 27419 102018,102404,102044
 1.9000e+001 102502 -3.0377e-001 -2.6408e-001  7.4989e-002 27419 101940,102260,102476
 1.9000e+001 102525  1.1952e-001 -6.2732e-002  1.7573e-002 27419 101940,102476,101966
 1.9000e+001 103031  3.2493e-001  1.0692e-002 -6.1537e-002 26715 102708,102786,102760
 1.9000e+001 103008  3.1853e-001  4.9445e-002 -5.4830e-002 26715 102708,102890,102786
 1.9000e+001 102985  6.6310e-001 -7.8935e-002  2.1450e-002 26715 102838,102890,102864
 1.9000e+001 102962  3.6797e-001 -1.7615e-001  1.1786e-001 26715 102786,102890,102838
 1.9000e+001 102939  1.0614e+000  1.7565e-001  5.6242e-001 26715 102786,102838,102812
 1.9000e+001 102916  3.2649e-001  1.0278e-002 -5.7830e-002 26715 102708,102760,102734
 1.9000e+001 103279 -9.9741e-003 -2.1260e-002  1.1924e-002 26303 103302,103158,103080
 1.9000e+001 103256 -9.4318e-003 -2.2410e-002  1.1756e-002 26303 103302,103080,103054
 1.9000e+001 103233 -2.6030e-002 -3.1416e-002  3.0508e-003 26303 103080,103158,103106
 1.9000e+001 103210  7.1951e-003 -2.3133e-002  3.2749e-003 26303 103106,103158,103132
 1.9000e+001 103328 -1.2746e-002 -2.0235e-002  1.1499e-002 26303 103184,103158,103302
 1.9000e+001 103351 -1.0550e-002 -1.9902e-002  1.1506e-002 26303 103184,103302,103054
 1.9000e+001 103501 -4.2025e-001 -3.9212e-001  3.3486e-002 25849 103374,103426,103400
 1.9000e+001 103478 -3.8969e-001 -2.7464e-001  2.1249e-002 25849 103374,103452,103426
 1.9000e+001 104090  8.3511e-002  3.9947e-002  1.1024e-001 25445 103793,103871,103819
 1.9000e+001 104067  2.4676e-001  9.7412e-002  4.0294e-002 25445 103793,103949,103871
 1.9000e+001 104044  2.9914e-001  9.9401e-002  1.2279e-001 25445 103871,103949,103923
 1.9000e+001 104021 -3.5075e-002  7.1327e-002 -3.1228e-002 25445 103819,103871,103845
 1.9000e+001 103998  3.0862e-001  1.8485e-001  1.5875e-001 25445 103767,103949,103793
 1.9000e+001 103975  3.5348e-001  8.2269e-002  1.2356e-001 25445 103871,103923,103897
 1.9000e+001 104419 -1.8475e-001 -8.7957e-002 -8.0850e-002 25083 104220,104298,104272
 1.9000e+001 104396 -3.7109e-001 -3.0887e-001  1.0154e-003 25083 104220,104324,104298
 1.9000e+001 104373 -1.2969e-001 -9.6919e-002 -3.1308e-002 25083 104220,104272,104246
 1.9000e+001 104350 -3.7717e-001 -3.2705e-001 -5.0992e-003 25083 104194,104324,104220
 1.9000e+001 105102  4.1238e-002 -1.8375e-001  2.5883e-002 24793 104785,104863,104837
 1.9000e+001 105079  6.1583e-002 -2.5680e-001 -1.2280e-001 24793 104759,104863,104785
 1.9000e+001 105056  5.7369e-003 -4.9594e-002 -1.3599e-001 24793 104759,104915,104863
 1.9000e+001 105033  8.7420e-003 -1.1962e-001 -1.5378e-001 24793 104733,104915,104759
 1.9000e+001 105010  2.6507e-001  6.2297e-002 -1.4493e-001 24793 104863,104915,104889
 1.9000e+001 104987 -1.4996e-001 -5.3396e-003 -2.6968e-001 24793 104681,104915,104733
 1.9000e+001 104964 -3.4455e-002 -2.6044e-001 -1.2452e-002 24793 104785,104837,104811
 1.9000e+001 104941 -9.1002e-002  2.3006e-001 -2.5957e-001 24793 104681,104733,104707
 1.9000e+001 105252  8.8959e-001  2.8374e-001 -5.7492e-002 24389 105477,105275,105177
 1.9000e+001 105229  2.9878e-001  3.0574e-002  2.0922e-001 24389 105347,105275,105151
 1.9000e+001 105301  7.9082e-001  1.5132e-001 -1.4105e-002 24389 105203,105177,105275
 1.9000e+001 105324  1.2340e+000  8.7403e-001  3.3332e-001 24389 105203,105275,105125
 1.9000e+001 105373  9.1819e-001  3.9954e-001  1.0480e-002 24389 105125,105275,105347
 1.9000e+001 105503  6.5176e-001 -2.0683e-001 -1.3007e-001 24389 105151,105275,105477
 1.9000e+001 106088 -3.7534e-001  3.3905e-001  4.1447e-001 23735 105791,105921,105895
 1.9000e+001 106065 -1.1408e+000  9.2928e-002  5.1449e-001 23735 105765,105921,105791
 1.9000e+001 106042 -1.8753e-001  5.3492e-001  3.1155e-001 23735 105765,105947,105921
 1.9000e+001 106019 -1.3754e+000 -3.3759e-002  5.3339e-001 23735 105817,105895,105869
 1.9000e+001 105996 -8.5168e-001  1.4019e-001  5.1374e-001 23735 105791,105895,105817
 1.9000e+001 105973 -8.1147e-001 -1.3513e-001  5.0687e-001 23735 105817,105869,105843
 1.9000e+001 106417  4.4510e-001  1.0310e+000 -1.8002e-001 23295 106218,106296,106270
 1.9000e+001 106394  3.0156e-001  4.3290e-001 -1.5824e-001 23295 106218,106322,106296
 1.9000e+001 106371  1.1869e-001  2.9952e-001 -2.5711e-001 23295 106218,106270,106244
 1.9000e+001 106348  4.8568e-001  5.1160e-001 -6.4836e-002 23295 106192,106322,106218
 1.9000e+001 106746  2.0403e-001  3.9587e-001  1.4073e-001 23005 106521,106599,106547
 1.9000e+001 106723  4.9433e-001  7.0164e-001  2.1671e-002 23005 106521,106651,106599
 1.9000e+001 106700  5.3536e-001  2.0766e-001 -2.0128e-001 23005 106547,106599,106573
 1.9000e+001 106677  6.2035e-001  6.7086e-001  3.3664e-001 23005 106599,106651,106625
 1.9000e+001 107331  3.8181e-002 -2.7703e-002  3.6772e-002 22601 107060,107190,107138
 1.9000e+001 107308  2.3662e-001 -7.3191e-002  1.1370e-001 22601 107034,107190,107060
 1.9000e+001 107285  1.1519e-001  3.2433e-002  1.3840e-001 22601 107060,107138,107112
 1.9000e+001 107262  3.1913e-001 -1.2109e-001 -1.9099e-002 22601 107008,107190,107034
 1.9000e+001 107239  1.8203e-001 -6.0671e-002  1.6485e-001 22601 107060,107112,107086
 1.9000e+001 107216 -4.0621e-002 -2.8884e-001  5.8289e-002 22601 107138,107190,107164
 1.9000e+001 107807 -2.6756e-001  1.1446e-001 -4.1967e-002 22031 107974,107902,107617
 1.9000e+001 107784 -3.0909e-001  2.5774e-001 -1.2468e-001 22031 107830,107565,107513
 1.9000e+001 107761 -1.3758e-001  7.1782e-002 -1.3874e-001 22031 108046,107830,107513
 1.9000e+001 107738 -1.9700e-001  2.4283e-001  1.5880e-002 22031 107974,107617,107591
 1.9000e+001 107715 -1.5803e-001  1.3437e-002 -1.3047e-001 22031 108046,107513,107461
 1.9000e+001 107692 -7.6761e-001  3.7817e-001 -2.3094e-001 22031 107513,107565,107539
 1.9000e+001 107669 -1.7408e-002  1.7546e-001 -2.1504e-001 22031 107461,107513,107487
 1.9000e+001 107856 -3.8085e-001  1.9087e-001 -7.3256e-002 22031 107902,107565,107830
 1.9000e+001 107879 -2.2082e-001 -6.6962e-002  5.3907e-003 22031 107643,107830,107435
 1.9000e+001 107928 -6.0474e-001  2.6586e-001 -2.7047e-001 22031 107643,107617,107902
 1.9000e+001 107951 -3.8823e-001  1.6802e-001  3.6655e-002 22031 107643,107902,107830
 1.9000e+001 108000 -3.3241e-001  2.9723e-001 -6.2214e-002 22031 107565,107902,107974
 1.9000e+001 108023 -3.2449e-001  2.6158e-001 -5.0505e-002 22031 107565,107974,107591
 1.9000e+001 108072 -1.0659e-001 -1.6023e-003 -5.5610e-002 22031 107435,107830,108046
 1.9000e+001 108095 -1.4504e-001 -9.4352e-002 -4.7749e-002 22031 107435,108046,107461
 1.9000e+001 108196 -3.3562e-003 -3.5106e-002  5.1490e-003 21783 108118,108170,108144
 1.9000e+001 108655  1.0814e-001  6.2423e-001  3.6892e-001 21379 108407,108485,108459
 1.9000e+001 108632  1.1879e+000 -8.7126e-002  5.4215e-001 21379 108407,108511,108485
 1.9000e+001 108609  1.2777e+000 -3.2524e-001  2.2886e-001 21379 108381,108511,108407
 1.9000e+001 108586  3.8305e-001 -1.5682e-004 -3.7226e-001 21379 108381,108537,108511
 1.9000e+001 108563  3.3482e-001  8.2680e-002  1.6545e-001 21379 108407,108459,108433
 1.9000e+001 109082  1.9058e-002 -6.6099e-002 -1.1659e-002 20974 109105,108863,108811
 1.9000e+001 109059 -2.3897e-002 -8.7417e-002  7.0082e-003 20974 109105,108811,108759
 1.9000e+001 109036  2.4470e-003 -1.1850e-001 -8.9527e-003 20974 109177,108889,108863
 1.9000e+001 109013 -2.5163e-002 -6.7042e-002  1.8330e-003 20974 108811,108863,108837
 1.9000e+001 108990  1.1906e-003 -2.2419e-002  1.1039e-003 20974 108759,108941,108915
 1.9000e+001 108967 -1.8363e-002 -3.4647e-002 -4.3851e-003 20974 108759,108811,108785
 1.9000e+001 109131  2.6512e-003 -1.0434e-001 -1.0621e-002 20974 109177,108863,109105
 1.9000e+001 109154  2.9905e-003 -1.7871e-002 -1.4059e-003 20974 108915,109105,108759
 1.9000e+001 109203 -1.9485e-002 -1.0768e-001 -3.5957e-002 20974 108915,108889,109177
 1.9000e+001 109226 -1.2890e-003 -6.0848e-002 -3.1849e-002 20974 108915,109177,109105
 1.9000e+001 109496 -4.5299e-001  8.7781e-002 -4.4021e-002 20470 109271,109375,109297
 1.9000e+001 109473 -4.2012e-001  1.4613e-001 -7.2899e-002 20470 109271,109401,109375
 1.9000e+001 109450 -5.5093e-001 -2.8126e-002 -8.7338e-002 20470 109297,109375,109349
 1.9000e+001 109427 -7.7846e-001 -4.8411e-001  1.6237e-001 20470 109297,109349,109323
 1.9000e+001 109955  7.5559e-002  7.0792e-001  4.3442e-001 20123 110050,109733,109707
 1.9000e+001 109932 -3.0402e-001  4.2714e-001  3.0631e-001 20123 110050,109707,109681
 1.9000e+001 109909  1.4582e-001  3.0022e-001  3.6002e-001 20123 109978,109759,109733
 1.9000e+001 109886 -2.9958e-002  1.8358e-001  3.0940e-001 20123 110122,109978,109733
 1.9000e+001 109863  1.6489e-001  1.0464e-001  2.0763e-001 20123 109785,109837,109811
 1.9000e+001 110004  1.0633e-001  2.4339e-001  2.7619e-001 20123 109785,109759,109978
 1.9000e+001 110027  6.6958e-002  1.8827e-001  2.0051e-001 20123 109785,109978,109837
 1.9000e+001 110076 -1.2415e-001  3.1407e-001  2.5112e-001 20123 110122,109733,110050
 1.9000e+001 110099 -1.0946e-001  3.9367e-001  1.3104e-001 20123 109837,110050,109681
 1.9000e+001 110148  1.5094e-001  3.6872e-001  2.3341e-001 20123 109837,109978,110122
 1.9000e+001 110171  6.6045e-002  4.8260e-001  1.7371e-001 20123 109837,110122,110050
 1.9000e+001 110500  5.5280e-001  8.0182e-002 -4.8709e-002 19511 110301,110379,110353
 1.9000e+001 110477  1.0689e+000  5.5278e-001 -2.6585e-001 19511 110301,110405,110379
 1.9000e+001 110454  4.0287e-001  1.8914e-001 -5.7920e-002 19511 110275,110405,110301
 1.9000e+001 110431  5.0612e-001  8.6186e-002  1.2165e-001 19511 110301,110353,110327
 1.9000e+001 110957  9.6953e-002  8.4542e-001 -3.7986e-001 19107 110683,110735,110709
 1.9000e+001 110934  1.9082e-001 -1.0794e-001 -7.3493e-001 19107 110683,110813,110735
 1.9000e+001 110911  5.5052e-001  7.5011e-001 -6.2513e-001 19107 110735,110813,110761
 1.9000e+001 110888  3.4745e-001 -4.9765e-001  3.5568e-002 19107 110683,110839,110813
 1.9000e+001 110865  3.9386e-001  3.9468e-001 -5.9951e-001 19107 110761,110813,110787
 1.9000e+001 111335  5.8934e-002 -3.4175e-001 -1.8774e-002 18653 111087,111165,111139
 1.9000e+001 111312  3.6181e-001 -1.5228e-002 -1.4813e-001 18653 111087,111217,111165
 1.9000e+001 111289  1.0690e-001 -1.7073e-001  1.6886e-001 18653 111061,111217,111087
 1.9000e+001 111266 -3.8387e-002 -5.1303e-001 -6.6167e-002 18653 111087,111139,111113
 1.9000e+001 111243  2.8117e-001 -1.7501e-001 -1.9292e-001 18653 111165,111217,111191
 1.9000e+001 111735 -5.6793e-001 -2.8016e-001  6.9302e-002 18213 111461,111513,111487
 1.9000e+001 111712 -4.8273e-001 -3.6065e-001  3.7337e-002 18213 111461,111617,111513
 1.9000e+001 111689 -4.1158e-001 -1.9781e-001  2.2372e-002 18213 111513,111617,111591
 1.9000e+001 111666 -2.3618e-001 -1.9778e-001  7.4157e-002 18213 111513,111591,111539
 1.9000e+001 111643 -1.4391e-001 -1.3819e-001  4.0094e-002 18213 111539,111591,111565
 1.9000e+001 111885  6.1093e-001 -3.3251e-001  1.7497e-001 17659 111784,111836,111810
 1.9000e+001 111862  8.1429e-001 -2.0140e-002  3.0684e-001 17659 111758,111836,111784
 1.9000e+001 112287  1.4349e-001  1.0220e-001  6.6238e-004 17411 112065,112169,112143
 1.9000e+001 112264  1.6466e-001  3.6533e-003  7.5576e-003 17411 112039,112169,112065
 1.9000e+001 112241  1.6090e-001  8.1824e-003 -5.5430e-003 17411 112013,112169,112039
 1.9000e+001 112218  2.2072e+000  2.4253e-001 -5.2497e-001 17411 112091,112143,112117
 1.9000e+001 112195  7.5290e-002 -3.1615e-002 -3.0414e-002 17411 112065,112143,112091
 1.9000e+001 112508 -4.3727e-001  3.4412e-001  5.9001e-002 17007 112384,112436,112410
 1.9000e+001 112485 -3.0586e-001  4.7510e-001  1.1542e-001 17007 112332,112436,112384
 1.9000e+001 112462 -4.2880e-001  2.3386e-001  7.2272e-002 17007 112332,112384,112358
 1.9000e+001 112658 -1.0656e+000 -3.8159e-001  2.8157e-001 16553 112557,112609,112583
 1.9000e+001 112635 -1.5209e+000 -1.4120e-001  3.4396e-001 16553 112531,112609,112557
 1.9000e+001 112761  8.7267e-003 -1.7536e-001  4.8311e-003 16355 112683,112735,112709
 1.9000e+001 112913 -7.3109e-001  4.4359e-001  4.8501e-002 15949 112786,112838,112812
 1.9000e+001 112890 -3.2021e-001  1.1581e+000 -1.4228e-001 15949 112786,112864,112838
 1.9000e+001 113065 -5.0705e-003 -9.5746e-002 -3.8014e-003 15609 112938,112990,112964
 1.9000e+001 113042 -1.6123e-002 -1.6427e-001 -3.7445e-002 15609 112938,113016,112990
 1.9000e+001 113420  4.8237e-001  4.1348e-001  1.3312e-001 15284 113247,113325,113299
 1.9000e+001 113397  4.6860e-001  3.7784e-001  6.5687e-002 15284 113195,113325,113247
 1.9000e+001 113374  4.0346e-001  3.5174e-001  6.5650e-002 15284 113195,113247,113221
 1.9000e+001 113351  4.4608e-001  6.7947e-001  1.4999e-001 15284 113247,113299,113273
 1.9000e+001 113521 -1.4350e-003 -2.4203e-002  1.0770e-002 202 113443,113495,113469
 1.9500e+001 65564 -5.3293e-002 -5.0832e-001  1.2811e-001 65155 65414,65466,65440
 1.9500e+001 65541 -8.3017e-001 -2.0895e+000  3.8888e-001 65155 65414,65492,65466
 1.9500e+001 65518 -1.0885e-001 -1.6636e+000  6.8310e-002 65155 65388,65492,65414
 1.9500e+001 65883  2.6349e-001 -1.0805e+000 -9.3861e-002 64957 65635,65739,65713
 1.9500e+001 65860  1.7155e-001 -1.7225e+000 -1.3172e-001 64957 65635,65765,65739
 1.9500e+001 65837 -1.3184e-001 -1.9031e+000 -2.0874e-002 64957 65609,65765,65635
 1.9500e+001 65814  1.9830e-001 -1.4488e+000  3.8543e-001 64957 65635,65713,65687
 1.9500e+001 65791  8.7231e-002 -1.7944e+000  1.9145e-001 64957 65635,65687,65661
 1.9500e+001 65984  5.7003e-002 -6.8952e-003 -5.1414e-002 64781 65906,65958,65932
 1.9500e+001 66232 -4.5652e-001 -5.6545e-001  5.0688e-001 64469 66007,66059,66033
 1.9500e+001 66209  2.5187e-001 -1.8176e-001  7.0875e-001 64469 66007,66085,66059
 1.9500e+001 66186 -2.5607e-001 -1.4076e+000  5.4062e-001 64469 66007,66137,66085
 1.9500e+001 66163  9.1491e-002 -1.4549e+000  1.4591e+000 64469 66085,66137,66111
 1.9500e+001 66504  1.9928e-002 -1.5844e+000  5.0362e-002 64271 66279,66383,66305
 1.9500e+001 66481  1.6866e-001 -1.5906e+000 -4.7942e-002 64271 66279,66409,66383
 1.9500e+001 66458  3.3325e-001 -2.0676e+000  6.3443e-002 64271 66305,66357,66331
 1.9500e+001 66435 -1.3119e-001 -1.8680e+000  1.1614e-001 64271 66305,66383,66357
 1.9500e+001 66705  2.2051e-001 -3.0926e+000  5.0434e-001 64073 66728,66581,66555
 1.9500e+001 66682 -6.3403e-002 -2.5089e+000  6.0874e-001 64073 66728,66555,66529
 1.9500e+001 66659  6.3652e-001 -2.9642e+000 -5.5617e-001 64073 66581,66633,66607
 1.9500e+001 66754  2.8417e-002 -2.5846e+000  3.0424e-001 64073 66633,66581,66728
 1.9500e+001 66777  8.7725e-003 -1.7403e+000  2.9039e-001 64073 66633,66728,66529
 1.9500e+001 66951 -2.9827e-001 -4.6777e-001 -2.1808e-001 63783 66824,66876,66850
 1.9500e+001 66928  1.0923e+000 -6.3291e-001  3.3056e-001 63783 66824,66902,66876
 1.9500e+001 67201 -6.8797e-001 -2.3245e+000 -1.2387e-001 63585 66976,67080,67054
 1.9500e+001 67178 -2.5612e-001 -2.1772e+000  2.3019e-001 63585 66976,67106,67080
 1.9500e+001 67155  5.8770e-002 -2.8220e+000 -5.4610e-001 63585 66976,67054,67028
 1.9500e+001 67132  4.4194e-001 -2.0247e+000 -2.6259e-001 63585 66976,67028,67002
 1.9500e+001 67654  1.3469e-001 -1.2860e+000 -2.1489e-002 63295 67357,67487,67383
 1.9500e+001 67631  1.5838e-001 -1.6033e+000  2.2488e-001 63295 67331,67487,67357
 1.9500e+001 67608 -1.0003e-001 -1.9230e+000 -2.5626e-002 63295 67331,67513,67487
 1.9500e+001 67585  6.0916e-003 -1.9761e+000  1.9995e-002 63295 67435,67487,67461
 1.9500e+001 67562 -9.1480e-002 -1.9959e+000  3.8757e-003 63295 67383,67487,67435
 1.9500e+001 67539  4.4553e-002 -1.8042e+000  7.1563e-002 63295 67383,67435,67409
 1.9500e+001 67853 -1.0089e-001 -1.6691e+000 -1.7690e-003 62891 67876,67703,67677
 1.9500e+001 67830 -1.2145e-001 -1.8136e+000 -1.8605e-002 62891 67876,67677,67781
 1.9500e+001 67807 -5.7878e-002 -1.4640e+000 -8.3681e-002 62891 67948,67729,67703
 1.9500e+001 67902 -1.0965e-001 -1.6516e+000  4.7737e-002 62891 67948,67703,67876
 1.9500e+001 67925 -3.2170e-001 -1.6496e+000  1.1071e-001 62891 67755,67876,67781
 1.9500e+001 67974 -1.8397e-001 -1.2099e+000 -8.1570e-002 62891 67755,67729,67948
 1.9500e+001 67997 -1.3747e-001 -1.3078e+000  2.4390e-002 62891 67755,67948,67876
 1.9500e+001 68218  2.3097e-001 -3.8464e+000 -6.3274e-001 62693 68042,68120,68068
 1.9500e+001 68195  1.6921e-001 -3.6004e+000 -1.4763e-002 62693 68042,68146,68120
 1.9500e+001 68172 -2.9622e-001 -1.5771e+000 -8.4653e-001 62693 68068,68120,68094
 1.9500e+001 68468  1.1489e+000 -7.4067e-001  3.3209e-001 62289 68491,68295,68269
 1.9500e+001 68445  6.4011e-001 -6.7453e-001 -3.1181e-001 62289 68563,68491,68269
 1.9500e+001 68422  7.6696e-001 -4.3449e-001 -1.5706e-001 62289 68563,68269,68243
 1.9500e+001 68399  1.1182e+000 -1.1475e+000  7.8048e-001 62289 68295,68347,68321
 1.9500e+001 68517  7.8154e-001 -1.8988e+000  2.8143e-001 62289 68347,68295,68491
 1.9500e+001 68540  3.7270e-001 -9.7337e-001 -4.1199e-001 62289 68347,68491,68373
 1.9500e+001 68589  6.2657e-001 -2.1587e-001 -1.9349e-001 62289 68373,68491,68563
 1.9500e+001 68612  6.1905e-001 -1.2475e-001 -5.3773e-002 62289 68373,68563,68243
 1.9500e+001 68911 -9.0468e-002 -1.7011e+000  2.4192e-002 62091 69222,68934,68741
 1.9500e+001 68888  2.0496e-001 -1.6658e+000 -1.7559e-002 62091 69006,68934,68689
 1.9500e+001 68865  2.9611e-001 -1.5786e+000  9.0418e-002 62091 69006,68689,68663
 1.9500e+001 68842 -2.0467e-001 -1.7490e+000 -1.9367e-001 62091 69078,68793,68767
 1.9500e+001 68819 -2.4069e-001 -1.7880e+000  2.1650e-001 62091 69222,68741,68715
 1.9500e+001 68960 -2.7764e-001 -1.7283e+000  4.9696e-002 62091 68767,68741,68934
 1.9500e+001 68983 -9.1010e-002 -1.8217e+000 -3.6947e-002 62091 69078,68767,68934
 1.9500e+001 69032  1.6958e-001 -1.6876e+000 -8.1712e-003 62091 69150,69006,68637
 1.9500e+001 69055  1.4990e-001 -1.7059e+000  2.6167e-002 62091 68637,69006,68663
 1.9500e+001 69104 -5.6315e-002 -1.4027e+000 -7.1710e-002 62091 68637,68793,69078
 1.9500e+001 69127  1.2408e-001 -1.6282e+000  1.7710e-002 62091 69150,68637,69078
 1.9500e+001 69176  6.6742e-002 -1.6946e+000 -4.1397e-002 62091 68934,69006,69150
 1.9500e+001 69199 -3.2807e-002 -1.6747e+000  1.1791e-003 62091 68934,69150,69078
 1.9500e+001 69248  1.9341e-003 -1.5093e+000 -1.1887e-002 62091 68689,68934,69222
 1.9500e+001 69271 -2.9277e-002 -1.4485e+000  1.2410e-001 62091 68689,69222,68715
 1.9500e+001 69521 -5.6728e-001 -8.7248e-001 -4.9038e-001 61893 69544,69348,69296
 1.9500e+001 69498 -3.4649e-001 -8.1911e-001 -4.6497e-001 61893 69544,69296,69400
 1.9500e+001 69475 -1.8587e-001 -3.8300e-001 -1.6318e-001 61893 69296,69426,69400
 1.9500e+001 69452 -6.3432e-001 -2.9520e+000 -7.4072e-001 61893 69296,69348,69322
 1.9500e+001 69570 -4.5240e-001 -9.8764e-001 -3.1409e-001 61893 69374,69348,69544
 1.9500e+001 69593 -5.9782e-002 -8.4116e-001 -3.0206e-001 61893 69374,69544,69400
 1.9500e+001 70046  1.1307e-001 -1.3833e+000 -6.9748e-003 61467 69749,69905,69879
 1.9500e+001 70023  2.1331e-001 -1.0931e+000  3.1583e-001 61467 69723,69905,69749
 1.9500e+001 70000  1.1472e-001 -1.4443e+000 -3.6152e-002 61467 70069,69827,69775
 1.9500e+001 69977 -1.6074e-001 -2.1162e+000  1.9386e-001 61467 70069,69775,69749
 1.9500e+001 69954 -4.5888e-002 -1.0068e+000 -4.1184e-002 61467 70141,69853,69827
 1.9500e+001 69931  1.8140e-001 -1.8593e+000 -5.5887e-001 61467 69775,69827,69801
 1.9500e+001 70095  3.7933e-002 -1.1236e+000 -1.1700e-001 61467 70141,69827,70069
 1.9500e+001 70118  1.0385e-001 -1.4248e+000  1.8832e-003 61467 69879,70069,69749
 1.9500e+001 70167  3.5909e-002 -1.1846e+000 -3.4017e-002 61467 69879,69853,70141
 1.9500e+001 70190 -3.3662e-003 -1.4612e+000 -1.1125e-001 61467 69879,70141,70069
 1.9500e+001 70291 -1.5782e-001 -2.4552e+000 -2.7953e-001 61013 70213,70265,70239
 1.9500e+001 70441 -4.5466e-001 -1.1518e+000  2.0911e-002 60651 70340,70392,70366
 1.9500e+001 70418 -3.2066e-001 -1.0760e+000  1.1735e-001 60651 70314,70392,70340
 1.9500e+001 70642  9.9917e-002 -1.2575e+000 -4.0785e-001 60311 70665,70492,70466
 1.9500e+001 70619 -1.6141e-001 -1.9554e+000 -5.6265e-001 60311 70665,70466,70570
 1.9500e+001 70596 -3.7574e+000  1.6674e-001 -1.5655e-001 60311 70492,70544,70518
 1.9500e+001 70691  1.2634e-001 -5.4102e-001  3.0407e-001 60311 70544,70492,70665
 1.9500e+001 70714 -3.0319e-001 -1.6002e+000  1.6238e-001 60311 70544,70665,70570
 1.9500e+001 70964  3.4101e-001 -1.6892e+000  8.4425e-002 59907 70987,70765,70739
 1.9500e+001 70941  2.5386e-001 -1.9182e+000 -1.2869e-001 59907 71059,70987,70739
 1.9500e+001 70918  9.0415e-002 -2.4561e+000 -4.6058e-002 59907 71059,70739,70869
 1.9500e+001 70895  1.3302e-001 -1.7029e+000 -4.7142e-003 59907 70817,70869,70843
 1.9500e+001 71013  1.3564e+000 -1.1836e+000  6.1790e-001 59907 70791,70765,70987
 1.9500e+001 71036  3.9344e-001 -1.8155e+000  1.7210e-001 59907 70791,70987,70817
 1.9500e+001 71085  6.5214e-002 -1.5673e+000 -5.4509e-002 59907 70817,70987,71059
 1.9500e+001 71108  1.4705e-001 -1.7789e+000 -8.0066e-002 59907 70817,71059,70869
 1.9500e+001 71441 -1.3351e+000 -2.5735e+000 -1.6822e-001 59417 71464,71242,71216
 1.9500e+001 71418 -1.0015e+000 -1.9572e+000  1.9222e-001 59417 71464,71216,71320
 1.9500e+001 71395 -7.3963e-001 -2.1976e+000  9.8155e-002 59417 71216,71346,71320
 1.9500e+001 71372 -6.1115e-001 -1.9612e+000 -4.1192e-001 59417 71268,71320,71294
 1.9500e+001 71490 -1.6850e+000 -2.6390e+000 -8.2588e-001 59417 71268,71242,71464
 1.9500e+001 71513 -1.4656e+000 -1.7456e+000 -4.8480e-001 59417 71268,71464,71320
 1.9500e+001 71712  2.6808e+000  2.2587e+000  5.4866e-001 58913 71562,71614,71588
 1.9500e+001 71689  2.1351e+000  1.5009e+000  2.2597e-002 58913 71536,71614,71562
 1.9500e+001 71666  9.1959e-001  1.8261e+000 -1.6300e-001 58913 71536,71640,71614
 1.9500e+001 72171 -1.3854e+000 -1.9879e+000  7.5034e-001 58409 72194,72027,72001
 1.9500e+001 72148 -8.6038e-001 -2.2057e+000  1.4591e-001 58409 72194,72001,71949
 1.9500e+001 72125  2.1494e-001 -4.4738e-001  2.9428e-001 58409 71923,72053,71949
 1.9500e+001 72102  2.2594e-001 -2.0120e+000  4.6321e-001 58409 71949,72001,71975
 1.9500e+001 72079 -6.3598e-002 -6.3075e-001  2.0215e-001 58409 71897,72053,71923
 1.9500e+001 72220 -6.2413e-001 -1.6670e+000  7.7058e-001 58409 72053,72027,72194
 1.9500e+001 72243 -3.1754e-001 -2.0033e+000  2.0506e-001 58409 72053,72194,71949
 1.9500e+001 72491  8.7158e-001  9.4909e-001  9.9965e-001 57855 72514,72318,72292
 1.9500e+001 72468  5.8848e-001  7.5757e-001  1.1200e+000 57855 72514,72292,72266
 1.9500e+001 72445  8.9481e-001 -2.1181e-001  1.2884e+000 57855 72318,72396,72370
 1.9500e+001 72422  2.1781e-001  1.8096e+000  8.5816e-001 57855 72318,72370,72344
 1.9500e+001 72540  8.9541e-001  9.5249e-001  9.7639e-001 57855 72396,72318,72514
 1.9500e+001 72563  8.6858e-001  1.0066e+000  1.0151e+000 57855 72396,72514,72266
 1.9500e+001 72811  2.6491e-002 -2.4429e+000  1.5517e+000 57401 72612,72690,72638
 1.9500e+001 72788 -2.6050e+000 -3.5623e+000  1.8446e+000 57401 72586,72690,72612
 1.9500e+001 72765  4.6238e+000 -4.2007e+000  4.0644e-001 57401 72638,72690,72664
 1.9500e+001 72742  3.2265e-001 -1.5640e+000  8.9576e-001 57401 72586,72716,72690
 1.9500e+001 73144 -2.4936e-001 -1.5653e+000  3.6700e-002 57004 72919,72997,72945
 1.9500e+001 73121 -3.1003e-001 -2.0233e+000  1.6225e-001 57004 72919,73049,72997
 1.9500e+001 73098 -3.8625e-001 -1.5058e+000 -2.6624e-002 57004 72945,72997,72971
 1.9500e+001 73075 -3.1211e-001 -2.1463e+000  2.5193e-001 57004 72997,73049,73023
 1.9500e+001 73650  4.6720e-001 -1.7384e+000  3.5997e-001 56592 73673,73379,73353
 1.9500e+001 73627  2.4800e-001 -1.5856e+000  6.5589e-001 56592 73673,73353,73327
 1.9500e+001 73604  1.5105e+000 -1.1583e+000  6.4598e-001 56592 73745,73509,73483
 1.9500e+001 73581  1.8123e+000 -2.2709e+000  1.1870e+000 56592 73379,73457,73405
 1.9500e+001 73558  1.3119e+000 -2.4077e+000  1.0488e+000 56592 73379,73483,73457
 1.9500e+001 73535  2.4512e+000 -2.5980e+000  9.5950e-001 56592 73405,73457,73431
 1.9500e+001 73699  5.0004e-001 -2.2096e+000  1.0443e+000 56592 73483,73379,73673
 1.9500e+001 73722  1.3653e+000 -1.8013e+000  8.8183e-001 56592 73745,73483,73673
 1.9500e+001 73771  1.1569e+000  2.2328e-001  1.3422e-001 56592 73327,73509,73745
 1.9500e+001 73794  6.3008e-001 -6.0308e-001  5.4138e-001 56592 73327,73745,73673
 1.9500e+001 74123 -1.1134e+000 -7.5635e-001 -1.1553e+000 56152 74146,74002,73924
 1.9500e+001 74100 -7.0436e-001 -1.1094e+000 -5.5455e-001 56152 74146,73924,73898
 1.9500e+001 74077  2.4445e-001  2.7162e-001 -1.6082e+000 56152 73924,74002,73976
 1.9500e+001 74054 -5.8290e-001 -1.6071e+000 -4.0821e-002 56152 73924,73976,73950
 1.9500e+001 74172 -1.1643e+000  4.0263e-001 -1.0285e+000 56152 74028,74002,74146
 1.9500e+001 74195 -7.2070e-001 -4.6669e-001 -3.6504e-001 56152 74028,74146,73898
 1.9500e+001 74345  2.1455e-001 -3.0640e-001 -3.2400e-001 55634 74218,74270,74244
 1.9500e+001 74322 -5.2105e-001 -1.6862e-001 -1.5377e-001 55634 74218,74296,74270
 1.9500e+001 74823 -2.9988e-001 -3.0302e+000  5.5831e-001 55016 74918,74846,74581
 1.9500e+001 74800 -7.7516e-001 -2.3080e+000  2.7288e-001 55016 74846,74477,74633
 1.9500e+001 74777 -6.7611e-001 -3.9043e+000  8.4242e-001 55016 74918,74581,74555
 1.9500e+001 74754 -6.5073e-001 -2.6838e+000  3.9492e-001 55016 74990,74503,74477
 1.9500e+001 74731 -3.6630e-001 -2.9594e+000 -9.7368e-001 55016 74451,74633,74477
 1.9500e+001 74708 -1.7905e+000 -2.1966e+000 -1.1872e+000 55016 74451,74659,74633
 1.9500e+001 74685 -8.6203e-001 -1.7128e+000  1.2799e+000 55016 74503,74555,74529
 1.9500e+001 74872 -7.0011e-001 -3.9653e+000  5.8195e-001 55016 74607,74581,74846
 1.9500e+001 74895 -8.1638e-001 -3.0317e+000  2.5797e-001 55016 74607,74846,74633
 1.9500e+001 74944 -8.8141e-001 -3.1700e+000  5.5312e-001 55016 74477,74846,74918
 1.9500e+001 74967 -6.7036e-001 -2.8233e+000  4.4235e-001 55016 74990,74477,74918
 1.9500e+001 75016 -5.8651e-001 -2.6235e+000  8.8739e-001 55016 74555,74503,74990
 1.9500e+001 75039 -7.5234e-001 -3.0875e+000  9.1547e-001 55016 74555,74990,74918
 1.9500e+001 75287 -6.5794e-001 -6.9583e+000  6.6643e-001 54726 75310,75140,75114
 1.9500e+001 75264 -1.2461e+000 -6.2814e+000  3.4124e-001 54726 75310,75114,75088
 1.9500e+001 75241  9.2943e-001 -5.3419e+000 -1.0365e-001 54726 75088,75192,75166
 1.9500e+001 75218 -7.1067e-001 -8.8098e-001  7.9259e-001 54726 75062,75192,75088
 1.9500e+001 75336  3.1726e-001 -6.4393e+000  4.4364e-001 54726 75166,75140,75310
 1.9500e+001 75359 -8.9391e-001 -6.0519e+000  2.4138e-001 54726 75166,75310,75088
 1.9500e+001 75946 -1.2749e-001 -6.6353e-001 -2.9869e-001 54322 75969,75701,75649
 1.9500e+001 75923  3.4690e-001 -4.2062e-001 -3.9126e-001 54322 75969,75649,75623
 1.9500e+001 75900  6.7498e-002 -4.4721e-001 -5.5503e-002 54322 76041,75753,75701
 1.9500e+001 75877 -1.7102e-002 -1.1819e+000 -6.8845e-002 54322 75623,75805,75779
 1.9500e+001 75854  4.3712e-002 -5.7153e-001  2.3462e-001 54322 75701,75753,75727
 1.9500e+001 75831  1.0367e-002 -2.5155e-001 -1.4862e-001 54322 75649,75701,75675
 1.9500e+001 75995  2.1668e-001 -5.2760e-001 -1.7815e-001 54322 76041,75701,75969
 1.9500e+001 76018  2.4322e-001 -7.1899e-001 -2.0311e-001 54322 75779,75969,75623
 1.9500e+001 76067 -2.9188e-002 -6.6055e-001 -1.1246e-004 54322 75779,75753,76041
 1.9500e+001 76090  7.9647e-002 -8.1397e-001 -1.2149e-001 54322 75779,76041,75969
 1.9500e+001 76468  2.7589e-003 -7.1827e-001 -1.1433e-001 53868 76491,76272,76220
 1.9500e+001 76445  1.1667e-001 -7.6169e-001 -3.2398e-002 53868 76491,76220,76324
 1.9500e+001 76422 -3.6093e-002 -1.0145e+000 -1.2469e-001 53868 76220,76272,76246
 1.9500e+001 76399  1.6432e-001 -8.8108e-001 -8.9830e-002 53868 76194,76324,76220
 1.9500e+001 76376  8.6709e-001 -5.9935e-001  9.5640e-002 53868 76194,76350,76324
 1.9500e+001 76517  7.2542e-002 -6.3587e-001 -5.9428e-002 53868 76298,76272,76491
 1.9500e+001 76540  1.8127e-001 -7.0131e-001  1.7345e-002 53868 76298,76491,76324
 1.9500e+001 76690  2.4554e-002 -9.2946e-001  9.2959e-002 53356 76589,76641,76615
 1.9500e+001 76667 -2.7428e-001 -1.3127e+000 -3.7295e-002 53356 76563,76641,76589
 1.9500e+001 76938  3.1579e-001  1.7577e-002  2.8953e-001 53009 77105,76961,76765
 1.9500e+001 76915 -2.6697e-001 -2.1906e+000 -5.3546e-001 53009 76961,76713,76843
 1.9500e+001 76892 -2.5291e-001 -1.1365e+000  6.5405e-002 53009 77033,76817,76791
 1.9500e+001 76869  1.0066e+000  1.5842e+000  4.3149e-001 53009 77105,76765,76739
 1.9500e+001 76987 -3.7423e-001 -1.3482e+000 -8.9457e-002 53009 76791,76765,76961
 1.9500e+001 77010 -2.2361e-001 -9.1680e-001 -1.6086e-001 53009 77033,76791,76961
 1.9500e+001 77059  1.1220e-001 -9.3660e-001 -1.2879e-001 53009 76843,76817,77033
 1.9500e+001 77082  7.2276e-002 -8.4406e-001 -3.3985e-001 53009 76843,77033,76961
 1.9500e+001 77131  5.6277e-001 -5.9190e-001 -9.4213e-001 53009 76713,76961,77105
 1.9500e+001 77154  7.9788e-001 -6.6125e-002 -8.7346e-001 53009 76713,77105,76739
 1.9500e+001 77355 -4.2522e-001 -3.8592e+000 -8.9493e-002 52390 77378,77257,77231
 1.9500e+001 77332  1.8207e-001 -5.7929e+000  4.2534e-001 52390 77378,77231,77179
 1.9500e+001 77309  7.4489e-001 -3.5665e+000  8.9932e-001 52390 77179,77231,77205
 1.9500e+001 77404 -5.2283e-001 -5.3271e+000  7.6974e-001 52390 77283,77257,77378
 1.9500e+001 77427 -1.7842e-001 -7.7773e+000  1.1800e+000 52390 77283,77378,77179
 1.9500e+001 77677 -1.2581e+000  5.7917e-001 -1.6284e+000 51986 77700,77504,77478
 1.9500e+001 77654 -2.7395e-001  3.7492e-001 -1.3402e+000 51986 77700,77478,77452
 1.9500e+001 77631  3.6220e-001  5.6361e-001 -1.4553e+000 51986 77772,77556,77530
 1.9500e+001 77608  3.9167e+000  1.5484e+000 -2.3613e+000 51986 77452,77582,77556
 1.9500e+001 77726 -4.2268e-001  1.1354e+000 -1.1064e+000 51986 77530,77504,77700
 1.9500e+001 77749  2.8810e-001  4.5554e-001 -1.2231e+000 51986 77772,77530,77700
 1.9500e+001 77798  7.6898e-002  4.0864e-001 -1.3125e+000 51986 77452,77556,77772
 1.9500e+001 77821 -7.3644e-002  3.7640e-001 -1.1135e+000 51986 77452,77772,77700
 1.9500e+001 78282 -1.2452e+000 -3.1383e+000  1.0703e-001 51738 78008,78138,78060
 1.9500e+001 78259 -9.5345e-001 -3.4375e+000  1.2666e+000 51738 78008,78164,78138
 1.9500e+001 78236 -8.8929e-001 -2.6864e+000  8.3859e-001 51738 78086,78138,78112
 1.9500e+001 78213 -7.6370e-001 -1.7411e+000  6.0336e-001 51738 78060,78138,78086
 1.9500e+001 78190 -4.3796e-002 -5.3157e+000 -6.8694e-001 51738 78008,78060,78034
 1.9500e+001 78432  2.9691e-001 -4.8069e-001  1.9642e-002 51148 78305,78357,78331
 1.9500e+001 78409  2.0341e-001 -3.9938e-001  3.3532e-002 51148 78305,78383,78357
 1.9500e+001 78891 -9.8743e-002 -7.7515e-001 -2.7929e-001 50808 78914,78695,78669
 1.9500e+001 78868 -4.9282e-002 -6.2633e-001 -2.0185e-001 50808 78914,78669,78643
 1.9500e+001 78845 -1.1935e-001 -7.7557e-001 -4.7856e-001 50808 78643,78773,78747
 1.9500e+001 78822 -1.9123e-001 -9.2319e-001 -5.0857e-001 50808 78617,78773,78643
 1.9500e+001 78799 -3.9254e-001 -8.4324e-001 -3.0254e-001 50808 78695,78747,78721
 1.9500e+001 78940 -2.7788e-001 -6.9532e-001 -3.9329e-001 50808 78747,78695,78914
 1.9500e+001 78963 -1.5187e-001 -5.9119e-001 -3.2478e-001 50808 78747,78914,78643
 1.9500e+001 79260  1.8452e-001 -6.3508e-001 -1.0013e-001 50468 79283,79090,79012
 1.9500e+001 79237  4.9842e-001 -6.6418e-001 -1.8276e-002 50468 79283,79012,78986
 1.9500e+001 79214 -1.1509e-001 -7.6796e-001 -1.5244e-001 50468 79012,79090,79038
 1.9500e+001 79191  1.9774e-001 -6.7011e-001  1.7686e-001 50468 78986,79142,79116
 1.9500e+001 79168 -6.6604e-002 -7.6378e-001 -1.6712e-001 50468 79038,79090,79064
 1.9500e+001 79309 -1.1968e-001 -5.9939e-001 -1.1188e-001 50468 79116,79090,79283
 1.9500e+001 79332  2.5951e-001 -5.6801e-001 -8.2702e-003 50468 79116,79283,78986
 1.9500e+001 79889 -6.1501e-002  3.8299e-001 -5.9205e-001 50064 79569,79725,79699
 1.9500e+001 79866  7.0538e-001  9.9583e-001 -1.2381e-001 50064 79543,79725,79569
 1.9500e+001 79843  1.6556e-001 -1.6493e-001 -8.0417e-001 50064 79621,79699,79673
 1.9500e+001 79820  5.8176e-001  8.0958e-001 -7.6140e-001 50064 79595,79699,79621
 1.9500e+001 79797  1.2586e+000  9.5868e-001 -4.9636e-001 50064 79569,79699,79595
 1.9500e+001 79774 -7.1614e-001 -4.8095e-002 -6.7500e-001 50064 79517,79725,79543
 1.9500e+001 79751  3.8416e-001  5.6138e-001 -5.6613e-001 50064 79621,79673,79647
 1.9500e+001 80169  6.4813e-001  1.2178e+000 -4.5886e-001 49724 80019,80097,80071
 1.9500e+001 80146  7.4395e-001  1.1894e+000 -3.9828e-001 49724 79993,80097,80019
 1.9500e+001 80123  6.0349e-001  1.2834e+000 -6.7909e-001 49724 80019,80071,80045
 1.9500e+001 80626  5.3088e-001  3.9679e-001  3.2633e-001 49277 80352,80482,80378
 1.9500e+001 80603 -4.8660e-002  2.1706e-001 -6.9238e-002 49277 80352,80508,80482
 1.9500e+001 80580  3.7249e-002 -5.0862e-001  5.6010e-002 49277 80378,80482,80456
 1.9500e+001 80557  2.2495e-001 -8.1951e-001  4.0585e-001 49277 80378,80430,80404
 1.9500e+001 80534  2.3914e-001 -3.6277e-001  3.3027e-001 49277 80378,80456,80430
 1.9500e+001 81230  1.5131e+000  1.9659e-003 -2.5336e-002 48716 81253,80835,80809
 1.9500e+001 81207  1.0965e+000 -5.2996e-001  7.5754e-001 48716 81397,81253,80809
 1.9500e+001 81184  4.7511e-001  2.2333e-001  3.4533e-001 48716 81325,80913,80887
 1.9500e+001 81161 -5.0512e-002 -4.2101e-001  9.7965e-001 48716 81397,80809,81017
 1.9500e+001 81138  1.5441e-001  2.8247e-001  2.4970e-001 48716 81469,80965,80913
 1.9500e+001 81115  1.4947e-001 -1.6759e-001  2.5751e-001 48716 80835,80887,80861
 1.9500e+001 81092  1.4074e+000  1.0023e-001  1.0615e+000 48716 80809,81043,81017
 1.9500e+001 81069  4.5614e-001  6.2309e-001  4.3626e-001 48716 80913,80965,80939
 1.9500e+001 81279  3.0790e-001 -5.1902e-001  8.6005e-002 48716 80887,80835,81253
 1.9500e+001 81302  5.4568e-001  2.0568e-001  2.1125e-001 48716 81325,80887,81253
 1.9500e+001 81351  4.8039e-001  2.1390e-001  3.7596e-001 48716 81469,80913,81325
 1.9500e+001 81374  3.5260e-001  2.8230e-001  4.2094e-001 48716 80991,81325,81253
 1.9500e+001 81423 -4.3837e-001 -2.4290e-001  7.7322e-001 48716 80991,81253,81397
 1.9500e+001 81446 -1.6872e+000 -2.5252e-001  1.0897e+000 48716 80991,81397,81017
 1.9500e+001 81495 -3.7201e-001  2.7337e-001  2.5482e-001 48716 80991,80965,81469
 1.9500e+001 81518 -1.1226e-001  1.5276e-001  3.7708e-001 48716 80991,81469,81325
 1.9500e+001 81717 -8.6585e-002 -7.4201e-001  5.8075e-002 48262 81740,81567,81541
 1.9500e+001 81694 -2.5915e-001 -7.6591e-001  1.3358e-002 48262 81740,81541,81645
 1.9500e+001 81671 -1.7849e-001 -7.0249e-001 -3.5709e-002 48262 81567,81619,81593
 1.9500e+001 81766 -1.9254e-001 -7.3142e-001 -4.7219e-002 48262 81619,81567,81740
 1.9500e+001 81789 -3.7345e-001 -7.8167e-001 -1.0306e-001 48262 81619,81740,81645
 1.9500e+001 81939  8.5532e-001  3.3155e-001 -7.9707e-002 47957 82034,81962,81864
 1.9500e+001 81916  1.1338e+000  2.3645e-001  2.5573e-001 47957 82166,81962,81838
 1.9500e+001 81988 -1.0461e+000  4.2383e-001 -6.0644e-001 47957 82294,81962,81890
 1.9500e+001 82011  6.2922e-001  1.7382e+000  5.0347e-001 47957 81890,81962,81812
 1.9500e+001 82060  7.6994e-001  5.5013e-001  2.0101e-001 47957 81838,81962,82034
 1.9500e+001 82192  1.8813e+000  5.5938e-001  2.8962e-001 47957 81812,81962,82166
 1.9500e+001 82320 -6.4842e-001  5.8058e-001 -5.7984e-001 47957 81864,81962,82294
 1.9500e+001 82549  2.6998e-002 -7.3895e-001 -1.9705e-001 47617 82448,82500,82474
 1.9500e+001 82526  3.3132e-001 -1.1738e+000  3.8309e-003 47617 82422,82500,82448
 1.9500e+001 82902 -3.0161e-001 -1.6703e+000  3.2750e-001 47255 82729,82807,82755
 1.9500e+001 82879 -8.0567e-002 -2.2303e+000  5.2912e-001 47255 82703,82807,82729
 1.9500e+001 82856 -8.5800e-001 -1.7557e+000  9.4269e-001 47255 82755,82807,82781
 1.9500e+001 82833  1.4976e+000 -1.5541e+000  6.8796e-001 47255 82677,82807,82703
 1.9500e+001 83182  2.5787e-001 -9.2268e-001 -5.8719e-002 46680 83032,83084,83058
 1.9500e+001 83159  4.8081e-001 -4.3613e-001  1.5635e-002 46680 83205,83084,83032
 1.9500e+001 83136  7.0362e-001 -3.9860e-001 -2.5351e-001 46680 83006,83110,83084
 1.9500e+001 83231 -5.6171e-002 -7.6983e-001 -1.2714e-001 46680 83006,83084,83205
 1.9500e+001 83737 -5.6004e-001 -4.5048e-001 -2.8897e-001 46290 83832,83760,83492
 1.9500e+001 83714 -4.7600e-001 -6.2324e-001 -2.7591e-001 46290 83760,83440,83414
 1.9500e+001 83691 -4.8449e-001 -5.0961e-001 -3.0117e-001 46290 83832,83492,83466
 1.9500e+001 83668 -6.6566e-001 -9.4592e-001 -1.1962e-001 46290 83492,83570,83544
 1.9500e+001 83645 -2.5208e-001 -2.1829e-001 -3.6167e-001 46290 83414,83596,83570
 1.9500e+001 83622 -7.4100e-001 -5.9748e-001  1.5183e-001 46290 83492,83544,83518
 1.9500e+001 83786 -6.9436e-001 -5.4222e-001 -1.7847e-001 46290 83570,83492,83760
 1.9500e+001 83809 -4.7265e-001 -4.8848e-001 -2.1684e-001 46290 83570,83760,83414
 1.9500e+001 83858 -4.3588e-001 -5.7816e-001 -3.1509e-001 46290 83440,83760,83832
 1.9500e+001 83881 -1.1068e-001 -3.5414e-001 -4.3164e-001 46290 83440,83832,83466
 1.9500e+001 84161 -1.0443e-001 -9.7794e-001  3.7832e-001 45829 84011,84063,84037
 1.9500e+001 84138  6.9010e-002 -6.2818e-001  1.0645e-001 45829 84011,84089,84063
 1.9500e+001 84115  3.5636e-002 -6.4224e-001  1.1071e-001 45829 83985,84089,84011
 1.9500e+001 84311 -9.5598e-002 -5.7049e-001  1.4622e-002 45631 84184,84236,84210
 1.9500e+001 84288 -2.6002e-001 -6.8726e-001  2.1860e-001 45631 84184,84262,84236
 1.9500e+001 84657 -1.3945e-001 -4.9598e-001 -3.6989e-002 45155 84680,84490,84412
 1.9500e+001 84634 -1.9414e-001 -4.8200e-001 -3.3110e-002 45155 84680,84412,84360
 1.9500e+001 84611 -2.0932e-001 -5.3935e-001  3.2762e-003 45155 84412,84490,84438
 1.9500e+001 84588  5.1132e-003 -4.0089e-001 -5.8112e-002 45155 84334,84516,84360
 1.9500e+001 84565 -2.5634e-001 -6.1296e-001 -2.0258e-001 45155 84360,84412,84386
 1.9500e+001 84542 -1.8056e-001 -4.4471e-001  5.6653e-002 45155 84438,84490,84464
 1.9500e+001 84706 -1.0794e-001 -4.8910e-001 -4.4088e-002 45155 84516,84490,84680
 1.9500e+001 84729 -1.4804e-001 -4.6367e-001 -4.2841e-002 45155 84516,84680,84360
 1.9500e+001 85077  2.7036e-001  4.4347e-002 -1.9113e-003 44508 85100,84754,84910
 1.9500e+001 85054  3.2228e-001  3.7045e-001  1.9395e-002 44508 84754,84936,84910
 1.9500e+001 85031  1.3071e-001 -1.2684e-001  1.7834e-001 44508 85100,84910,84884
 1.9500e+001 85008  5.1440e-002 -1.0526e-001  7.0240e-003 44508 84780,84884,84832
 1.9500e+001 84985  3.2498e-001  4.1935e-001 -1.8648e-001 44508 84780,84832,84806
 1.9500e+001 84962  4.7589e-001  1.2383e-001 -8.5660e-002 44508 84832,84884,84858
 1.9500e+001 85126  1.5577e-001  3.1947e-001 -1.1762e-001 44508 84780,84754,85100
 1.9500e+001 85149  5.1872e-002  1.4163e-001  4.7574e-002 44508 84780,85100,84884
 1.9500e+001 85482 -7.3311e-001 -1.0419e+000 -7.6517e-002 44104 85335,85387,85361
 1.9500e+001 85459 -5.9014e-001 -1.4475e+000 -4.7098e-002 44104 85309,85387,85335
 1.9500e+001 85436 -2.7378e-001 -1.2456e+000  2.1314e-001 44104 85257,85387,85309
 1.9500e+001 85413 -3.4796e-001 -1.7306e+000  1.3108e-001 44104 85257,85309,85283
 1.9500e+001 85811 -1.4242e-001 -2.5381e-001 -8.9397e-002 43600 85586,85664,85612
 1.9500e+001 85788 -2.0046e-001 -3.9325e-001 -7.7661e-002 43600 85586,85690,85664
 1.9500e+001 85765  2.3541e-002 -3.7889e-001 -7.4776e-002 43600 85586,85716,85690
 1.9500e+001 85742 -1.1300e-001 -2.8446e-001 -1.8601e-002 43600 85612,85664,85638
 1.9500e+001 86010 -5.0873e-002 -4.1560e-001 -1.9622e-001 43224 85886,85938,85912
 1.9500e+001 85987  1.2302e-001  2.0723e-001 -2.6717e-001 43224 85834,85938,85886
 1.9500e+001 85964 -4.2849e-001 -3.0144e-001 -3.5179e-002 43224 85834,85886,85860
 1.9500e+001 86420  1.3106e+000  1.0066e+000 -2.5227e-001 42820 86195,86299,86221
 1.9500e+001 86397  8.4077e-001  4.7303e-001 -6.4477e-001 42820 86195,86325,86299
 1.9500e+001 86374  9.8185e-001  9.7922e-001 -1.0167e-001 42820 86221,86299,86273
 1.9500e+001 86351  1.0179e+000  8.3963e-001  3.1100e-002 42820 86221,86273,86247
 1.9500e+001 86749  4.1357e-001  1.1448e-001 -5.2820e-002 42223 86550,86602,86576
 1.9500e+001 86726  4.4055e-001 -7.7143e-002  3.2826e-002 42223 86550,86628,86602
 1.9500e+001 86703 -1.1929e-002 -2.4958e-001  1.0129e-001 42223 86524,86628,86550
 1.9500e+001 86680  1.9562e-001 -6.3269e-003 -1.5624e-002 42223 86524,86654,86628
 1.9500e+001 87078  4.4739e-001 -9.1852e-002  3.0476e-002 41883 87173,87101,86905
 1.9500e+001 87055  3.2437e-001  4.7986e-001 -2.4406e-001 41883 87101,86879,86853
 1.9500e+001 87032  2.6337e-002  8.9739e-002 -1.8126e-001 41883 86853,86983,86931
 1.9500e+001 87009 -7.6502e-002 -2.0515e-001 -1.5327e-001 41883 86931,86983,86957
 1.9500e+001 87127  5.2401e-001 -3.2805e-002 -1.4995e-001 41883 86931,86905,87101
 1.9500e+001 87150  6.9532e-002 -1.1874e-001 -2.0059e-001 41883 86931,87101,86853
 1.9500e+001 87199 -6.3937e-002 -1.1513e-001 -1.5849e-002 41883 86879,87101,87173
 1.9500e+001 87558 -1.8446e-003  1.9242e-001  1.0257e-002 41471 87382,87460,87408
 1.9500e+001 87535 -2.8408e-001 -1.4014e-001 -1.5283e-001 41471 87382,87486,87460
 1.9500e+001 87512 -1.8327e-001  7.9989e-003 -7.0839e-002 41471 87408,87460,87434
 1.9500e+001 87806  1.5827e-001 -1.8067e-001  8.5439e-002 41017 87829,87607,87581
 1.9500e+001 87783  9.9933e-002 -3.1863e-001  8.3345e-002 41017 87829,87581,87685
 1.9500e+001 87760  3.5503e-001 -2.6145e-002 -2.4835e-002 41017 87581,87711,87685
 1.9500e+001 87737  3.1937e-001 -7.0818e-001  4.2476e-002 41017 87633,87685,87659
 1.9500e+001 87855  1.8089e-001 -2.1734e-001  1.9321e-001 41017 87633,87607,87829
 1.9500e+001 87878  1.2017e-001 -3.5987e-001  1.9329e-001 41017 87633,87829,87685
 1.9500e+001 88258 -2.7120e-002 -3.5232e-002  1.2276e-002 40613 88281,88036,88010
 1.9500e+001 88235 -4.8620e-003 -3.3912e-002  3.1870e-003 40613 88281,88010,88088
 1.9500e+001 88212 -2.4086e-003 -3.4310e-002  3.9242e-003 40613 87984,88088,88010
 1.9500e+001 88189  1.2137e-002  3.1117e-003 -7.3722e-003 40613 87984,88114,88088
 1.9500e+001 88166  2.1318e-002 -4.0202e-003 -5.9644e-003 40613 87984,88140,88114
 1.9500e+001 88307 -7.8770e-003 -3.9395e-002  4.9259e-003 40613 88062,88036,88281
 1.9500e+001 88330  2.4651e-002 -2.6151e-002 -7.7469e-003 40613 88062,88281,88088
 1.9500e+001 88649 -1.5493e-003 -7.4738e-002 -8.0079e-003 40095 88375,88505,88401
 1.9500e+001 88626 -1.0491e-002 -5.1448e-002 -2.0231e-002 40095 88375,88531,88505
 1.9500e+001 88603 -4.9722e-003 -8.8323e-002 -1.5175e-002 40095 88401,88505,88479
 1.9500e+001 88580  1.4788e-001 -1.8070e-001 -1.7850e-002 40095 88427,88479,88453
 1.9500e+001 88557 -1.3258e-002 -1.1884e-001 -9.6357e-003 40095 88401,88479,88427
 1.9500e+001 89078  1.1264e+000  2.6153e-001  2.5658e-002 39897 89101,88833,88807
 1.9500e+001 89055  9.5241e-001  1.8066e-002 -9.9754e-002 39897 89101,88807,88911
 1.9500e+001 89032  1.3095e+000  4.9027e-001  6.6844e-002 39897 88781,88911,88807
 1.9500e+001 89009  6.4001e-001  1.1220e-001 -1.0609e-001 39897 88781,88937,88911
 1.9500e+001 88986  1.4579e+000  4.4279e-001 -2.4141e-001 39897 88833,88885,88859
 1.9500e+001 88963  1.1367e+000  7.5434e-001  1.1896e-001 39897 88755,88937,88781
 1.9500e+001 89127  1.3162e+000 -2.8972e-002 -2.0540e-001 39897 88885,88833,89101
 1.9500e+001 89150  9.7306e-001 -4.0075e-001 -3.7390e-001 39897 88885,89101,88911
 1.9500e+001 89300 -2.1082e-001 -3.8185e-001 -4.3156e-002 39607 89453,89323,89199
 1.9500e+001 89277 -3.3606e-001 -2.0840e-001 -5.4271e-002 39607 89525,89453,89199
 1.9500e+001 89349 -2.4719e-001 -3.9498e-001 -2.1499e-002 39607 89225,89199,89323
 1.9500e+001 89479 -2.6549e-001 -1.1033e-001 -3.9484e-002 39607 89251,89323,89453
 1.9500e+001 89502 -1.2088e-001  6.8512e-002  1.0667e-001 39607 89251,89453,89173
 1.9500e+001 89551 -6.4532e-003 -7.9929e-002 -6.7495e-002 39607 89173,89453,89525
 1.9500e+001 90264 -6.5392e-001 -1.2877e+000 -1.7113e-001 39039 89996,90074,90048
 1.9500e+001 90241 -2.9874e-001 -3.0726e-001 -8.9563e-002 39039 89918,90074,89996
 1.9500e+001 90218 -4.3868e-001 -6.6406e-001 -4.1680e-002 39039 89918,89996,89944
 1.9500e+001 90195 -7.8062e-001 -5.2838e-001 -1.4239e-001 39039 89892,90074,89918
 1.9500e+001 90172 -2.9013e-002 -1.2354e+000 -2.0373e-001 39039 89996,90048,90022
 1.9500e+001 90149 -9.2508e-001  4.9161e-001 -2.6385e-001 39039 89892,90100,90074
 1.9500e+001 90126 -5.7958e-001 -7.3528e-001  1.6405e-001 39039 89944,89996,89970
 1.9500e+001 90770 -1.5325e-001 -3.7627e-001 -9.6387e-003 38635 90473,90603,90577
 1.9500e+001 90747 -1.2275e-001 -3.5629e-001 -2.5855e-002 38635 90447,90603,90473
 1.9500e+001 90724 -1.1197e-001 -4.1720e-001 -2.0861e-002 38635 90499,90577,90551
 1.9500e+001 90701 -2.0363e-001 -4.7476e-001  1.5091e-002 38635 90473,90577,90499
 1.9500e+001 90678 -1.1962e-001 -5.5902e-001 -3.6724e-003 38635 90499,90551,90525
 1.9500e+001 90655 -2.4304e-001 -4.2176e-001  2.1479e-002 38635 90447,90629,90603
 1.9500e+001 90871 -9.1293e-002 -3.8000e-001 -9.5421e-002 38231 90793,90845,90819
 1.9500e+001 91458 -8.3558e-002 -2.6869e-001 -9.7169e-002 37534 91161,91317,91291
 1.9500e+001 91435 -2.3679e-001 -2.0721e-001 -3.9050e-002 37534 91135,91317,91161
 1.9500e+001 91412 -3.3140e-001 -9.5523e-001 -2.2392e-001 37534 91187,91291,91239
 1.9500e+001 91389 -1.5772e-001 -9.3800e-001  9.2343e-003 37534 91161,91291,91187
 1.9500e+001 91366 -1.3623e-001 -7.0570e-001 -1.2718e-001 37534 91239,91291,91265
 1.9500e+001 91343  2.7379e-001 -9.0226e-001 -4.8414e-001 37534 91187,91239,91213
 1.9500e+001 91915 -3.4098e-001 -7.8675e-001  1.1188e-001 37080 91938,91745,91667
 1.9500e+001 91892 -8.3174e-002 -7.7906e-001 -2.0870e-002 37080 91938,91667,91797
 1.9500e+001 91869  4.7720e-002 -3.2204e-001 -8.3612e-003 37080 91641,91797,91667
 1.9500e+001 91846 -3.7670e-001 -8.5001e-001  3.1247e-002 37080 91667,91719,91693
 1.9500e+001 91823 -3.3082e-001 -7.1983e-001  8.4198e-002 37080 91667,91745,91719
 1.9500e+001 91964 -5.0729e-001 -9.7682e-001  3.4498e-001 37080 91771,91745,91938
 1.9500e+001 91987 -2.2692e-001 -8.2150e-001  1.7874e-001 37080 91771,91938,91797
 1.9500e+001 92235 -2.5947e-001 -3.7689e-001 -2.0659e-002 36397 92036,92088,92062
 1.9500e+001 92212 -1.9637e-001 -3.5761e-001 -4.5550e-002 36397 92036,92114,92088
 1.9500e+001 92189 -1.0048e-001 -2.9149e-001 -2.5530e-003 36397 92036,92140,92114
 1.9500e+001 92166 -1.4652e-001 -3.8624e-001 -3.3733e-002 36397 92010,92140,92036
 1.9500e+001 92694  2.0913e-001  6.9738e-003 -3.9619e-002 36057 92446,92498,92472
 1.9500e+001 92671  2.0888e-001 -1.0239e-001  4.0260e-002 36057 92446,92550,92498
 1.9500e+001 92648 -1.4590e-001 -4.1066e-001  1.8056e-001 36057 92446,92576,92550
 1.9500e+001 92625  1.6088e-001  3.7208e-002 -3.1860e-001 36057 92420,92576,92446
 1.9500e+001 92602  4.7811e-002  3.4518e-002  2.5893e-001 36057 92498,92550,92524
 1.9500e+001 93023 -2.5722e-001 -3.0104e-001 -3.9506e-002 35717 92876,92928,92902
 1.9500e+001 93000 -1.9853e-001 -3.3729e-001 -5.3073e-002 35717 92824,92928,92876
 1.9500e+001 92977 -1.4491e-001 -3.6314e-001 -9.1677e-003 35717 92798,92928,92824
 1.9500e+001 92954 -2.1232e-001 -4.4160e-001 -1.5511e-001 35717 92824,92876,92850
 1.9500e+001 93499  4.1588e-001 -2.0062e-001  1.5351e-001 35405 93522,93309,93257
 1.9500e+001 93476  2.9108e-001 -2.4436e-001  2.0591e-001 35405 93666,93522,93257
 1.9500e+001 93453  3.3410e-001 -4.7468e-001  1.7655e-001 35405 93594,93127,93335
 1.9500e+001 93430  2.3997e-001 -3.1732e-001  2.6214e-001 35405 93666,93257,93231
 1.9500e+001 93407  3.1596e-001 -5.8681e-001  1.2393e-001 35405 93127,93179,93153
 1.9500e+001 93384 -1.1354e-001 -8.0957e-002  3.6596e-001 35405 93179,93231,93205
 1.9500e+001 93361  3.8521e-001  1.6001e-001 -4.2146e-002 35405 93257,93309,93283
 1.9500e+001 93548  2.9361e-001 -2.3681e-001  1.9133e-001 35405 93335,93309,93522
 1.9500e+001 93571  2.8639e-001 -2.5554e-001  1.9494e-001 35405 93594,93335,93522
 1.9500e+001 93620  4.5187e-001 -2.6016e-001  1.1835e-001 35405 93179,93127,93594
 1.9500e+001 93643  2.7374e-001 -1.7595e-001  1.5149e-001 35405 93738,93594,93522
 1.9500e+001 93692  2.1312e-001 -1.7994e-001  1.7928e-001 35405 93738,93522,93666
 1.9500e+001 93715  2.1419e-001 -1.8971e-001  1.9786e-001 35405 93179,93666,93231
 1.9500e+001 93764  2.9070e-001 -1.4742e-001  1.1864e-001 35405 93179,93594,93738
 1.9500e+001 93787  2.7028e-001 -1.3339e-001  1.4585e-001 35405 93179,93738,93666
 1.9500e+001 94372  8.4430e-001  3.7391e-002 -3.9759e-002 34951 94395,94127,94075
 1.9500e+001 94349  1.0490e+000 -1.8746e-002  5.4254e-002 34951 94395,94075,94231
 1.9500e+001 94326  1.7741e+000 -8.4190e-002 -4.6537e-001 34951 94049,94231,94075
 1.9500e+001 94303  1.2912e+000  6.1358e-001 -2.5969e-001 34951 94075,94127,94101
 1.9500e+001 94280  1.2018e+000  7.0640e-001  4.3223e-001 34951 94127,94205,94153
 1.9500e+001 94257  1.0262e+000 -4.5037e-002  5.6977e-001 34951 94153,94205,94179
 1.9500e+001 94421  1.0014e+000  3.3435e-002  6.9988e-002 34951 94205,94127,94395
 1.9500e+001 94444  1.3579e+000  7.7978e-002  1.6246e-001 34951 94205,94395,94231
 1.9500e+001 94692 -6.2778e-003 -1.6078e-001 -8.0091e-003 34397 94715,94519,94467
 1.9500e+001 94669 -1.6319e-002 -1.3827e-001  2.2416e-003 34397 94715,94467,94597
 1.9500e+001 94646  2.1516e-002  2.6595e-003  2.8303e-003 34397 94545,94597,94571
 1.9500e+001 94623 -3.7080e-002 -2.4715e-001  2.3976e-002 34397 94467,94519,94493
 1.9500e+001 94741 -3.6695e-002 -2.2452e-001 -2.3014e-002 34397 94545,94519,94715
 1.9500e+001 94764 -9.8471e-003 -1.5581e-001 -4.4884e-003 34397 94545,94715,94597
 1.9500e+001 94985  7.2718e-002 -1.8752e-001  1.4522e-002 33985 94835,94913,94887
 1.9500e+001 94962 -4.4107e-002 -4.9442e-001  7.1320e-002 33985 94809,94913,94835
 1.9500e+001 94939 -1.4597e-002 -2.0766e-001  2.7906e-002 33985 94835,94887,94861
 1.9500e+001 95186 -6.2747e-002 -5.0315e-001 -2.6370e-001 33645 95281,95209,95036
 1.9500e+001 95163  3.5123e-001 -5.8545e-001  1.5391e-002 33645 95209,95010,95088
 1.9500e+001 95140  3.5698e-001 -3.2651e-001 -2.0974e-002 33645 95010,95114,95088
 1.9500e+001 95235 -2.9037e-001 -6.2124e-001 -3.1124e-001 33645 95062,95036,95209
 1.9500e+001 95258 -2.0613e-001 -8.0411e-001  2.5335e-001 33645 95413,95209,95088
 1.9500e+001 95307  2.4357e-001 -3.0293e-002 -4.3524e-001 33645 95010,95209,95281
 1.9500e+001 95439  7.0733e-002 -4.7169e-001  1.2625e-001 33645 95062,95209,95413
 1.9500e+001 95766 -2.4598e-001 -4.6109e-002 -3.2796e-001 33141 95789,95593,95567
 1.9500e+001 95743 -3.2505e-002 -2.0713e-001 -1.0199e-001 33141 95861,95789,95567
 1.9500e+001 95720 -4.8887e-002 -1.7335e-001 -3.7637e-002 33141 95861,95567,95671
 1.9500e+001 95697 -2.1418e-002 -2.3447e-001 -5.5001e-002 33141 95541,95671,95567
 1.9500e+001 95815 -7.0969e-002  3.9299e-001 -2.8920e-001 33141 95619,95593,95789
 1.9500e+001 95838  1.3852e-003 -6.5326e-004 -9.9767e-002 33141 95619,95789,95645
 1.9500e+001 95887  2.0665e-002 -9.2380e-002 -1.1667e-001 33141 95645,95789,95861
 1.9500e+001 95910 -5.4915e-003 -6.2948e-002 -4.4042e-002 33141 95645,95861,95671
 1.9500e+001 96060 -2.7246e-001 -2.7085e-001 -1.1609e-001 32487 95959,96011,95985
 1.9500e+001 96037 -1.3157e-001 -2.6021e-001 -2.7180e-002 32487 95933,96011,95959
 1.9500e+001 96570 -2.4948e-001 -3.0928e-001  2.5712e-001 32033 96665,96593,96377
 1.9500e+001 96547 -2.2915e-001 -2.8599e-001 -4.1645e-002 32033 96737,96593,96325
 1.9500e+001 96524 -2.9624e-001 -4.2743e-001  1.7325e-001 32033 96665,96377,96351
 1.9500e+001 96501 -2.5809e-001 -4.1069e-001 -5.2556e-002 32033 96737,96325,96299
 1.9500e+001 96478 -2.3826e-001 -8.1421e-002 -5.3909e-002 32033 96247,96429,96299
 1.9500e+001 96455 -5.1018e-001 -1.0052e+000 -1.0165e-001 32033 96247,96299,96273
 1.9500e+001 96619 -1.2712e-002 -1.5196e-001  2.6454e-001 32033 96809,96593,96403
 1.9500e+001 96642  1.8579e-001  3.6689e-001 -2.2066e-001 32033 96403,96593,96429
 1.9500e+001 96691 -4.3031e-002 -5.9329e-001  1.1449e-001 32033 96325,96593,96665
 1.9500e+001 96714 -2.1977e-001 -8.1138e-001 -6.7689e-004 32033 96325,96665,96351
 1.9500e+001 96763 -2.4730e-001 -2.2758e-001  1.6084e-002 32033 96429,96593,96737
 1.9500e+001 96786 -2.5909e-001 -2.9949e-001 -1.0199e-002 32033 96429,96737,96299
 1.9500e+001 96835 -7.7312e-002 -2.2637e-001  2.3021e-001 32033 96377,96593,96809
 1.9500e+001 97064 -2.7422e-002 -3.0763e-002 -2.8302e-002 31671 97087,96989,96963
 1.9500e+001 97041  1.4581e-002 -3.2556e-002  2.5454e-002 31671 97087,96963,96937
 1.9500e+001 97113  1.4841e-002 -4.5502e-002  1.1835e-002 31671 97159,97087,97015
 1.9500e+001 97136  2.0480e-002 -1.9512e-002  2.7159e-002 31671 97015,97087,96937
 1.9500e+001 97185  2.2793e-002  6.4852e-002 -7.3345e-003 31671 96989,97087,97159
 1.9500e+001 97563 -7.5947e-003 -1.0113e-001 -4.9379e-003 31117 97586,97367,97341
 1.9500e+001 97540 -1.2301e-002 -1.0315e-001 -5.5407e-003 31117 97658,97586,97341
 1.9500e+001 97517 -1.8886e-002 -1.1090e-001 -8.3961e-003 31117 97658,97341,97315
 1.9500e+001 97494  3.2822e-002 -1.3222e-001 -2.5062e-002 31117 97289,97445,97315
 1.9500e+001 97471 -2.6489e-002 -1.2668e-002 -1.4792e-002 31117 97367,97419,97393
 1.9500e+001 97612 -4.1499e-002 -1.0869e-001  5.3870e-003 31117 97419,97367,97586
 1.9500e+001 97635  1.3934e-002 -9.3261e-002  1.2197e-002 31117 97419,97586,97445
 1.9500e+001 97684  4.3573e-003 -1.1393e-001 -1.5354e-003 31117 97445,97586,97658
 1.9500e+001 97707 -3.7640e-003 -1.2339e-001 -5.0060e-003 31117 97445,97658,97315
 1.9500e+001 98215  3.9480e-002  1.0423e-002 -1.6863e-001 30563 98238,97996,97944
 1.9500e+001 98192 -1.3257e-001  5.0583e-002 -1.6955e-001 30563 98310,98238,97944
 1.9500e+001 98169 -2.9673e-001 -1.5982e-001 -2.6763e-001 30563 98310,97944,97918
 1.9500e+001 98146  1.2800e-001  3.7437e-002 -2.2324e-002 30563 97892,98074,97918
 1.9500e+001 98123  1.6078e-001  7.6415e-002 -3.8094e-005 30563 97996,98048,98022
 1.9500e+001 98100 -1.9643e-001 -3.1702e-002 -2.4195e-001 30563 97944,97996,97970
 1.9500e+001 98264  4.8689e-005  8.9950e-002 -1.3987e-001 30563 98048,97996,98238
 1.9500e+001 98287  1.2695e-001  3.8078e-001  8.8811e-002 30563 98048,98238,98074
 1.9500e+001 98336  8.3211e-003 -9.5619e-003 -6.5180e-003 30563 98074,98238,98310
 1.9500e+001 98359 -9.1764e-002 -5.0205e-002 -7.2830e-002 30563 98074,98310,97918
 1.9500e+001 98607 -3.6142e-001  5.8343e-003  1.7461e-002 30073 98630,98460,98408
 1.9500e+001 98584 -5.4032e-001 -7.0716e-002 -2.7600e-002 30073 98630,98408,98382
 1.9500e+001 98561 -1.9215e-001 -5.7297e-002 -5.4304e-002 30073 98382,98512,98486
 1.9500e+001 98538 -2.2043e-001 -3.8766e-002  1.1489e-001 30073 98408,98460,98434
 1.9500e+001 98656 -2.6037e-001 -1.0767e-001 -2.0426e-002 30073 98486,98460,98630
 1.9500e+001 98679 -3.7707e-001 -1.3653e-001 -5.4701e-002 30073 98486,98630,98382
 1.9500e+001 99157  7.6840e-001  8.6220e-002  1.3388e-002 29669 99180,98837,98811
 1.9500e+001 99134  4.5214e-001  4.0952e-002  3.6352e-001 29669 99324,99180,98811
 1.9500e+001 99111 -3.7180e-002 -6.6330e-002  9.9437e-002 29669 99252,98863,98837
 1.9500e+001 99088  4.6485e-001  2.0559e-002  3.6751e-001 29669 99324,98811,98993
 1.9500e+001 99065  3.0331e-002 -1.8773e-001 -4.2902e-002 29669 98863,98941,98915
 1.9500e+001 99042 -7.9231e-001 -2.4910e-001 -1.4237e-001 29669 98863,98915,98889
 1.9500e+001 99019  4.7993e-001  4.4081e-002  4.6020e-001 29669 98785,98993,98811
 1.9500e+001 99206  1.9037e-001 -1.6726e-001  1.1514e-001 29669 99252,98837,99180
 1.9500e+001 99229  2.6903e-002 -1.6076e-001  4.6603e-001 29669 98941,99180,98967
 1.9500e+001 99278  2.0840e-001 -4.3329e-002  1.3897e-001 29669 98941,98863,99252
 1.9500e+001 99301  4.9269e-001 -6.3258e-002  2.0870e-001 29669 98941,99252,99180
 1.9500e+001 99350  4.6421e-001  6.5360e-002  3.6895e-001 29669 98967,99180,99324
 1.9500e+001 99373  4.7535e-001  4.4244e-002  3.7097e-001 29669 98967,99324,98993
 1.9500e+001 99958  4.8530e-001 -2.9547e-001 -6.0886e-002 29051 99981,99765,99739
 1.9500e+001 99935  4.4818e-001 -8.7656e-002 -9.0275e-002 29051 99981,99739,99661
 1.9500e+001 99912  2.8721e-001 -6.9796e-001  2.0068e-002 29051 99765,99817,99791
 1.9500e+001 99889  8.9120e-001 -5.3567e-003 -4.3074e-001 29051 99635,99817,99661
 1.9500e+001 99866  6.3650e-001 -1.3360e-002 -2.1545e-001 29051 99661,99739,99687
 1.9500e+001 99843  5.3850e-001 -1.7665e-001 -9.8894e-002 29051 99687,99739,99713
 1.9500e+001 100007  5.4802e-001 -1.4139e-001 -1.0256e-001 29051 99817,99765,99981
 1.9500e+001 100030  4.6200e-001 -4.0757e-003 -1.3155e-001 29051 99817,99981,99661
 1.9500e+001 100278  6.3501e-001 -1.9357e-001  2.5996e-001 28525 100445,100301,100131
 1.9500e+001 100255  3.5818e-001  1.6972e-001  2.2853e-001 28525 100373,100301,100079
 1.9500e+001 100232  3.4867e-001  3.2076e-002  2.4762e-001 28525 100373,100079,100053
 1.9500e+001 100209  4.5219e-001 -6.6809e-002  1.2665e-001 28525 100445,100131,100105
 1.9500e+001 100327  7.6712e-001 -1.1103e-001  3.0245e-001 28525 100517,100301,100157
 1.9500e+001 100350  5.7223e-001  5.5762e-001  3.0217e-001 28525 100157,100301,100183
 1.9500e+001 100399  3.5044e-001  2.6132e-002  2.9909e-001 28525 100183,100301,100373
 1.9500e+001 100422  3.7238e-001 -7.1598e-002  3.1677e-001 28525 100183,100373,100053
 1.9500e+001 100471  3.9224e-001 -2.2301e-001 -3.5128e-002 28525 100079,100301,100445
 1.9500e+001 100494 -1.2734e-001 -3.3494e-001 -1.7879e-001 28525 100079,100445,100105
 1.9500e+001 100543  1.0445e+000  1.5012e-001  8.7474e-002 28525 100131,100301,100517
 1.9500e+001 101209 -8.6740e-001 -5.8618e-002  1.9029e-002 28185 100938,101016,100990
 1.9500e+001 101186 -9.1423e-001 -1.9846e-003  6.1834e-002 28185 100912,101016,100938
 1.9500e+001 101163 -2.8791e-001  1.9404e-001  1.3773e-001 28185 100912,101068,101016
 1.9500e+001 101140 -8.3782e-001  1.4488e-001  6.5403e-002 28185 100886,101068,100912
 1.9500e+001 101117 -3.2356e-001  3.7886e-001  2.0495e-001 28185 101016,101068,101042
 1.9500e+001 101094 -2.2071e+000 -4.1600e-001 -3.6185e-002 28185 100938,100990,100964
 1.9500e+001 101408  1.5998e-001 -9.2326e-002 -1.1774e-001 27781 101503,101431,101310
 1.9500e+001 101385 -1.3861e-001  1.6933e-001 -3.6549e-001 27781 101431,101258,101232
 1.9500e+001 101362  2.0814e-001 -1.1109e-001 -1.3861e-001 27781 101503,101310,101284
 1.9500e+001 101457  7.2695e-001  1.8128e-001 -2.0247e-001 27781 101336,101310,101431
 1.9500e+001 101480  2.1312e-001  3.4472e-001 -4.4474e-001 27781 101575,101431,101232
 1.9500e+001 101529  3.4202e-001 -3.1242e-002 -3.0710e-001 27781 101258,101431,101503
 1.9500e+001 101552  2.1593e-001 -1.6581e-001 -1.5054e-001 27781 101705,101503,101284
 1.9500e+001 101601  3.5224e-001  5.5691e-001 -5.1048e-001 27781 101336,101431,101575
 1.9500e+001 101731 -5.6669e-002 -2.0018e-001 -2.9913e-001 27781 101258,101503,101705
 1.9500e+001 102237 -3.5259e-001 -1.5198e-001  5.1641e-002 27419 102476,102260,101992
 1.9500e+001 102214 -1.9830e-001 -2.7047e-001  2.3056e-003 27419 102260,101940,101914
 1.9500e+001 102191 -4.3880e-001 -3.3768e-001  5.0777e-002 27419 102404,102332,102096
 1.9500e+001 102168 -3.7436e-001 -3.2976e-001 -1.5652e-002 27419 102404,102096,102044
 1.9500e+001 102145 -3.1836e-001 -1.7907e-001  7.2313e-002 27419 102476,101992,101966
 1.9500e+001 102122 -2.6333e-001 -3.1440e-001 -3.5387e-002 27419 102044,102096,102070
 1.9500e+001 102286 -4.7839e-001 -2.8664e-001  1.0816e-001 27419 102018,101992,102260
 1.9500e+001 102309 -3.7684e-001 -2.3185e-001  1.9690e-002 27419 102332,102018,102260
 1.9500e+001 102358 -4.2266e-001 -5.1370e-001  1.5939e-001 27419 101914,102096,102332
 1.9500e+001 102381 -3.1472e-001 -3.6791e-001  5.6607e-002 27419 101914,102332,102260
 1.9500e+001 102430 -3.0074e-001 -3.0239e-001  1.1813e-002 27419 102018,102332,102404
 1.9500e+001 102453 -2.5890e-001 -2.9065e-001 -6.1493e-002 27419 102018,102404,102044
 1.9500e+001 102502 -2.5776e-001 -2.3540e-001  7.4663e-002 27419 101940,102260,102476
 1.9500e+001 102525  1.5227e-001 -4.1780e-002  2.0975e-002 27419 101940,102476,101966
 1.9500e+001 103031  5.3404e-001 -2.1445e-002 -1.9689e-001 26715 102708,102786,102760
 1.9500e+001 103008  3.8175e-001  1.4907e-001 -9.8492e-002 26715 102708,102890,102786
 1.9500e+001 102985  6.3770e-001  8.2032e-002 -1.4847e-002 26715 102838,102890,102864
 1.9500e+001 102962  3.8153e-001 -2.6292e-001  9.9544e-002 26715 102786,102890,102838
 1.9500e+001 102939  1.0227e+000  6.7017e-002  5.4734e-001 26715 102786,102838,102812
 1.9500e+001 102916  5.9663e-001  1.6292e-002 -1.0448e-001 26715 102708,102760,102734
 1.9500e+001 103279  3.0615e-003  2.5781e-003  6.7042e-003 26303 103302,103158,103080
 1.9500e+001 103256 -4.0880e-003  7.2782e-003  6.6863e-003 26303 103302,103080,103054
 1.9500e+001 103233 -1.3172e-002 -5.3205e-003  3.6157e-003 26303 103080,103158,103106
 1.9500e+001 103210  4.2289e-002  6.4239e-003  2.4487e-003 26303 103106,103158,103132
 1.9500e+001 103328  1.5541e-002  6.6554e-003  4.8145e-003 26303 103184,103158,103302
 1.9500e+001 103351  1.8110e-003  6.3205e-003  5.6488e-003 26303 103184,103302,103054
 1.9500e+001 103501 -3.6709e-001 -3.5460e-001  3.1096e-002 25849 103374,103426,103400
 1.9500e+001 103478 -3.4194e-001 -2.4092e-001  2.1272e-002 25849 103374,103452,103426
 1.9500e+001 104090  1.1611e-001  3.9864e-002  1.2484e-001 25445 103793,103871,103819
 1.9500e+001 104067  2.7852e-001  1.1503e-001  5.5114e-002 25445 103793,103949,103871
 1.9500e+001 104044  3.2734e-001  1.0591e-001  1.3885e-001 25445 103871,103949,103923
 1.9500e+001 104021 -1.0478e-002  6.9683e-002 -1.9553e-002 25445 103819,103871,103845
 1.9500e+001 103998  3.2981e-001  1.9732e-001  1.7186e-001 25445 103767,103949,103793
 1.9500e+001 103975  3.8033e-001  8.2545e-002  1.3761e-001 25445 103871,103923,103897
 1.9500e+001 104419 -1.4504e-001 -5.6016e-002 -7.7570e-002 25083 104220,104298,104272
 1.9500e+001 104396 -3.2282e-001 -2.7282e-001  1.8132e-003 25083 104220,104324,104298
 1.9500e+001 104373 -9.5901e-002 -7.1408e-002 -3.1442e-002 25083 104220,104272,104246
 1.9500e+001 104350 -3.3007e-001 -2.9042e-001 -4.2509e-003 25083 104194,104324,104220
 1.9500e+001 105102  7.3700e-002 -1.5417e-001  4.0349e-002 24793 104785,104863,104837
 1.9500e+001 105079  9.5579e-002 -2.2208e-001 -1.0656e-001 24793 104759,104863,104785
 1.9500e+001 105056  4.4533e-002 -2.1187e-002 -1.1816e-001 24793 104759,104915,104863
 1.9500e+001 105033  4.8272e-002 -1.0539e-001 -1.3965e-001 24793 104733,104915,104759
 1.9500e+001 105010  2.9854e-001  8.7260e-002 -1.2132e-001 24793 104863,104915,104889
 1.9500e+001 104987 -1.0184e-001  1.4081e-002 -2.5077e-001 24793 104681,104915,104733
 1.9500e+001 104964  4.2738e-003 -2.3293e-001  6.3571e-003 24793 104785,104837,104811
 1.9500e+001 104941 -3.9586e-002  2.4285e-001 -2.4518e-001 24793 104681,104733,104707
 1.9500e+001 105252  8.9160e-001  1.6415e-001 -5.8498e-002 24389 105477,105275,105177
 1.9500e+001 105229  2.3027e-001 -1.0612e-001  2.4494e-001 24389 105347,105275,105151
 1.9500e+001 105301  7.7814e-001  4.0721e-002 -7.6656e-003 24389 105203,105177,105275
 1.9500e+001 105324  1.2792e+000  8.7547e-001  3.9420e-001 24389 105203,105275,105125
 1.9500e+001 105373  9.2177e-001  3.5138e-001  1.4147e-002 24389 105125,105275,105347
 1.9500e+001 105503  6.0042e-001 -4.0807e-001 -1.6186e-001 24389 105151,105275,105477
 1.9500e+001 106088 -3.4738e-001  3.2996e-001  4.0049e-001 23735 105791,105921,105895
 1.9500e+001 106065 -1.0569e+000  1.1078e-001  5.0883e-001 23735 105765,105921,105791
 1.9500e+001 106042 -1.7868e-001  5.3833e-001  3.1375e-001 23735 105765,105947,105921
 1.9500e+001 106019 -1.2969e+000 -3.3460e-002  5.0528e-001 23735 105817,105895,105869
 1.9500e+001 105996 -8.0293e-001  1.3821e-001  4.9599e-001 23735 105791,105895,105817
 1.9500e+001 105973 -7.8313e-001 -1.6013e-001  4.9164e-001 23735 105817,105869,105843
 1.9500e+001 106417  4.6752e-001  9.9483e-001 -1.5936e-001 23295 106218,106296,106270
 1.9500e+001 106394  3.3907e-001  4.3852e-001 -1.4211e-001 23295 106218,106322,106296
 1.9500e+001 106371  1.6169e-001  3.1248e-001 -2.3758e-001 23295 106218,106270,106244
 1.9500e+001 106348  5.1724e-001  5.1469e-001 -5.5816e-002 23295 106192,106322,106218
 1.9500e+001 106746  2.2482e-001  3.8335e-001  1.4345e-001 23005 106521,106599,106547
 1.9500e+001 106723  5.1012e-001  7.0745e-001  2.2004e-002 23005 106521,106651,106599
 1.9500e+001 106700  5.7350e-001  1.7474e-001 -2.2829e-001 23005 106547,106599,106573
 1.9500e+001 106677  6.3646e-001  6.7506e-001  3.3920e-001 23005 106599,106651,106625
 1.9500e+001 107331  5.8719e-002 -6.8678e-002  7.8062e-002 22601 107060,107190,107138
 1.9500e+001 107308  4.5166e-001 -1.4826e-001  2.3244e-001 22601 107034,107190,107060
 1.9500e+001 107285  3.5351e-001  1.0814e-001  2.6573e-001 22601 107060,107138,107112
 1.9500e+001 107262  6.2988e-001 -2.4643e-001 -4.1294e-002 22601 107008,107190,107034
 1.9500e+001 107239  2.7097e-001 -3.2434e-002  3.1972e-001 22601 107060,107112,107086
 1.9500e+001 107216  4.1094e-002 -5.2492e-001  4.9028e-002 22601 107138,107190,107164
 1.9500e+001 107807 -2.2315e-001  1.3827e-001 -3.8004e-002 22031 107974,107902,107617
 1.9500e+001 107784 -2.5444e-001  2.7477e-001 -1.1737e-001 22031 107830,107565,107513
 1.9500e+001 107761 -8.9454e-002  9.5890e-002 -1.3089e-001 22031 108046,107830,107513
 1.9500e+001 107738 -1.5691e-001  2.6010e-001  1.4364e-002 22031 107974,107617,107591
 1.9500e+001 107715 -1.0949e-001  3.9402e-002 -1.2342e-001 22031 108046,107513,107461
 1.9500e+001 107692 -6.8014e-001  3.8761e-001 -2.1660e-001 22031 107513,107565,107539
 1.9500e+001 107669  3.1950e-002  1.9285e-001 -2.1147e-001 22031 107461,107513,107487
 1.9500e+001 107856 -3.2458e-001  2.1138e-001 -6.6408e-002 22031 107902,107565,107830
 1.9500e+001 107879 -1.6962e-001 -3.1188e-002  9.8406e-003 22031 107643,107830,107435
 1.9500e+001 107928 -5.3842e-001  2.8593e-001 -2.5241e-001 22031 107643,107617,107902
 1.9500e+001 107951 -3.3631e-001  1.8779e-001  3.7300e-002 22031 107643,107902,107830
 1.9500e+001 108000 -2.7989e-001  3.1185e-001 -5.8270e-002 22031 107565,107902,107974
 1.9500e+001 108023 -2.7360e-001  2.7895e-001 -4.8183e-002 22031 107565,107974,107591
 1.9500e+001 108072 -5.8553e-002  2.4980e-002 -5.0252e-002 22031 107435,107830,108046
 1.9500e+001 108095 -9.5865e-002 -6.4824e-002 -4.3231e-002 22031 107435,108046,107461
 1.9500e+001 108196  1.0785e-002 -1.1159e-002 -2.8388e-004 21783 108118,108170,108144
 1.9500e+001 108655  1.0073e-001  5.7997e-001  3.4160e-001 21379 108407,108485,108459
 1.9500e+001 108632  1.0814e+000 -1.0857e-001  5.1371e-001 21379 108407,108511,108485
 1.9500e+001 108609  1.1781e+000 -3.8437e-001  1.5388e-001 21379 108381,108511,108407
 1.9500e+001 108586  3.0512e-001 -1.5086e-001 -3.5136e-001 21379 108381,108537,108511
 1.9500e+001 108563  3.0866e-001  7.9816e-002  1.5457e-001 21379 108407,108459,108433
 1.9500e+001 109082  1.9037e-002 -9.0177e-002 -9.6240e-003 20974 109105,108863,108811
 1.9500e+001 109059 -2.6890e-002 -1.1131e-001  2.0534e-004 20974 109105,108811,108759
 1.9500e+001 109036  3.7191e-003 -2.4951e-001  3.6498e-002 20974 109177,108889,108863
 1.9500e+001 109013 -2.5462e-002 -1.0007e-001  4.8744e-003 20974 108811,108863,108837
 1.9500e+001 108990  3.3483e-002 -3.2739e-003 -2.5113e-004 20974 108759,108941,108915
 1.9500e+001 108967  8.8252e-004 -1.6883e-002 -2.8558e-003 20974 108759,108811,108785
 1.9500e+001 109131 -2.8617e-002 -1.9163e-001  9.0031e-003 20974 109177,108863,109105
 1.9500e+001 109154  6.8457e-004 -2.5363e-003 -4.1749e-003 20974 108915,109105,108759
 1.9500e+001 109203 -2.9454e-003 -2.0375e-001 -3.1630e-002 20974 108915,108889,109177
 1.9500e+001 109226  1.0299e-002 -6.4742e-002 -5.1192e-002 20974 108915,109177,109105
 1.9500e+001 109496 -3.9659e-001  1.1281e-001 -4.1139e-002 20470 109271,109375,109297
 1.9500e+001 109473 -3.6784e-001  1.6578e-001 -6.7425e-002 20470 109271,109401,109375
 1.9500e+001 109450 -4.9199e-001  4.0291e-003 -8.2394e-002 20470 109297,109375,109349
 1.9500e+001 109427 -7.0696e-001 -4.2782e-001  1.5416e-001 20470 109297,109349,109323
 1.9500e+001 109955  1.0541e-001  6.7192e-001  4.1449e-001 20123 110050,109733,109707
 1.9500e+001 109932 -2.5053e-001  4.2375e-001  3.0384e-001 20123 110050,109707,109681
 1.9500e+001 109909  1.7563e-001  3.0014e-001  3.4667e-001 20123 109978,109759,109733
 1.9500e+001 109886  1.2664e-002  1.9532e-001  3.0131e-001 20123 110122,109978,109733
 1.9500e+001 109863  1.8652e-001  1.0955e-001  2.1110e-001 20123 109785,109837,109811
 1.9500e+001 110004  1.4067e-001  2.5142e-001  2.6882e-001 20123 109785,109759,109978
 1.9500e+001 110027  1.0304e-001  2.0055e-001  1.9997e-001 20123 109785,109978,109837
 1.9500e+001 110076 -7.4884e-002  3.1715e-001  2.4711e-001 20123 110122,109733,110050
 1.9500e+001 110099 -6.4756e-002  4.0798e-001  1.4065e-001 20123 109837,110050,109681
 1.9500e+001 110148  1.8101e-001  3.6812e-001  2.3043e-001 20123 109837,109978,110122
 1.9500e+001 110171  1.0204e-001  4.7436e-001  1.7486e-001 20123 109837,110122,110050
 1.9500e+001 110500  5.3384e-001  6.7589e-002 -3.3358e-002 19511 110301,110379,110353
 1.9500e+001 110477  1.0577e+000  5.3311e-001 -2.5322e-001 19511 110301,110405,110379
 1.9500e+001 110454  4.1924e-001  1.8086e-001 -4.5443e-002 19511 110275,110405,110301
 1.9500e+001 110431  4.8721e-001  5.5440e-002  1.1037e-001 19511 110301,110353,110327
 1.9500e+001 110957  5.6997e-002  7.8043e-001 -3.7139e-001 19107 110683,110735,110709
 1.9500e+001 110934  1.7536e-001 -1.3455e-001 -7.3772e-001 19107 110683,110813,110735
 1.9500e+001 110911  5.3496e-001  7.2839e-001 -6.2875e-001 19107 110735,110813,110761
 1.9500e+001 110888  4.4365e-001 -5.3411e-001  1.2488e-001 19107 110683,110839,110813
 1.9500e+001 110865  3.9110e-001  4.2015e-001 -5.7679e-001 19107 110761,110813,110787
 1.9500e+001 111335  5.6033e-002 -3.0873e-001 -3.3516e-002 18653 111087,111165,111139
 1.9500e+001 111312  3.8578e-001  1.2531e-003 -1.6150e-001 18653 111087,111217,111165
 1.9500e+001 111289  1.3025e-001 -1.5225e-001  1.4014e-001 18653 111061,111217,111087
 1.9500e+001 111266 -1.0118e-001 -5.0897e-001 -1.5506e-001 18653 111087,111139,111113
 1.9500e+001 111243  2.9401e-001 -1.8748e-001 -2.0293e-001 18653 111165,111217,111191
 1.9500e+001 111735 -5.0769e-001 -2.7200e-001  7.9499e-002 18213 111461,111513,111487
 1.9500e+001 111712 -4.1017e-001 -3.3475e-001  4.2127e-002 18213 111461,111617,111513
 1.9500e+001 111689 -3.3567e-001 -1.6226e-001  3.4822e-002 18213 111513,111617,111591
 1.9500e+001 111666 -1.7967e-001 -1.7762e-001  7.9165e-002 18213 111513,111591,111539
 1.9500e+001 111643 -7.6720e-002 -1.0687e-001  4.0701e-002 18213 111539,111591,111565
 1.9500e+001 111885  6.6597e-001 -1.4747e-001  1.7986e-001 17659 111784,111836,111810
 1.9500e+001 111862  7.8781e-001  7.5606e-002  2.7356e-001 17659 111758,111836,111784
 1.9500e+001 112287  2.0751e-001  2.3498e-001  9.9787e-002 17411 112065,112169,112143
 1.9500e+001 112264  4.4569e-001  3.7106e-002  5.9774e-002 17411 112039,112169,112065
 1.9500e+001 112241  4.0230e-001  1.7102e-002 -2.3419e-002 17411 112013,112169,112039
 1.9500e+001 112218  2.0144e+000  3.0329e-001 -4.7212e-001 17411 112091,112143,112117
 1.9500e+001 112195  9.4774e-002  1.0105e-001 -3.5407e-002 17411 112065,112143,112091
 1.9500e+001 112508 -3.8301e-001  3.5791e-001  5.5990e-002 17007 112384,112436,112410
 1.9500e+001 112485 -2.5777e-001  4.8219e-001  1.0953e-001 17007 112332,112436,112384
 1.9500e+001 112462 -3.7455e-001  2.5334e-001  6.8479e-002 17007 112332,112384,112358
 1.9500e+001 112658 -1.0029e+000 -3.7070e-001  2.7368e-001 16553 112557,112609,112583
 1.9500e+001 112635 -1.4893e+000 -1.4027e-001  3.3073e-001 16553 112531,112609,112557
 1.9500e+001 112761  1.7301e-002 -1.6184e-001  7.5601e-003 16355 112683,112735,112709
 1.9500e+001 112913 -6.6182e-001  4.5242e-001  4.6024e-002 15949 112786,112838,112812
 1.9500e+001 112890 -2.7225e-001  1.1303e+000 -1.3466e-001 15949 112786,112864,112838
 1.9500e+001 113065  5.6262e-003 -8.2676e-002 -9.0112e-004 15609 112938,112990,112964
 1.9500e+001 113042 -3.0176e-002 -1.7647e-001 -4.6065e-002 15609 112938,113016,112990
 1.9500e+001 113420  5.0628e-001  4.2445e-001  1.3125e-001 15284 113247,113325,113299
 1.9500e+001 113397  4.9041e-001  3.8388e-001  6.3406e-002 15284 113195,113325,113247
 1.9500e+001 113374  4.1268e-001  3.5201e-001  6.4745e-002 15284 113195,113247,113221
 1.9500e+001 113351  4.6065e-001  6.6741e-001  1.4288e-001 15284 113247,113299,113273
 1.9500e+001 113521 -1.9076e-002 -1.9133e-002  4.9412e-003 202 113443,113495,113469
 2.0000e+001 65564  1.8459e-001 -9.7396e-001  2.2700e-001 65155 65414,65466,65440
 2.0000e+001 65541 -1.3109e+000 -4.3681e+000  6.4452e-001 65155 65414,65492,65466
 2.0000e+001 65518 -1.3710e-001 -3.6741e+000  1.2380e-001 65155 65388,65492,65414
 2.0000e+001 65883  2.7631e-001 -1.2021e+000 -9.1635e-002 64957 65635,65739,65713
 2.0000e+001 65860  1.7725e-001 -1.8697e+000 -1.2867e-001 64957 65635,65765,65739
 2.0000e+001 65837 -1.4660e-001 -2.0600e+000 -1.4955e-002 64957 65609,65765,65635
 2.0000e+001 65814  2.1201e-001 -1.5781e+000  4.0931e-001 64957 65635,65713,65687
 2.0000e+001 65791  7.9366e-002 -1.9121e+000  2.2447e-001 64957 65635,65687,65661
 2.0000e+001 65984  1.0947e-001  3.8340e-002 -1.4256e-001 64781 65906,65958,65932
 2.0000e+001 66232 -4.7987e-001 -6.0214e-001  5.3393e-001 64469 66007,66059,66033
 2.0000e+001 66209  3.3636e-001 -5.9884e-001  6.5420e-001 64469 66007,66085,66059
 2.0000e+001 66186 -3.6043e-003 -1.4521e+000  3.9727e-001 64469 66007,66137,66085
 2.0000e+001 66163  2.3995e-001 -1.6513e+000  1.2126e+000 64469 66085,66137,66111
 2.0000e+001 66504  9.7414e-003 -1.7283e+000  5.2768e-002 64271 66279,66383,66305
 2.0000e+001 66481  1.8133e-001 -1.7296e+000 -5.1718e-002 64271 66279,66409,66383
 2.0000e+001 66458  3.4145e-001 -2.2154e+000  6.1890e-002 64271 66305,66357,66331
 2.0000e+001 66435 -1.3042e-001 -2.0172e+000  1.1371e-001 64271 66305,66383,66357
 2.0000e+001 66705  1.4147e-001 -3.1110e+000  5.1012e-001 64073 66728,66581,66555
 2.0000e+001 66682 -2.2162e-001 -2.5626e+000  5.9374e-001 64073 66728,66555,66529
 2.0000e+001 66659  6.4856e-001 -3.0403e+000 -5.6036e-001 64073 66581,66633,66607
 2.0000e+001 66754  2.2178e-002 -2.6481e+000  3.2640e-001 64073 66633,66581,66728
 2.0000e+001 66777 -5.3156e-002 -1.8285e+000  2.8792e-001 64073 66633,66728,66529
 2.0000e+001 66951 -3.0431e-001 -4.9397e-001 -2.1109e-001 63783 66824,66876,66850
 2.0000e+001 66928  1.0620e+000 -6.4021e-001  3.2847e-001 63783 66824,66902,66876
 2.0000e+001 67201 -7.1374e-001 -2.5089e+000 -7.1018e-002 63585 66976,67080,67054
 2.0000e+001 67178 -2.6574e-001 -2.3503e+000  2.4093e-001 63585 66976,67106,67080
 2.0000e+001 67155  2.4806e-003 -3.0660e+000 -4.8087e-001 63585 66976,67054,67028
 2.0000e+001 67132  4.0496e-001 -2.2488e+000 -1.2665e-001 63585 66976,67028,67002
 2.0000e+001 67654  1.4167e-001 -1.3646e+000 -2.1287e-002 63295 67357,67487,67383
 2.0000e+001 67631  1.6090e-001 -1.7077e+000  2.3454e-001 63295 67331,67487,67357
 2.0000e+001 67608 -1.0815e-001 -2.0440e+000 -3.0101e-002 63295 67331,67513,67487
 2.0000e+001 67585  6.7571e-003 -2.0977e+000  2.3681e-002 63295 67435,67487,67461
 2.0000e+001 67562 -9.7764e-002 -2.1178e+000  5.1975e-003 63295 67383,67487,67435
 2.0000e+001 67539  4.4673e-002 -1.9114e+000  7.7392e-002 63295 67383,67435,67409
 2.0000e+001 67853 -1.0994e-001 -1.8015e+000 -4.5002e-003 62891 67876,67703,67677
 2.0000e+001 67830 -1.3185e-001 -1.9417e+000 -1.9234e-002 62891 67876,67677,67781
 2.0000e+001 67807 -6.8618e-002 -1.5763e+000 -1.0520e-001 62891 67948,67729,67703
 2.0000e+001 67902 -1.2105e-001 -1.7860e+000  4.2753e-002 62891 67948,67703,67876
 2.0000e+001 67925 -3.5850e-001 -1.7722e+000  1.1693e-001 62891 67755,67876,67781
 2.0000e+001 67974 -2.0285e-001 -1.2911e+000 -1.0090e-001 62891 67755,67729,67948
 2.0000e+001 67997 -1.4700e-001 -1.4011e+000  1.9099e-002 62891 67755,67948,67876
 2.0000e+001 68218  4.8284e-001 -8.4416e+000 -1.3209e+000 62693 68042,68120,68068
 2.0000e+001 68195  1.0736e-001 -7.8372e+000  4.0313e-001 62693 68042,68146,68120
 2.0000e+001 68172 -5.0210e-001 -3.7689e+000 -1.7858e+000 62693 68068,68120,68094
 2.0000e+001 68468  2.1500e+000 -7.0190e-001  6.7524e-001 62289 68491,68295,68269
 2.0000e+001 68445  1.2587e+000 -5.4883e-001 -5.3957e-001 62289 68563,68491,68269
 2.0000e+001 68422  1.4936e+000 -3.1209e-001 -4.0870e-001 62289 68563,68269,68243
 2.0000e+001 68399  1.6446e+000 -1.8444e+000  1.2481e+000 62289 68295,68347,68321
 2.0000e+001 68517  1.4276e+000 -2.8311e+000  5.4757e-001 62289 68347,68295,68491
 2.0000e+001 68540  8.0291e-001 -1.2151e+000 -6.4888e-001 62289 68347,68491,68373
 2.0000e+001 68589  1.1352e+000 -1.1235e-001 -3.3701e-001 62289 68373,68491,68563
 2.0000e+001 68612  1.2167e+000 -1.3107e-002 -2.3597e-001 62289 68373,68563,68243
 2.0000e+001 68911 -1.1768e-001 -1.7950e+000  2.0812e-002 62091 69222,68934,68741
 2.0000e+001 68888  1.8771e-001 -1.7661e+000 -2.5652e-002 62091 69006,68934,68689
 2.0000e+001 68865  2.7871e-001 -1.6810e+000  8.3594e-002 62091 69006,68689,68663
 2.0000e+001 68842 -2.3128e-001 -1.8599e+000 -2.0866e-001 62091 69078,68793,68767
 2.0000e+001 68819 -2.7641e-001 -1.8865e+000  2.2124e-001 62091 69222,68741,68715
 2.0000e+001 68960 -3.0659e-001 -1.8333e+000  5.0039e-002 62091 68767,68741,68934
 2.0000e+001 68983 -1.1323e-001 -1.9368e+000 -4.4060e-002 62091 69078,68767,68934
 2.0000e+001 69032  1.5027e-001 -1.7923e+000 -1.6008e-002 62091 69150,69006,68637
 2.0000e+001 69055  1.3110e-001 -1.8085e+000  1.9413e-002 62091 68637,69006,68663
 2.0000e+001 69104 -7.4779e-002 -1.4946e+000 -8.5849e-002 62091 68637,68793,69078
 2.0000e+001 69127  1.0559e-001 -1.7343e+000  9.3901e-003 62091 69150,68637,69078
 2.0000e+001 69176  4.8846e-002 -1.7960e+000 -4.8476e-002 62091 68934,69006,69150
 2.0000e+001 69199 -5.0225e-002 -1.7785e+000 -6.0909e-003 62091 68934,69150,69078
 2.0000e+001 69248 -2.1374e-002 -1.5958e+000 -1.7583e-002 62091 68689,68934,69222
 2.0000e+001 69271 -5.4378e-002 -1.5326e+000  1.2421e-001 62091 68689,69222,68715
 2.0000e+001 69521 -8.3928e-001 -1.8793e+000 -8.3577e-001 61893 69544,69348,69296
 2.0000e+001 69498 -6.3548e-001 -1.6712e+000 -9.8514e-001 61893 69544,69296,69400
 2.0000e+001 69475 -3.7272e-001 -9.4085e-001 -4.7842e-001 61893 69296,69426,69400
 2.0000e+001 69452 -1.2450e+000 -4.1784e+000 -8.9656e-001 61893 69296,69348,69322
 2.0000e+001 69570 -7.4663e-001 -2.2044e+000 -6.0070e-001 61893 69374,69348,69544
 2.0000e+001 69593 -3.3357e-001 -1.9241e+000 -7.9410e-001 61893 69374,69544,69400
 2.0000e+001 70046  1.0887e-001 -1.4765e+000 -5.3559e-003 61467 69749,69905,69879
 2.0000e+001 70023  2.1097e-001 -1.1702e+000  3.3721e-001 61467 69723,69905,69749
 2.0000e+001 70000  9.7716e-002 -1.5409e+000 -3.5617e-002 61467 70069,69827,69775
 2.0000e+001 69977 -1.8744e-001 -2.2515e+000  2.0698e-001 61467 70069,69775,69749
 2.0000e+001 69954 -6.6971e-002 -1.0754e+000 -3.8148e-002 61467 70141,69853,69827
 2.0000e+001 69931  1.7285e-001 -1.9622e+000 -5.8279e-001 61467 69775,69827,69801
 2.0000e+001 70095  2.0711e-002 -1.1999e+000 -1.1881e-001 61467 70141,69827,70069
 2.0000e+001 70118  9.1899e-002 -1.5222e+000  6.0517e-003 61467 69879,70069,69749
 2.0000e+001 70167  2.2865e-002 -1.2655e+000 -3.1066e-002 61467 69879,69853,70141
 2.0000e+001 70190 -2.1194e-002 -1.5606e+000 -1.1377e-001 61467 69879,70141,70069
 2.0000e+001 70291 -1.7332e-001 -2.6001e+000 -2.9421e-001 61013 70213,70265,70239
 2.0000e+001 70441 -9.6809e-001 -1.8524e+000  3.4394e-003 60651 70340,70392,70366
 2.0000e+001 70418 -3.1112e-001 -6.1252e-001  2.4670e-001 60651 70314,70392,70340
 2.0000e+001 70642  1.1929e-001 -1.4930e+000 -4.4444e-001 60311 70665,70492,70466
 2.0000e+001 70619 -1.3454e-001 -2.1455e+000 -5.4638e-001 60311 70665,70466,70570
 2.0000e+001 70596 -3.4255e+000 -4.9783e-002 -2.5738e-001 60311 70492,70544,70518
 2.0000e+001 70691  9.6466e-002 -8.3234e-001  2.2792e-001 60311 70544,70492,70665
 2.0000e+001 70714 -3.1392e-001 -1.8268e+000  1.4062e-001 60311 70544,70665,70570
 2.0000e+001 70964  3.6876e-001 -1.7854e+000  1.2031e-002 59907 70987,70765,70739
 2.0000e+001 70941  2.5587e-001 -2.0680e+000 -1.4751e-001 59907 71059,70987,70739
 2.0000e+001 70918  8.1199e-002 -2.6419e+000 -5.9244e-002 59907 71059,70739,70869
 2.0000e+001 70895  1.2527e-001 -1.8210e+000 -2.4920e-003 59907 70817,70869,70843
 2.0000e+001 71013  1.2113e+000 -1.3554e+000  5.3158e-001 59907 70791,70765,70987
 2.0000e+001 71036  3.6749e-001 -1.9208e+000  1.4134e-001 59907 70791,70987,70817
 2.0000e+001 71085  5.3707e-002 -1.6935e+000 -6.8405e-002 59907 70817,70987,71059
 2.0000e+001 71108  1.4129e-001 -1.9186e+000 -9.5800e-002 59907 70817,71059,70869
 2.0000e+001 71441 -1.6555e+000 -3.1763e+000 -7.4567e-001 59417 71464,71242,71216
 2.0000e+001 71418 -1.2988e+000 -2.4916e+000 -4.1541e-001 59417 71464,71216,71320
 2.0000e+001 71395 -6.9494e-001 -3.1193e+000 -6.2990e-001 59417 71216,71346,71320
 2.0000e+001 71372 -7.9357e-001 -2.4973e+000 -1.1157e+000 59417 71268,71320,71294
 2.0000e+001 71490 -2.0003e+000 -3.2293e+000 -1.4826e+000 59417 71268,71242,71464
 2.0000e+001 71513 -1.7122e+000 -2.2088e+000 -1.1796e+000 59417 71268,71464,71320
 2.0000e+001 71712  2.4107e+000  1.7958e+000  3.8617e-001 58913 71562,71614,71588
 2.0000e+001 71689  2.0909e+000  1.1361e+000 -1.1496e-001 58913 71536,71614,71562
 2.0000e+001 71666  7.7633e-001  1.2264e+000 -1.9202e-001 58913 71536,71640,71614
 2.0000e+001 72171 -1.4651e+000 -1.5307e+000  8.1691e-001 58409 72194,72027,72001
 2.0000e+001 72148 -7.7847e-001 -1.6985e+000  6.5817e-002 58409 72194,72001,71949
 2.0000e+001 72125  1.5888e-001  1.1825e-002 -1.2358e-002 58409 71923,72053,71949
 2.0000e+001 72102 -2.3456e-001 -1.8337e+000  5.5838e-001 58409 71949,72001,71975
 2.0000e+001 72079 -1.0679e-002 -2.4415e-002  1.0403e-002 58409 71897,72053,71923
 2.0000e+001 72220 -4.9254e-001 -1.1437e+000  7.8947e-001 58409 72053,72027,72194
 2.0000e+001 72243 -1.0219e-001 -1.5151e+000  9.6828e-002 58409 72053,72194,71949
 2.0000e+001 72491  6.0787e-001  1.2044e-001  8.3490e-001 57855 72514,72318,72292
 2.0000e+001 72468  2.9427e-001 -1.8720e-001  1.1058e+000 57855 72514,72292,72266
 2.0000e+001 72445  7.7956e-001 -8.0946e-001  1.2283e+000 57855 72318,72396,72370
 2.0000e+001 72422  1.5166e-002  1.3358e+000  7.4879e-001 57855 72318,72370,72344
 2.0000e+001 72540  6.3104e-001  1.8133e-001  8.3223e-001 57855 72396,72318,72514
 2.0000e+001 72563  6.0143e-001  3.1180e-001  9.2079e-001 57855 72396,72514,72266
 2.0000e+001 72811 -7.9963e-002 -2.4651e+000  1.3697e+000 57401 72612,72690,72638
 2.0000e+001 72788 -2.4251e+000 -3.4624e+000  1.6436e+000 57401 72586,72690,72612
 2.0000e+001 72765  4.1980e+000 -4.0729e+000  3.1838e-001 57401 72638,72690,72664
 2.0000e+001 72742  2.4142e-001 -1.6844e+000  7.8964e-001 57401 72586,72716,72690
 2.0000e+001 73144 -2.7638e-001 -1.6264e+000  2.1145e-002 57004 72919,72997,72945
 2.0000e+001 73121 -3.4375e-001 -2.1288e+000  1.5898e-001 57004 72919,73049,72997
 2.0000e+001 73098 -4.2445e-001 -1.5705e+000 -4.1580e-002 57004 72945,72997,72971
 2.0000e+001 73075 -3.3291e-001 -2.2274e+000  2.5458e-001 57004 72997,73049,73023
 2.0000e+001 73650  1.3680e+000 -7.4164e-001  3.8017e-001 56592 73673,73379,73353
 2.0000e+001 73627  1.3369e+000 -7.4638e-001  3.8864e-001 56592 73673,73353,73327
 2.0000e+001 73604  2.7600e+000 -6.0307e-001  6.6809e-001 56592 73745,73509,73483
 2.0000e+001 73581  2.6259e+000 -1.6077e+000  1.5092e+000 56592 73379,73457,73405
 2.0000e+001 73558  2.0861e+000 -1.6750e+000  1.1930e+000 56592 73379,73483,73457
 2.0000e+001 73535  2.7858e+000 -2.3327e+000  1.1003e+000 56592 73405,73457,73431
 2.0000e+001 73699  1.3012e+000 -1.5373e+000  1.1711e+000 56592 73483,73379,73673
 2.0000e+001 73722  2.4465e+000 -9.5842e-001  8.1333e-001 56592 73745,73483,73673
 2.0000e+001 73771  2.2469e+000  4.7425e-001  9.6952e-002 56592 73327,73509,73745
 2.0000e+001 73794  1.4836e+000 -1.4057e-001  3.7422e-001 56592 73327,73745,73673
 2.0000e+001 74123 -1.5403e+000 -1.2673e+000 -1.3255e+000 56152 74146,74002,73924
 2.0000e+001 74100 -1.0082e+000 -1.8004e+000 -4.5554e-001 56152 74146,73924,73898
 2.0000e+001 74077 -3.1528e-001  5.6027e-002 -1.8567e+000 56152 73924,74002,73976
 2.0000e+001 74054 -1.3061e+000 -2.2077e+000 -3.7251e-001 56152 73924,73976,73950
 2.0000e+001 74172 -1.5280e+000  4.0870e-001 -1.1901e+000 56152 74028,74002,74146
 2.0000e+001 74195 -9.8806e-001 -8.8319e-001 -2.2346e-001 56152 74028,74146,73898
 2.0000e+001 74345 -3.1317e-001 -4.3056e-001 -6.8811e-002 55634 74218,74270,74244
 2.0000e+001 74322 -5.4946e-001 -6.7588e-002 -6.0072e-002 55634 74218,74296,74270
 2.0000e+001 74823 -3.0419e-001 -2.6386e+000  6.0070e-001 55016 74918,74846,74581
 2.0000e+001 74800 -8.4185e-001 -1.9268e+000  2.7433e-001 55016 74846,74477,74633
 2.0000e+001 74777 -5.7430e-001 -3.8718e+000  9.6564e-001 55016 74918,74581,74555
 2.0000e+001 74754 -3.6780e-001 -2.0261e+000  1.5973e-001 55016 74990,74503,74477
 2.0000e+001 74731 -2.9381e-001 -2.4724e+000 -8.9296e-001 55016 74451,74633,74477
 2.0000e+001 74708 -1.9506e+000 -1.7755e+000 -1.0704e+000 55016 74451,74659,74633
 2.0000e+001 74685 -9.7451e-001 -1.5732e+000  1.5352e+000 55016 74503,74555,74529
 2.0000e+001 74872 -7.9694e-001 -3.7990e+000  6.1595e-001 55016 74607,74581,74846
 2.0000e+001 74895 -9.7535e-001 -2.6470e+000  2.1850e-001 55016 74607,74846,74633
 2.0000e+001 74944 -7.6951e-001 -2.8230e+000  5.4800e-001 55016 74477,74846,74918
 2.0000e+001 74967 -3.7247e-001 -2.2728e+000  2.8618e-001 55016 74990,74477,74918
 2.0000e+001 75016 -3.5390e-001 -1.9653e+000  9.8654e-001 55016 74555,74503,74990
 2.0000e+001 75039 -6.0655e-001 -2.7583e+000  1.0860e+000 55016 74555,74990,74918
 2.0000e+001 75287 -6.4039e-001 -6.5005e+000  4.1749e-001 54726 75310,75140,75114
 2.0000e+001 75264 -1.1781e+000 -5.9699e+000  1.2422e-001 54726 75310,75114,75088
 2.0000e+001 75241  9.6819e-001 -5.1021e+000 -1.3224e-001 54726 75088,75192,75166
 2.0000e+001 75218 -6.4727e-001 -8.0775e-001  7.2528e-001 54726 75062,75192,75088
 2.0000e+001 75336  2.8101e-001 -6.0602e+000  2.8818e-001 54726 75166,75140,75310
 2.0000e+001 75359 -8.3253e-001 -5.8274e+000  8.0433e-002 54726 75166,75310,75088
 2.0000e+001 75946 -1.7902e-001 -7.2944e-001 -3.0509e-001 54322 75969,75701,75649
 2.0000e+001 75923  3.0688e-001 -4.8594e-001 -3.9660e-001 54322 75969,75649,75623
 2.0000e+001 75900  2.6180e-002 -5.0319e-001 -5.7052e-002 54322 76041,75753,75701
 2.0000e+001 75877 -5.7250e-002 -1.2675e+000 -7.3825e-002 54322 75623,75805,75779
 2.0000e+001 75854 -3.4712e-003 -6.3049e-001  2.3449e-001 54322 75701,75753,75727
 2.0000e+001 75831 -4.5439e-002 -3.1829e-001 -1.3877e-001 54322 75649,75701,75675
 2.0000e+001 75995  1.7350e-001 -5.8575e-001 -1.8120e-001 54322 76041,75701,75969
 2.0000e+001 76018  2.0111e-001 -7.8874e-001 -2.0990e-001 54322 75779,75969,75623
 2.0000e+001 76067 -6.0264e-002 -7.2302e-001 -3.4316e-003 54322 75779,75753,76041
 2.0000e+001 76090  4.2102e-002 -8.8205e-001 -1.2760e-001 54322 75779,76041,75969
 2.0000e+001 76468 -4.2072e-002 -7.8202e-001 -1.1735e-001 53868 76491,76272,76220
 2.0000e+001 76445  7.7402e-002 -8.2569e-001 -3.3320e-002 53868 76491,76220,76324
 2.0000e+001 76422 -8.3851e-002 -1.0688e+000 -1.2486e-001 53868 76220,76272,76246
 2.0000e+001 76399  1.3342e-001 -9.5120e-001 -9.3844e-002 53868 76194,76324,76220
 2.0000e+001 76376  8.6586e-001 -6.5756e-001  9.9308e-002 53868 76194,76350,76324
 2.0000e+001 76517  3.0387e-002 -6.9830e-001 -5.9354e-002 53868 76298,76272,76491
 2.0000e+001 76540  1.4477e-001 -7.6447e-001  1.9281e-002 53868 76298,76491,76324
 2.0000e+001 76690 -2.2899e-003 -9.8325e-001  9.9814e-002 53356 76589,76641,76615
 2.0000e+001 76667 -3.1305e-001 -1.3995e+000 -3.5739e-002 53356 76563,76641,76589
 2.0000e+001 76938  2.0426e-001 -1.0033e-001  2.3393e-001 53009 77105,76961,76765
 2.0000e+001 76915 -2.9457e-001 -2.1705e+000 -5.3067e-001 53009 76961,76713,76843
 2.0000e+001 76892 -2.9183e-001 -1.1915e+000  5.7426e-002 53009 77033,76817,76791
 2.0000e+001 76869  8.2633e-001  1.3463e+000  3.4440e-001 53009 77105,76765,76739
 2.0000e+001 76987 -4.1299e-001 -1.3358e+000 -1.0715e-001 53009 76791,76765,76961
 2.0000e+001 77010 -2.6839e-001 -9.8213e-001 -1.7419e-001 53009 77033,76791,76961
 2.0000e+001 77059  8.0294e-002 -9.9109e-001 -1.2614e-001 53009 76843,76817,77033
 2.0000e+001 77082  3.7120e-002 -9.0211e-001 -3.4197e-001 53009 76843,77033,76961
 2.0000e+001 77131  4.5894e-001 -6.5374e-001 -9.0548e-001 53009 76713,76961,77105
 2.0000e+001 77154  6.7463e-001 -1.6478e-001 -8.5986e-001 53009 76713,77105,76739
 2.0000e+001 77355 -8.0844e-001 -3.3422e+000 -3.7605e-001 52390 77378,77257,77231
 2.0000e+001 77332 -9.7301e-002 -5.4308e+000  2.1105e-001 52390 77378,77231,77179
 2.0000e+001 77309  3.2028e-001 -2.9786e+000  1.0507e+000 52390 77179,77231,77205
 2.0000e+001 77404 -9.9740e-001 -4.9139e+000  5.3494e-001 52390 77283,77257,77378
 2.0000e+001 77427 -5.5401e-001 -7.5394e+000  1.0164e+000 52390 77283,77378,77179
 2.0000e+001 77677 -1.4447e+000  4.3664e-001 -1.6669e+000 51986 77700,77504,77478
 2.0000e+001 77654 -4.3188e-001  1.6940e-001 -1.3320e+000 51986 77700,77478,77452
 2.0000e+001 77631  1.9657e-001  4.5331e-001 -1.4479e+000 51986 77772,77556,77530
 2.0000e+001 77608  3.5120e+000  1.3675e+000 -2.2556e+000 51986 77452,77582,77556
 2.0000e+001 77726 -5.8842e-001  1.0695e+000 -1.1449e+000 51986 77530,77504,77700
 2.0000e+001 77749  1.0598e-001  2.9813e-001 -1.2457e+000 51986 77772,77530,77700
 2.0000e+001 77798 -6.3165e-002  3.0270e-001 -1.2783e+000 51986 77452,77556,77772
 2.0000e+001 77821 -2.0014e-001  2.5903e-001 -1.1051e+000 51986 77452,77772,77700
 2.0000e+001 78282 -1.2028e+000 -2.4755e+000 -5.7758e-002 51738 78008,78138,78060
 2.0000e+001 78259 -6.7500e-001 -2.4077e+000  3.6008e-001 51738 78008,78164,78138
 2.0000e+001 78236 -7.2980e-001 -2.5468e+000  6.4730e-001 51738 78086,78138,78112
 2.0000e+001 78213 -6.0580e-001 -1.4191e+000  3.3751e-001 51738 78060,78138,78086
 2.0000e+001 78190 -3.2386e-001 -4.7086e+000 -6.8296e-001 51738 78008,78060,78034
 2.0000e+001 78432  2.5148e-001 -5.2888e-001  2.2805e-002 51148 78305,78357,78331
 2.0000e+001 78409  1.5817e-001 -4.5733e-001  3.7974e-002 51148 78305,78383,78357
 2.0000e+001 78891 -1.4902e-001 -8.1419e-001 -2.8077e-001 50808 78914,78695,78669
 2.0000e+001 78868 -1.0712e-001 -6.7973e-001 -1.9516e-001 50808 78914,78669,78643
 2.0000e+001 78845 -2.1214e-001 -8.4093e-001 -4.6670e-001 50808 78643,78773,78747
 2.0000e+001 78822 -2.6481e-001 -9.5266e-001 -4.8859e-001 50808 78617,78773,78643
 2.0000e+001 78799 -4.4871e-001 -9.0764e-001 -3.1997e-001 50808 78695,78747,78721
 2.0000e+001 78940 -3.4401e-001 -7.4773e-001 -3.8741e-001 50808 78747,78695,78914
 2.0000e+001 78963 -2.1095e-001 -6.4786e-001 -3.1356e-001 50808 78747,78914,78643
 2.0000e+001 79260  1.2545e-001 -6.7346e-001 -9.1839e-002 50468 79283,79090,79012
 2.0000e+001 79237  4.3484e-001 -7.1108e-001 -1.2333e-002 50468 79283,79012,78986
 2.0000e+001 79214 -1.4648e-001 -7.9445e-001 -1.4345e-001 50468 79012,79090,79038
 2.0000e+001 79191  1.3454e-001 -7.2747e-001  1.8077e-001 50468 78986,79142,79116
 2.0000e+001 79168 -1.2417e-001 -7.9279e-001 -1.5050e-001 50468 79038,79090,79064
 2.0000e+001 79309 -1.6997e-001 -6.4435e-001 -1.0091e-001 50468 79116,79090,79283
 2.0000e+001 79332  2.0214e-001 -6.2446e-001 -7.7431e-004 50468 79116,79283,78986
 2.0000e+001 79889 -3.0942e-001  2.3146e-001 -5.7883e-001 50064 79569,79725,79699
 2.0000e+001 79866  7.5688e-001  1.2029e+000  4.6066e-002 50064 79543,79725,79569
 2.0000e+001 79843 -1.0692e-002 -2.8164e-001 -8.1031e-001 50064 79621,79699,79673
 2.0000e+001 79820  4.4075e-001  7.8179e-001 -6.7849e-001 50064 79595,79699,79621
 2.0000e+001 79797  1.1986e+000  9.4289e-001 -3.8201e-001 50064 79569,79699,79595
 2.0000e+001 79774 -1.1539e+000 -3.8990e-001 -8.7294e-001 50064 79517,79725,79543
 2.0000e+001 79751  3.9566e-001  6.2678e-001 -4.9759e-001 50064 79621,79673,79647
 2.0000e+001 80169  4.3241e-001  1.1577e+000 -4.1581e-001 49724 80019,80097,80071
 2.0000e+001 80146  6.2074e-001  1.0472e+000 -2.9078e-001 49724 79993,80097,80019
 2.0000e+001 80123  5.3380e-001  1.2679e+000 -5.9437e-001 49724 80019,80071,80045
 2.0000e+001 80626  3.9910e-001  2.4939e-001  2.8723e-001 49277 80352,80482,80378
 2.0000e+001 80603 -1.1954e-001  8.8872e-002 -6.8605e-002 49277 80352,80508,80482
 2.0000e+001 80580 -3.6923e-002 -5.5571e-001  4.7503e-002 49277 80378,80482,80456
 2.0000e+001 80557  1.4013e-001 -8.6092e-001  4.0756e-001 49277 80378,80430,80404
 2.0000e+001 80534  1.5468e-001 -4.1174e-001  3.3308e-001 49277 80378,80456,80430
 2.0000e+001 81230  1.9256e+000  8.3243e-002 -4.9777e-002 48716 81253,80835,80809
 2.0000e+001 81207  1.4214e+000 -5.5592e-001  9.0564e-001 48716 81397,81253,80809
 2.0000e+001 81184  6.5994e-001  2.0803e-001  4.7136e-001 48716 81325,80913,80887
 2.0000e+001 81161  9.5730e-002 -3.3444e-001  1.1444e+000 48716 81397,80809,81017
 2.0000e+001 81138  4.2033e-001  2.8795e-001  4.3632e-001 48716 81469,80965,80913
 2.0000e+001 81115  1.9775e-001 -1.5226e-001  2.9075e-001 48716 80835,80887,80861
 2.0000e+001 81092  1.5589e+000  1.5368e-001  1.2838e+000 48716 80809,81043,81017
 2.0000e+001 81069  6.8924e-001  8.3401e-001  7.7130e-001 48716 80913,80965,80939
 2.0000e+001 81279  3.5439e-001 -6.0337e-001  1.0339e-001 48716 80887,80835,81253
 2.0000e+001 81302  8.4781e-001  2.3612e-001  3.2842e-001 48716 81325,80887,81253
 2.0000e+001 81351  6.8339e-001  2.1629e-001  5.3769e-001 48716 81469,80913,81325
 2.0000e+001 81374  5.9848e-001  1.7719e-001  5.4972e-001 48716 80991,81325,81253
 2.0000e+001 81423 -2.9294e-001 -3.7053e-001  8.7439e-001 48716 80991,81253,81397
 2.0000e+001 81446 -1.7137e+000 -2.5666e-001  1.2158e+000 48716 80991,81397,81017
 2.0000e+001 81495  2.3149e-004  2.5557e-001  4.5129e-001 48716 80991,80965,81469
 2.0000e+001 81518  2.1067e-001  1.4391e-001  5.5060e-001 48716 80991,81469,81325
 2.0000e+001 81717 -1.4020e-001 -7.9663e-001  5.9624e-002 48262 81740,81567,81541
 2.0000e+001 81694 -3.1612e-001 -8.2374e-001  1.7263e-002 48262 81740,81541,81645
 2.0000e+001 81671 -2.3324e-001 -7.4240e-001 -3.2460e-002 48262 81567,81619,81593
 2.0000e+001 81766 -2.4800e-001 -7.8301e-001 -4.8392e-002 48262 81619,81567,81740
 2.0000e+001 81789 -4.3159e-001 -8.3535e-001 -1.0193e-001 48262 81619,81740,81645
 2.0000e+001 81939  9.2729e-001  1.2382e-001  1.3413e-001 47957 82034,81962,81864
 2.0000e+001 81916  1.2164e+000  5.1218e-002  4.5829e-001 47957 82166,81962,81838
 2.0000e+001 81988 -1.2159e+000  2.5599e-001 -5.7710e-001 47957 82294,81962,81890
 2.0000e+001 82011  6.9783e-001  1.9704e+000  6.3401e-001 47957 81890,81962,81812
 2.0000e+001 82060  7.8423e-001  9.1696e-002  3.4818e-001 47957 81838,81962,82034
 2.0000e+001 82192  2.2963e+000  5.0337e-001  3.5629e-001 47957 81812,81962,82166
 2.0000e+001 82320 -7.6282e-001  4.9020e-001 -4.9387e-001 47957 81864,81962,82294
 2.0000e+001 82549 -3.1735e-002 -7.8237e-001 -1.8907e-001 47617 82448,82500,82474
 2.0000e+001 82526  2.5654e-001 -1.2339e+000  4.2893e-003 47617 82422,82500,82448
 2.0000e+001 82902 -2.3181e-001 -1.6178e+000  1.8388e-001 47255 82729,82807,82755
 2.0000e+001 82879 -2.3306e-002 -1.8927e+000  3.4435e-001 47255 82703,82807,82729
 2.0000e+001 82856 -8.1254e-001 -1.3736e+000  9.6635e-001 47255 82755,82807,82781
 2.0000e+001 82833  1.1503e+000 -1.3899e+000  4.6248e-001 47255 82677,82807,82703
 2.0000e+001 83182  2.8762e-002 -9.5132e-001 -7.3315e-002 46680 83032,83084,83058
 2.0000e+001 83159  2.5350e-001 -4.8678e-001  5.8141e-003 46680 83205,83084,83032
 2.0000e+001 83136  4.5877e-001 -4.6150e-001 -2.7098e-001 46680 83006,83110,83084
 2.0000e+001 83231 -2.0240e-001 -8.0823e-001 -1.4281e-001 46680 83006,83084,83205
 2.0000e+001 83737 -7.1320e-001 -4.4801e-001 -2.6488e-001 46290 83832,83760,83492
 2.0000e+001 83714 -6.4898e-001 -6.7916e-001 -2.6372e-001 46290 83760,83440,83414
 2.0000e+001 83691 -6.5599e-001 -4.9815e-001 -2.7340e-001 46290 83832,83492,83466
 2.0000e+001 83668 -8.5306e-001 -1.0130e+000 -1.1552e-001 46290 83492,83570,83544
 2.0000e+001 83645 -5.3419e-001 -2.8205e-001 -3.7098e-001 46290 83414,83596,83570
 2.0000e+001 83622 -9.1595e-001 -6.3958e-001  1.7196e-001 46290 83492,83544,83518
 2.0000e+001 83786 -8.5525e-001 -5.8145e-001 -1.6159e-001 46290 83570,83492,83760
 2.0000e+001 83809 -6.3485e-001 -5.4083e-001 -2.1670e-001 46290 83570,83760,83414
 2.0000e+001 83858 -6.0749e-001 -6.2878e-001 -3.0909e-001 46290 83440,83760,83832
 2.0000e+001 83881 -2.7417e-001 -3.4042e-001 -4.3694e-001 46290 83440,83832,83466
 2.0000e+001 84161 -1.7648e-001 -1.0032e+000  3.6156e-001 45829 84011,84063,84037
 2.0000e+001 84138 -1.1901e-002 -6.7400e-001  1.0606e-001 45829 84011,84089,84063
 2.0000e+001 84115 -6.7323e-002 -6.9891e-001  8.2646e-002 45829 83985,84089,84011
 2.0000e+001 84311 -3.7786e-001 -8.1613e-001 -9.8884e-002 45631 84184,84236,84210
 2.0000e+001 84288 -3.9174e-001 -5.5029e-001  1.0608e-001 45631 84184,84262,84236
 2.0000e+001 84657 -1.9525e-001 -5.3135e-001 -3.3549e-002 45155 84680,84490,84412
 2.0000e+001 84634 -2.4928e-001 -5.2336e-001 -3.2025e-002 45155 84680,84412,84360
 2.0000e+001 84611 -2.6580e-001 -5.7541e-001  7.8879e-003 45155 84412,84490,84438
 2.0000e+001 84588 -6.0411e-002 -4.5374e-001 -5.5723e-002 45155 84334,84516,84360
 2.0000e+001 84565 -3.1337e-001 -6.6026e-001 -1.8339e-001 45155 84360,84412,84386
 2.0000e+001 84542 -2.3119e-001 -4.8707e-001  5.6881e-002 45155 84438,84490,84464
 2.0000e+001 84706 -1.6173e-001 -5.3051e-001 -3.9650e-002 45155 84516,84490,84680
 2.0000e+001 84729 -2.0103e-001 -5.1110e-001 -3.9894e-002 45155 84516,84680,84360
 2.0000e+001 85077  1.7649e-001 -2.3030e-002  1.8776e-002 44508 85100,84754,84910
 2.0000e+001 85054  2.2296e-001  2.3491e-001  3.1745e-002 44508 84754,84936,84910
 2.0000e+001 85031  4.3126e-002 -1.8471e-001  1.8813e-001 44508 85100,84910,84884
 2.0000e+001 85008 -6.2490e-002 -1.7551e-001  4.4494e-002 44508 84780,84884,84832
 2.0000e+001 84985  2.1871e-001  3.5957e-001 -1.6101e-001 44508 84780,84832,84806
 2.0000e+001 84962  3.3319e-001  8.6048e-002 -6.8697e-002 44508 84832,84884,84858
 2.0000e+001 85126  6.6926e-002  2.3582e-001 -9.1235e-002 44508 84780,84754,85100
 2.0000e+001 85149 -3.2371e-002  6.8142e-002  6.3954e-002 44508 84780,85100,84884
 2.0000e+001 85482 -7.9713e-001 -1.0829e+000 -7.1920e-002 44104 85335,85387,85361
 2.0000e+001 85459 -6.4319e-001 -1.4327e+000 -5.4015e-002 44104 85309,85387,85335
 2.0000e+001 85436 -3.3916e-001 -1.2800e+000  2.1094e-001 44104 85257,85387,85309
 2.0000e+001 85413 -3.6550e-001 -1.6795e+000  1.0961e-001 44104 85257,85309,85283
 2.0000e+001 85811 -2.0604e-001 -2.9300e-001 -8.5187e-002 43600 85586,85664,85612
 2.0000e+001 85788 -2.6573e-001 -4.4609e-001 -7.6268e-002 43600 85586,85690,85664
 2.0000e+001 85765 -5.3186e-002 -4.5665e-001 -6.1422e-002 43600 85586,85716,85690
 2.0000e+001 85742 -2.0687e-001 -3.4145e-001 -4.5161e-003 43600 85612,85664,85638
 2.0000e+001 86010 -1.5746e-001 -4.9429e-001 -1.7762e-001 43224 85886,85938,85912
 2.0000e+001 85987  6.5685e-004  8.9177e-002 -2.5017e-001 43224 85834,85938,85886
 2.0000e+001 85964 -5.2904e-001 -3.3633e-001 -2.9718e-002 43224 85834,85886,85860
 2.0000e+001 86420  1.2902e+000  1.0218e+000 -1.8290e-001 42820 86195,86299,86221
 2.0000e+001 86397  7.9456e-001  3.7099e-001 -5.4685e-001 42820 86195,86325,86299
 2.0000e+001 86374  1.0814e+000  1.0094e+000 -8.7175e-002 42820 86221,86299,86273
 2.0000e+001 86351  1.0655e+000  7.9246e-001  1.2698e-002 42820 86221,86273,86247
 2.0000e+001 86749  4.0844e-001  2.7784e-001  6.9410e-002 42223 86550,86602,86576
 2.0000e+001 86726  3.1101e-001  9.5973e-002  1.4985e-001 42223 86550,86628,86602
 2.0000e+001 86703 -1.9677e-002 -5.5656e-002  1.0398e-001 42223 86524,86628,86550
 2.0000e+001 86680  1.5375e-001 -4.8520e-002 -4.6740e-002 42223 86524,86654,86628
 2.0000e+001 87078 -6.8020e-003 -2.1652e-001 -4.3610e-002 41883 87173,87101,86905
 2.0000e+001 87055  9.2573e-002  5.6476e-001 -2.7195e-001 41883 87101,86879,86853
 2.0000e+001 87032 -1.8088e-001  3.2697e-002 -1.4353e-001 41883 86853,86983,86931
 2.0000e+001 87009 -2.9083e-001 -3.1483e-001 -8.9691e-002 41883 86931,86983,86957
 2.0000e+001 87127 -1.6017e-002 -2.0867e-001  1.0280e-006 41883 86931,86905,87101
 2.0000e+001 87150 -1.9105e-001 -1.0886e-001 -1.3932e-001 41883 86931,87101,86853
 2.0000e+001 87199 -1.9835e-001 -1.1516e-001 -2.3713e-002 41883 86879,87101,87173
 2.0000e+001 87558  1.6790e-002  1.2539e-001 -4.9813e-002 41471 87382,87460,87408
 2.0000e+001 87535 -3.1442e-001 -1.3446e-001 -1.6780e-001 41471 87382,87486,87460
 2.0000e+001 87512 -1.3167e-001  3.4675e-002 -1.1773e-001 41471 87408,87460,87434
 2.0000e+001 87806  3.9421e-002 -2.2823e-001  1.0563e-001 41017 87829,87607,87581
 2.0000e+001 87783 -1.4459e-002 -3.5191e-001  9.8938e-002 41017 87829,87581,87685
 2.0000e+001 87760  2.0490e-001 -8.8327e-002  4.0968e-003 41017 87581,87711,87685
 2.0000e+001 87737  1.7131e-001 -7.0123e-001  6.1816e-002 41017 87633,87685,87659
 2.0000e+001 87855  6.2972e-002 -2.5992e-001  2.0260e-001 41017 87633,87607,87829
 2.0000e+001 87878  7.9433e-003 -3.8727e-001  1.9779e-001 41017 87633,87829,87685
 2.0000e+001 88258 -2.3572e-001 -5.4287e-001 -1.0439e-001 40613 88281,88036,88010
 2.0000e+001 88235 -4.6860e-002 -6.7472e-001 -1.7835e-001 40613 88281,88010,88088
 2.0000e+001 88212 -1.0573e-001 -7.7088e-001 -1.1912e-001 40613 87984,88088,88010
 2.0000e+001 88189  1.0052e-001 -3.1748e-001 -1.2227e-002 40613 87984,88114,88088
 2.0000e+001 88166 -9.8720e-002 -2.8840e-001 -7.0562e-003 40613 87984,88140,88114
 2.0000e+001 88307 -9.7590e-002 -4.6142e-001 -7.0561e-002 40613 88062,88036,88281
 2.0000e+001 88330  1.2527e-001 -5.9107e-001 -1.4653e-001 40613 88062,88281,88088
 2.0000e+001 88649  9.3559e-002 -9.0672e-001 -1.4967e-001 40095 88375,88505,88401
 2.0000e+001 88626 -2.1773e-001 -6.2360e-001 -3.0644e-001 40095 88375,88531,88505
 2.0000e+001 88603  1.8706e-001 -7.3738e-001 -6.4154e-002 40095 88401,88505,88479
 2.0000e+001 88580  3.4883e-001 -7.3448e-001 -2.1121e-001 40095 88427,88479,88453
 2.0000e+001 88557  1.5517e-001 -4.6470e-001 -8.1551e-002 40095 88401,88479,88427
 2.0000e+001 89078  1.4233e+000  5.5713e-001  2.3823e-001 39897 89101,88833,88807
 2.0000e+001 89055  1.2569e+000  2.7462e-001  8.9076e-002 39897 89101,88807,88911
 2.0000e+001 89032  1.6627e+000  6.7745e-001  2.9787e-001 39897 88781,88911,88807
 2.0000e+001 89009  9.8971e-001  4.7942e-001  3.7511e-001 39897 88781,88937,88911
 2.0000e+001 88986  1.5744e+000  4.7995e-001 -1.6461e-001 39897 88833,88885,88859
 2.0000e+001 88963  1.2982e+000  1.0743e+000  4.9700e-001 39897 88755,88937,88781
 2.0000e+001 89127  1.6147e+000  2.2705e-001 -4.0196e-003 39897 88885,88833,89101
 2.0000e+001 89150  1.2654e+000 -1.9906e-001 -1.9863e-001 39897 88885,89101,88911
 2.0000e+001 89300 -2.9282e-001 -2.5138e-001  4.0899e-002 39607 89453,89323,89199
 2.0000e+001 89277 -3.3130e-001 -1.0613e-001  4.9637e-002 39607 89525,89453,89199
 2.0000e+001 89349 -4.2197e-001 -2.9680e-001  1.2866e-001 39607 89225,89199,89323
 2.0000e+001 89479 -4.3610e-001 -2.4243e-002  7.8980e-002 39607 89251,89323,89453
 2.0000e+001 89502 -2.3046e-001  1.2386e-001  1.6502e-001 39607 89251,89453,89173
 2.0000e+001 89551 -1.0588e-001  2.0479e-002 -3.5984e-003 39607 89173,89453,89525
 2.0000e+001 90264 -6.0230e-001 -8.8683e-001  3.1259e-002 39039 89996,90074,90048
 2.0000e+001 90241 -4.2452e-001 -1.7963e-001  3.5016e-002 39039 89918,90074,89996
 2.0000e+001 90218 -5.7479e-001 -6.4147e-001  7.9552e-002 39039 89918,89996,89944
 2.0000e+001 90195 -9.1709e-001 -4.2156e-001 -4.4640e-002 39039 89892,90074,89918
 2.0000e+001 90172 -2.2129e-001 -8.6541e-001  5.2631e-003 39039 89996,90048,90022
 2.0000e+001 90149 -1.0268e+000  6.1451e-001 -1.7718e-001 39039 89892,90100,90074
 2.0000e+001 90126 -8.7114e-001 -7.7264e-001  1.5929e-001 39039 89944,89996,89970
 2.0000e+001 90770 -2.1343e-001 -4.0427e-001 -9.7821e-003 38635 90473,90603,90577
 2.0000e+001 90747 -2.0050e-001 -3.9290e-001 -2.2873e-002 38635 90447,90603,90473
 2.0000e+001 90724 -2.0888e-001 -4.5120e-001 -3.0421e-003 38635 90499,90577,90551
 2.0000e+001 90701 -2.5690e-001 -4.7828e-001  1.0648e-002 38635 90473,90577,90499
 2.0000e+001 90678 -2.0194e-001 -5.4655e-001  4.8541e-003 38635 90499,90551,90525
 2.0000e+001 90655 -3.0452e-001 -4.6810e-001  1.9077e-002 38635 90447,90629,90603
 2.0000e+001 90871 -1.5042e-001 -4.1696e-001 -8.8319e-002 38231 90793,90845,90819
 2.0000e+001 91458 -2.7700e-001 -2.7159e-001 -3.9636e-002 37534 91161,91317,91291
 2.0000e+001 91435 -3.7242e-001 -2.6271e-001 -2.1914e-002 37534 91135,91317,91161
 2.0000e+001 91412 -4.8661e-001 -8.2327e-001 -6.5199e-004 37534 91187,91291,91239
 2.0000e+001 91389 -3.2852e-001 -7.6575e-001  3.8023e-002 37534 91161,91291,91187
 2.0000e+001 91366 -3.5973e-001 -7.9648e-001  2.0092e-002 37534 91239,91291,91265
 2.0000e+001 91343 -2.2336e-001 -8.2123e-001 -1.1375e-001 37534 91187,91239,91213
 2.0000e+001 91915 -3.9496e-001 -7.5262e-001  1.7235e-001 37080 91938,91745,91667
 2.0000e+001 91892 -1.7855e-001 -7.6085e-001  3.9490e-002 37080 91938,91667,91797
 2.0000e+001 91869 -7.2097e-002 -3.6290e-001  4.5035e-002 37080 91641,91797,91667
 2.0000e+001 91846 -3.9933e-001 -9.3908e-001  8.6865e-002 37080 91667,91719,91693
 2.0000e+001 91823 -3.3038e-001 -7.4308e-001  1.6722e-001 37080 91667,91745,91719
 2.0000e+001 91964 -5.5012e-001 -9.4751e-001  3.7045e-001 37080 91771,91745,91938
 2.0000e+001 91987 -3.0428e-001 -8.0770e-001  2.0817e-001 37080 91771,91938,91797
 2.0000e+001 92235 -3.2719e-001 -4.1899e-001 -1.1334e-002 36397 92036,92088,92062
 2.0000e+001 92212 -2.5822e-001 -3.8594e-001 -3.9030e-002 36397 92036,92114,92088
 2.0000e+001 92189 -1.6293e-001 -3.2413e-001 -1.9939e-003 36397 92036,92140,92114
 2.0000e+001 92166 -2.1574e-001 -4.1214e-001 -3.2389e-002 36397 92010,92140,92036
 2.0000e+001 92694  6.0233e-002 -2.5555e-001 -7.8135e-002 36057 92446,92498,92472
 2.0000e+001 92671 -3.2840e-002 -3.9094e-001 -1.4989e-001 36057 92446,92550,92498
 2.0000e+001 92648 -2.4294e-001 -8.2427e-001 -4.1738e-002 36057 92446,92576,92550
 2.0000e+001 92625 -1.6826e-002 -5.2194e-001 -3.6757e-001 36057 92420,92576,92446
 2.0000e+001 92602 -5.8210e-003 -3.8135e-002  2.3748e-001 36057 92498,92550,92524
 2.0000e+001 93023 -3.1691e-001 -3.4108e-001 -2.6463e-002 35717 92876,92928,92902
 2.0000e+001 93000 -2.6531e-001 -3.6792e-001 -3.6338e-002 35717 92824,92928,92876
 2.0000e+001 92977 -2.2499e-001 -3.9398e-001  3.3238e-003 35717 92798,92928,92824
 2.0000e+001 92954 -2.6333e-001 -4.3292e-001 -1.3582e-001 35717 92824,92876,92850
 2.0000e+001 93499  1.9168e-001 -2.4290e-001  2.8735e-001 35405 93522,93309,93257
 2.0000e+001 93476  1.6416e-001 -2.8705e-001  2.9947e-001 35405 93666,93522,93257
 2.0000e+001 93453  3.4198e-001 -5.2731e-001  3.2514e-001 35405 93594,93127,93335
 2.0000e+001 93430  2.2267e-001 -3.4380e-001  3.7633e-001 35405 93666,93257,93231
 2.0000e+001 93407  5.2137e-001 -6.6042e-001  4.3428e-001 35405 93127,93179,93153
 2.0000e+001 93384  2.1020e-001 -4.3674e-001  3.5803e-001 35405 93179,93231,93205
 2.0000e+001 93361  3.3173e-001  4.6078e-001  1.4775e-001 35405 93257,93309,93283
 2.0000e+001 93548  1.5393e-001 -2.6343e-001  2.7454e-001 35405 93335,93309,93522
 2.0000e+001 93571  1.4996e-001 -2.8891e-001  3.0844e-001 35405 93594,93335,93522
 2.0000e+001 93620  6.0378e-001 -3.2559e-001  2.2475e-001 35405 93179,93127,93594
 2.0000e+001 93643  2.9527e-001 -2.0045e-001  2.7099e-001 35405 93738,93594,93522
 2.0000e+001 93692  1.9791e-001 -2.0677e-001  3.1575e-001 35405 93738,93522,93666
 2.0000e+001 93715  2.3999e-001 -2.1484e-001  3.5284e-001 35405 93179,93666,93231
 2.0000e+001 93764  3.2079e-001 -1.5879e-001  2.1787e-001 35405 93179,93594,93738
 2.0000e+001 93787  2.8867e-001 -1.3556e-001  2.6213e-001 35405 93179,93738,93666
 2.0000e+001 94372  9.2806e-001 -2.9542e-001 -9.7382e-002 34951 94395,94127,94075
 2.0000e+001 94349  1.0849e+000 -4.2107e-001  4.2082e-002 34951 94395,94075,94231
 2.0000e+001 94326  1.9206e+000 -6.3991e-001 -7.7286e-001 34951 94049,94231,94075
 2.0000e+001 94303  1.2810e+000  5.9833e-001 -1.8559e-001 34951 94075,94127,94101
 2.0000e+001 94280  1.1627e+000  8.4054e-001  5.0656e-001 34951 94127,94205,94153
 2.0000e+001 94257  5.8906e-001 -4.5116e-001  3.8494e-001 34951 94153,94205,94179
 2.0000e+001 94421  1.0326e+000 -1.6104e-001 -4.7142e-002 34951 94205,94127,94395
 2.0000e+001 94444  1.2577e+000 -2.2458e-001  1.1516e-001 34951 94205,94395,94231
 2.0000e+001 94692 -3.1713e-002 -4.1600e-001 -1.2571e-001 34397 94715,94519,94467
 2.0000e+001 94669  9.0994e-002 -4.0024e-001 -2.0628e-001 34397 94715,94467,94597
 2.0000e+001 94646  5.0227e-002 -1.7600e-001 -3.3725e-001 34397 94545,94597,94571
 2.0000e+001 94623 -1.7226e-001 -7.9376e-001 -1.7928e-002 34397 94467,94519,94493
 2.0000e+001 94741  1.8279e-001 -5.2714e-001 -6.2257e-002 34397 94545,94519,94715
 2.0000e+001 94764  2.3273e-001 -4.6323e-001 -2.2648e-001 34397 94545,94715,94597
 2.0000e+001 94985 -1.3390e-001 -7.5678e-001 -2.6212e-002 33985 94835,94913,94887
 2.0000e+001 94962 -7.2660e-001 -2.2239e+000  7.8003e-002 33985 94809,94913,94835
 2.0000e+001 94939 -1.1245e-001 -6.6040e-001 -6.0454e-002 33985 94835,94887,94861
 2.0000e+001 95186 -1.0964e-001 -5.3431e-001 -1.9711e-001 33645 95281,95209,95036
 2.0000e+001 95163  2.1167e-001 -5.7838e-001  4.4156e-002 33645 95209,95010,95088
 2.0000e+001 95140  2.0223e-001 -3.3780e-001  1.4347e-002 33645 95010,95114,95088
 2.0000e+001 95235 -3.5610e-001 -6.6836e-001 -2.5886e-001 33645 95062,95036,95209
 2.0000e+001 95258 -2.4514e-001 -7.5760e-001  2.3912e-001 33645 95413,95209,95088
 2.0000e+001 95307  1.2112e-001 -7.0095e-002 -3.5707e-001 33645 95010,95209,95281
 2.0000e+001 95439 -2.1808e-002 -5.3547e-001  1.4920e-001 33645 95062,95209,95413
 2.0000e+001 95766 -3.1377e-001 -9.3605e-002 -2.5337e-001 33141 95789,95593,95567
 2.0000e+001 95743 -1.2765e-001 -2.2302e-001 -6.7076e-002 33141 95861,95789,95567
 2.0000e+001 95720 -1.4032e-001 -1.9606e-001 -1.5969e-002 33141 95861,95567,95671
 2.0000e+001 95697 -1.1322e-001 -2.6474e-001 -3.5812e-002 33141 95541,95671,95567
 2.0000e+001 95815 -1.6263e-001  2.5856e-001 -2.1339e-001 33141 95619,95593,95789
 2.0000e+001 95838 -8.3462e-002 -5.7121e-002 -6.0879e-002 33141 95619,95789,95645
 2.0000e+001 95887 -8.5715e-002 -1.3175e-001 -7.7832e-002 33141 95645,95789,95861
 2.0000e+001 95910 -1.0528e-001 -1.0785e-001 -2.0090e-002 33141 95645,95861,95671
 2.0000e+001 96060 -3.3696e-001 -2.9803e-001 -9.8427e-002 32487 95959,96011,95985
 2.0000e+001 96037 -2.1528e-001 -2.6769e-001 -2.4491e-002 32487 95933,96011,95959
 2.0000e+001 96570 -4.5926e-001 -5.1136e-001  4.0130e-001 32033 96665,96593,96377
 2.0000e+001 96547 -4.6422e-001 -6.3699e-001  1.5546e-001 32033 96737,96593,96325
 2.0000e+001 96524 -4.8466e-001 -6.2671e-001  3.1482e-001 32033 96665,96377,96351
 2.0000e+001 96501 -5.5210e-001 -9.4624e-001  1.4373e-001 32033 96737,96325,96299
 2.0000e+001 96478 -4.4887e-001 -1.3569e-001  2.0312e-001 32033 96247,96429,96299
 2.0000e+001 96455 -8.4513e-001 -1.1601e+000  2.5040e-001 32033 96247,96299,96273
 2.0000e+001 96619 -3.1806e-001 -3.8849e-001  4.7469e-001 32033 96809,96593,96403
 2.0000e+001 96642 -1.7463e-001 -1.1065e-002  1.0195e-001 32033 96403,96593,96429
 2.0000e+001 96691 -2.9255e-001 -7.8472e-001  2.8218e-001 32033 96325,96593,96665
 2.0000e+001 96714 -4.3379e-001 -9.9316e-001  1.6850e-001 32033 96325,96665,96351
 2.0000e+001 96763 -5.3461e-001 -5.0141e-001  2.9741e-001 32033 96429,96593,96737
 2.0000e+001 96786 -5.7060e-001 -6.7385e-001  2.4683e-001 32033 96429,96737,96299
 2.0000e+001 96835 -2.4682e-001 -4.4579e-001  4.4288e-001 32033 96377,96593,96809
 2.0000e+001 97064 -8.5698e-002 -7.2412e-001 -6.4555e-002 31671 97087,96989,96963
 2.0000e+001 97041 -1.7544e-001 -8.6205e-001  2.1660e-001 31671 97087,96963,96937
 2.0000e+001 97113  1.8963e-001 -8.5506e-001 -2.1347e-001 31671 97159,97087,97015
 2.0000e+001 97136 -4.7746e-001 -1.2080e+000 -3.5121e-001 31671 97015,97087,96937
 2.0000e+001 97185  3.1182e-002 -6.4343e-002 -2.9682e-001 31671 96989,97087,97159
 2.0000e+001 97563 -5.4008e-002 -7.6528e-001 -2.0896e-001 31117 97586,97367,97341
 2.0000e+001 97540 -4.7309e-002 -5.8129e-001 -6.1257e-002 31117 97658,97586,97341
 2.0000e+001 97517 -3.0383e-003 -6.4081e-001 -4.3929e-002 31117 97658,97341,97315
 2.0000e+001 97494 -1.3050e-001 -7.6801e-001 -6.6717e-002 31117 97289,97445,97315
 2.0000e+001 97471 -1.0420e+000 -1.6323e+000 -1.1391e+000 31117 97367,97419,97393
 2.0000e+001 97612  1.7801e-001 -2.1910e-001 -3.4304e-001 31117 97419,97367,97586
 2.0000e+001 97635 -6.5433e-002 -5.5669e-001 -2.3879e-002 31117 97419,97586,97445
 2.0000e+001 97684 -1.0062e-001 -6.3718e-001 -3.7371e-002 31117 97445,97586,97658
 2.0000e+001 97707 -5.2572e-002 -6.9575e-001 -2.1439e-002 31117 97445,97658,97315
 2.0000e+001 98215 -2.5691e-002 -9.3368e-002 -7.8672e-002 30563 98238,97996,97944
 2.0000e+001 98192 -1.5486e-001 -1.3025e-002 -6.2805e-002 30563 98310,98238,97944
 2.0000e+001 98169 -2.8053e-001 -1.7071e-001 -1.3915e-001 30563 98310,97944,97918
 2.0000e+001 98146  5.6622e-002  1.3623e-002  5.6810e-002 30563 97892,98074,97918
 2.0000e+001 98123  6.5748e-002  3.3472e-002  7.2859e-002 30563 97996,98048,98022
 2.0000e+001 98100 -2.2640e-001 -1.4752e-001 -1.1352e-001 30563 97944,97996,97970
 2.0000e+001 98264 -7.2704e-002  2.4724e-002 -4.2422e-002 30563 98048,97996,98238
 2.0000e+001 98287  5.3292e-002  2.8998e-001  1.6321e-001 30563 98048,98238,98074
 2.0000e+001 98336 -4.3419e-002 -5.5884e-002  5.9393e-002 30563 98074,98238,98310
 2.0000e+001 98359 -1.2142e-001 -8.6145e-002  7.4367e-003 30563 98074,98310,97918
 2.0000e+001 98607 -4.0078e-001 -6.1500e-002  2.3429e-002 30073 98630,98460,98408
 2.0000e+001 98584 -5.5836e-001 -1.1205e-001 -1.1802e-002 30073 98630,98408,98382
 2.0000e+001 98561 -2.5651e-001 -8.5981e-002 -4.8378e-002 30073 98382,98512,98486
 2.0000e+001 98538 -2.8211e-001 -1.0055e-001  1.0702e-001 30073 98408,98460,98434
 2.0000e+001 98656 -3.1429e-001 -1.4659e-001 -9.2993e-003 30073 98486,98460,98630
 2.0000e+001 98679 -4.1797e-001 -1.5544e-001 -3.7322e-002 30073 98486,98630,98382
 2.0000e+001 99157  5.4124e-001 -6.3551e-001  4.7375e-002 29669 99180,98837,98811
 2.0000e+001 99134  2.6826e-001 -6.6676e-001  3.5281e-001 29669 99324,99180,98811
 2.0000e+001 99111 -3.6072e-001 -8.5710e-001  1.2363e-001 29669 99252,98863,98837
 2.0000e+001 99088  3.6080e-001 -6.6073e-001  3.3924e-001 29669 99324,98811,98993
 2.0000e+001 99065  5.9906e-001 -7.4841e-001 -8.3484e-002 29669 98863,98941,98915
 2.0000e+001 99042 -5.1003e-001 -8.3398e-001 -2.1558e-001 29669 98863,98915,98889
 2.0000e+001 99019  3.7846e-001 -6.4247e-001  3.9751e-001 29669 98785,98993,98811
 2.0000e+001 99206 -5.0156e-002 -8.9248e-001  1.1091e-001 29669 99252,98837,99180
 2.0000e+001 99229  1.7520e-002 -8.2936e-001  4.0989e-001 29669 98941,99180,98967
 2.0000e+001 99278  4.4697e-003 -8.9877e-001  1.6214e-001 29669 98941,98863,99252
 2.0000e+001 99301  3.4802e-001 -8.8200e-001  2.1615e-001 29669 98941,99252,99180
 2.0000e+001 99350  3.7321e-001 -6.7888e-001  3.9556e-001 29669 98967,99180,99324
 2.0000e+001 99373  4.2747e-001 -7.0072e-001  3.8915e-001 29669 98967,99324,98993
 2.0000e+001 99958  5.2524e-001 -2.9930e-001 -1.9774e-001 29051 99981,99765,99739
 2.0000e+001 99935  4.7086e-001 -3.1925e-001 -2.2440e-001 29051 99981,99739,99661
 2.0000e+001 99912  6.9047e-002 -1.5579e+000 -3.3682e-001 29051 99765,99817,99791
 2.0000e+001 99889  6.3261e-001 -7.7189e-001 -1.0665e+000 29051 99635,99817,99661
 2.0000e+001 99866  5.4273e-001  7.0757e-003 -2.1450e-001 29051 99661,99739,99687
 2.0000e+001 99843  4.9321e-001 -1.6475e-001 -7.7489e-002 29051 99687,99739,99713
 2.0000e+001 100007  5.6405e-001 -3.2828e-001 -2.0097e-001 29051 99817,99765,99981
 2.0000e+001 100030  5.2272e-001 -3.2902e-001 -2.1715e-001 29051 99817,99981,99661
 2.0000e+001 100278  3.0082e-002 -1.0239e+000  3.6318e-001 28525 100445,100301,100131
 2.0000e+001 100255 -2.8106e-002 -4.2064e-001  3.2750e-001 28525 100373,100301,100079
 2.0000e+001 100232  1.9106e-002 -5.8970e-001  3.9415e-001 28525 100373,100079,100053
 2.0000e+001 100209 -1.2175e-001 -9.9357e-001  3.0929e-001 28525 100445,100131,100105
 2.0000e+001 100327 -1.5688e-001 -8.0136e-001  4.6625e-001 28525 100517,100301,100157
 2.0000e+001 100350  7.4808e-002  8.8689e-002  6.2195e-001 28525 100157,100301,100183
 2.0000e+001 100399 -1.3861e-001 -5.8223e-001  4.0281e-001 28525 100183,100301,100373
 2.0000e+001 100422 -4.5470e-002 -7.0595e-001  4.5964e-001 28525 100183,100373,100053
 2.0000e+001 100471 -1.7169e-001 -8.8614e-001  4.1766e-002 28525 100079,100301,100445
 2.0000e+001 100494 -6.6443e-001 -1.0558e+000  6.2937e-003 28525 100079,100445,100105
 2.0000e+001 100543  4.6575e-001 -3.5127e-001  1.7054e-001 28525 100131,100301,100517
 2.0000e+001 101209 -9.6417e-001 -6.4502e-001  4.6527e-002 28185 100938,101016,100990
 2.0000e+001 101186 -9.9505e-001 -3.5627e-001  2.3648e-001 28185 100912,101016,100938
 2.0000e+001 101163 -5.1117e-001 -2.1253e-001  3.0731e-001 28185 100912,101068,101016
 2.0000e+001 101140 -5.4703e-001  1.4575e-001  4.1227e-001 28185 100886,101068,100912
 2.0000e+001 101117 -5.6924e-001  8.7850e-002  4.1666e-001 28185 101016,101068,101042
 2.0000e+001 101094 -1.3183e+000 -5.2910e-001 -1.5764e-001 28185 100938,100990,100964
 2.0000e+001 101408  9.5661e-004 -1.5577e-001 -4.5915e-002 27781 101503,101431,101310
 2.0000e+001 101385 -2.8615e-001  9.6073e-002 -2.8718e-001 27781 101431,101258,101232
 2.0000e+001 101362  2.6653e-002 -1.8634e-001 -7.1244e-002 27781 101503,101310,101284
 2.0000e+001 101457  5.1158e-001  1.0066e-001 -1.3217e-001 27781 101336,101310,101431
 2.0000e+001 101480  9.9832e-002  2.9238e-001 -3.8448e-001 27781 101575,101431,101232
 2.0000e+001 101529  1.7825e-001 -9.6898e-002 -2.3059e-001 27781 101258,101431,101503
 2.0000e+001 101552  4.0202e-002 -2.7735e-001 -9.1458e-002 27781 101705,101503,101284
 2.0000e+001 101601  1.7260e-001  4.3476e-001 -4.0994e-001 27781 101336,101431,101575
 2.0000e+001 101731 -1.7320e-001 -2.4972e-001 -2.1221e-001 27781 101258,101503,101705
 2.0000e+001 102237 -3.7002e-001 -2.0305e-001  6.3253e-002 27419 102476,102260,101992
 2.0000e+001 102214 -2.4093e-001 -3.1410e-001  2.7580e-002 27419 102260,101940,101914
 2.0000e+001 102191 -4.5887e-001 -3.5069e-001  6.5129e-002 27419 102404,102332,102096
 2.0000e+001 102168 -3.9728e-001 -3.4180e-001  2.1299e-003 27419 102404,102096,102044
 2.0000e+001 102145 -3.4983e-001 -2.2007e-001  7.6081e-002 27419 102476,101992,101966
 2.0000e+001 102122 -3.0475e-001 -3.1688e-001 -1.7484e-002 27419 102044,102096,102070
 2.0000e+001 102286 -4.8599e-001 -3.2409e-001  1.1548e-001 27419 102018,101992,102260
 2.0000e+001 102309 -4.0141e-001 -2.7793e-001  3.7665e-002 27419 102332,102018,102260
 2.0000e+001 102358 -4.4370e-001 -5.0442e-001  1.6141e-001 27419 101914,102096,102332
 2.0000e+001 102381 -3.3770e-001 -3.7560e-001  7.3700e-002 27419 101914,102332,102260
 2.0000e+001 102430 -3.2792e-001 -3.1845e-001  2.5789e-002 27419 102018,102332,102404
 2.0000e+001 102453 -2.8731e-001 -3.0503e-001 -4.3739e-002 27419 102018,102404,102044
 2.0000e+001 102502 -2.9416e-001 -2.9273e-001  7.9620e-002 27419 101940,102260,102476
 2.0000e+001 102525  4.8523e-002 -1.1671e-001  1.5531e-002 27419 101940,102476,101966
 2.0000e+001 103031 -8.3227e-003 -1.9399e-001 -8.0013e-002 26715 102708,102786,102760
 2.0000e+001 103008  1.4268e-001 -1.3818e+000 -2.6031e-001 26715 102708,102890,102786
 2.0000e+001 102985  8.5599e-001 -1.3792e+000  1.3368e-002 26715 102838,102890,102864
 2.0000e+001 102962  6.2401e-001 -6.0095e-001 -1.1630e-002 26715 102786,102890,102838
 2.0000e+001 102939  1.4446e+000 -1.5667e-001  7.3586e-001 26715 102786,102838,102812
 2.0000e+001 102916 -2.7441e-001 -9.0453e-001 -4.1162e-002 26715 102708,102760,102734
 2.0000e+001 103279  1.1118e-001 -8.8833e-001 -6.7732e-002 26303 103302,103158,103080
 2.0000e+001 103256  4.8427e-002 -8.5158e-001 -6.9110e-002 26303 103302,103080,103054
 2.0000e+001 103233  1.4948e-001 -8.5926e-001 -3.4892e-002 26303 103080,103158,103106
 2.0000e+001 103210  6.2656e-001 -1.1757e+000 -3.3968e-001 26303 103106,103158,103132
 2.0000e+001 103328  2.2480e-001 -8.5370e-001 -8.3659e-002 26303 103184,103158,103302
 2.0000e+001 103351  1.0317e-001 -8.6113e-001 -7.8621e-002 26303 103184,103302,103054
 2.0000e+001 103501 -4.2377e-001 -3.7233e-001  3.3093e-002 25849 103374,103426,103400
 2.0000e+001 103478 -3.7933e-001 -2.4707e-001  1.4633e-002 25849 103374,103452,103426
 2.0000e+001 104090 -1.0695e-002 -1.6318e-001  1.0363e-001 25445 103793,103871,103819
 2.0000e+001 104067  1.1511e-001 -7.9576e-002  4.9427e-002 25445 103793,103949,103871
 2.0000e+001 104044  1.7383e-001 -5.5103e-002  1.2804e-001 25445 103871,103949,103923
 2.0000e+001 104021 -1.0892e-001 -9.0575e-002 -9.7434e-002 25445 103819,103871,103845
 2.0000e+001 103998  1.6430e-001 -1.5146e-003  1.5974e-001 25445 103767,103949,103793
 2.0000e+001 103975  1.9729e-001 -5.1338e-002  1.3173e-001 25445 103871,103923,103897
 2.0000e+001 104419 -1.8751e-001 -1.2459e-001 -6.1040e-002 25083 104220,104298,104272
 2.0000e+001 104396 -3.5404e-001 -3.0531e-001  8.5869e-003 25083 104220,104324,104298
 2.0000e+001 104373 -1.4300e-001 -1.0445e-001 -2.8059e-002 25083 104220,104272,104246
 2.0000e+001 104350 -3.7384e-001 -3.0775e-001  5.7398e-003 25083 104194,104324,104220
 2.0000e+001 105102 -4.9350e-002 -2.0504e-001  1.0952e-001 24793 104785,104863,104837
 2.0000e+001 105079 -5.9048e-002 -3.3332e-001 -1.8640e-002 24793 104759,104863,104785
 2.0000e+001 105056 -7.5654e-002 -1.2343e-001 -1.6682e-002 24793 104759,104915,104863
 2.0000e+001 105033 -7.9450e-002 -3.0566e-001 -5.3821e-002 24793 104733,104915,104759
 2.0000e+001 105010  1.0719e-001 -5.4555e-002  2.5918e-002 24793 104863,104915,104889
 2.0000e+001 104987 -1.8095e-001 -8.5395e-002 -1.4730e-001 24793 104681,104915,104733
 2.0000e+001 104964 -1.1670e-001 -2.4781e-001  7.1889e-002 24793 104785,104837,104811
 2.0000e+001 104941 -1.4424e-001  5.9907e-002 -1.4135e-001 24793 104681,104733,104707
 2.0000e+001 105252  2.5992e-001 -6.7746e-001  4.5077e-002 24389 105477,105275,105177
 2.0000e+001 105229 -7.6291e-001 -1.2371e+000  4.9706e-001 24389 105347,105275,105151
 2.0000e+001 105301  9.3916e-002 -8.9973e-001  1.1799e-001 24389 105203,105177,105275
 2.0000e+001 105324  7.0933e-001  1.1421e-001  6.0571e-001 24389 105203,105275,105125
 2.0000e+001 105373  3.3286e-001 -3.4302e-001  9.8256e-002 24389 105125,105275,105347
 2.0000e+001 105503 -2.2724e-001 -1.6851e+000 -1.0218e-001 24389 105151,105275,105477
 2.0000e+001 106088 -5.0890e-001 -8.6891e-002  1.9099e-001 23735 105791,105921,105895
 2.0000e+001 106065 -8.8133e-001 -1.1754e-001  3.9520e-001 23735 105765,105921,105791
 2.0000e+001 106042 -7.0767e-001  2.7396e-001  2.3426e-001 23735 105765,105947,105921
 2.0000e+001 106019 -1.1941e+000 -4.8684e-001  2.4901e-001 23735 105817,105895,105869
 2.0000e+001 105996 -7.7997e-001 -3.0632e-001  2.8566e-001 23735 105791,105895,105817
 2.0000e+001 105973 -9.5228e-001 -5.8563e-001  2.5455e-001 23735 105817,105869,105843
 2.0000e+001 106417  1.8120e-001  4.8348e-001 -3.2515e-002 23295 106218,106296,106270
 2.0000e+001 106394  1.3537e-001  1.0572e-001 -4.5427e-002 23295 106218,106322,106296
 2.0000e+001 106371 -3.0008e-002  3.0339e-002 -1.2334e-001 23295 106218,106270,106244
 2.0000e+001 106348  2.8872e-001  1.7125e-001  3.9797e-002 23295 106192,106322,106218
 2.0000e+001 106746 -2.8191e-001 -1.5608e-001  2.3796e-001 23005 106521,106599,106547
 2.0000e+001 106723 -9.7787e-002  2.9339e-001  1.1434e-001 23005 106521,106651,106599
 2.0000e+001 106700 -7.5526e-002 -5.2697e-001 -2.5950e-001 23005 106547,106599,106573
 2.0000e+001 106677  1.2908e-002  3.7131e-001  2.9347e-001 23005 106599,106651,106625
 2.0000e+001 107331 -9.5789e-002 -1.2009e+000 -6.4928e-002 22601 107060,107190,107138
 2.0000e+001 107308 -3.7019e-001 -1.5450e+000 -1.8397e-001 22601 107034,107190,107060
 2.0000e+001 107285  4.6538e-001 -9.2187e-001  8.4390e-002 22601 107060,107138,107112
 2.0000e+001 107262 -2.4259e-001 -1.6456e+000 -4.2581e-001 22601 107008,107190,107034
 2.0000e+001 107239 -1.7388e-001 -9.5613e-001  1.4064e-001 22601 107060,107112,107086
 2.0000e+001 107216 -1.7961e-002 -2.1065e+000 -1.8290e-001 22601 107138,107190,107164
 2.0000e+001 107807 -2.5978e-001  1.9852e-002 -1.2210e-002 22031 107974,107902,107617
 2.0000e+001 107784 -2.7392e-001  1.0909e-001 -7.0992e-002 22031 107830,107565,107513
 2.0000e+001 107761 -1.4214e-001 -5.7794e-003 -7.5308e-002 22031 108046,107830,107513
 2.0000e+001 107738 -2.0443e-001  1.2825e-001  2.1876e-002 22031 107974,107617,107591
 2.0000e+001 107715 -1.5693e-001 -5.3825e-002 -6.3663e-002 22031 108046,107513,107461
 2.0000e+001 107692 -5.4881e-001  2.0397e-001 -1.4741e-001 22031 107513,107565,107539
 2.0000e+001 107669 -4.3324e-002  9.5833e-002 -1.2609e-001 22031 107461,107513,107487
 2.0000e+001 107856 -3.2068e-001  8.5621e-002 -3.0265e-002 22031 107902,107565,107830
 2.0000e+001 107879 -2.1225e-001 -9.2961e-002  4.1474e-002 22031 107643,107830,107435
 2.0000e+001 107928 -5.2918e-001  1.3358e-001 -1.9388e-001 22031 107643,107617,107902
 2.0000e+001 107951 -3.5173e-001  5.6887e-002  5.6281e-002 22031 107643,107902,107830
 2.0000e+001 108000 -2.8684e-001  1.7433e-001 -3.5248e-002 22031 107565,107902,107974
 2.0000e+001 108023 -2.8724e-001  1.4993e-001 -3.1329e-002 22031 107565,107974,107591
 2.0000e+001 108072 -1.2458e-001 -6.7708e-002 -7.9903e-003 22031 107435,107830,108046
 2.0000e+001 108095 -1.5551e-001 -1.4414e-001  3.8022e-003 22031 107435,108046,107461
 2.0000e+001 108196  8.0482e-002 -8.9838e-001 -3.8661e-002 21783 108118,108170,108144
 2.0000e+001 108655  5.0223e-002 -8.6066e-001  8.0224e-002 21379 108407,108485,108459
 2.0000e+001 108632  6.8136e-001 -9.5835e-001  7.1296e-002 21379 108407,108511,108485
 2.0000e+001 108609  9.2196e-001 -7.1050e-001  2.5902e-001 21379 108381,108511,108407
 2.0000e+001 108586 -3.0694e-001 -1.0922e+000  2.3794e-001 21379 108381,108537,108511
 2.0000e+001 108563  2.1944e-001 -1.3045e+000 -7.6145e-002 21379 108407,108459,108433
 2.0000e+001 109082  2.9599e-001 -9.8914e-001 -4.3894e-002 20974 109105,108863,108811
 2.0000e+001 109059  1.4798e-001 -1.0732e+000  8.4286e-002 20974 109105,108811,108759
 2.0000e+001 109036  1.2227e-001 -6.5351e-001 -3.0528e-001 20974 109177,108889,108863
 2.0000e+001 109013 -9.4406e-002 -8.7277e-001  6.3150e-002 20974 108811,108863,108837
 2.0000e+001 108990  6.4365e-001 -7.9927e-001  5.2747e-002 20974 108759,108941,108915
 2.0000e+001 108967  9.9600e-002 -9.4032e-001 -5.0523e-003 20974 108759,108811,108785
 2.0000e+001 109131  3.7667e-001 -8.4613e-001 -1.2208e-001 20974 109177,108863,109105
 2.0000e+001 109154  2.1680e-001 -8.9285e-001  6.3020e-002 20974 108915,109105,108759
 2.0000e+001 109203 -2.2317e-001 -8.2414e-001 -2.4955e-001 20974 108915,108889,109177
 2.0000e+001 109226 -4.2300e-003 -1.0715e+000 -2.5846e-002 20974 108915,109177,109105
 2.0000e+001 109496 -4.0781e-001  1.4925e-002 -3.0753e-002 20470 109271,109375,109297
 2.0000e+001 109473 -3.8737e-001  6.7854e-002 -5.7567e-002 20470 109271,109401,109375
 2.0000e+001 109450 -4.9186e-001 -9.4872e-002 -7.0276e-002 20470 109297,109375,109349
 2.0000e+001 109427 -6.8103e-001 -4.5950e-001  1.2860e-001 20470 109297,109349,109323
 2.0000e+001 109955 -1.0617e-001  1.6863e-001  3.0333e-001 20123 110050,109733,109707
 2.0000e+001 109932 -3.2063e-001  1.2712e-001  3.0435e-001 20123 110050,109707,109681
 2.0000e+001 109909 -5.8582e-002 -5.3992e-002  2.4617e-001 20123 109978,109759,109733
 2.0000e+001 109886 -1.2064e-001 -1.6945e-002  2.6508e-001 20123 110122,109978,109733
 2.0000e+001 109863 -4.3505e-002 -2.7297e-002  2.2053e-001 20123 109785,109837,109811
 2.0000e+001 110004 -3.1858e-002  2.1983e-002  2.1562e-001 20123 109785,109759,109978
 2.0000e+001 110027 -7.0105e-002  6.6597e-003  2.1573e-001 20123 109785,109978,109837
 2.0000e+001 110076 -1.6586e-001  5.5894e-002  2.3645e-001 20123 110122,109733,110050
 2.0000e+001 110099 -1.8531e-001  2.4023e-001  2.1759e-001 20123 109837,110050,109681
 2.0000e+001 110148 -3.3859e-002  8.8198e-002  2.2322e-001 20123 109837,109978,110122
 2.0000e+001 110171 -7.6895e-002  1.4872e-001  1.9269e-001 20123 109837,110122,110050
 2.0000e+001 110500 -3.3037e-002 -3.1218e-001  4.4297e-002 19511 110301,110379,110353
 2.0000e+001 110477  5.6748e-001  1.0945e-001 -2.0362e-001 19511 110301,110405,110379
 2.0000e+001 110454  1.0642e-001 -1.7247e-001  9.5671e-003 19511 110275,110405,110301
 2.0000e+001 110431 -2.5514e-003 -3.8920e-001 -1.7344e-001 19511 110301,110353,110327
 2.0000e+001 110957 -2.3581e-001 -5.5465e-001  3.2860e-003 19107 110683,110735,110709
 2.0000e+001 110934  4.5154e-002 -3.6517e-001 -1.9708e-001 19107 110683,110813,110735
 2.0000e+001 110911  1.4963e-001  1.3099e-001 -2.0340e-001 19107 110735,110813,110761
 2.0000e+001 110888  8.8358e-001 -7.2225e-001  9.7782e-001 19107 110683,110839,110813
 2.0000e+001 110865  1.4728e-001  1.8438e-001 -1.1102e-001 19107 110761,110813,110787
 2.0000e+001 111335 -1.5001e-001 -7.5082e-001  1.4967e-001 18653 111087,111165,111139
 2.0000e+001 111312  1.9272e-001 -3.2649e-001 -1.2193e-002 18653 111087,111217,111165
 2.0000e+001 111289 -1.1620e-001 -5.4894e-001  6.0260e-001 18653 111061,111217,111087
 2.0000e+001 111266 -6.7409e-001 -1.5891e+000 -1.5512e-001 18653 111087,111139,111113
 2.0000e+001 111243  2.0259e-001 -1.7115e-001 -1.9480e-001 18653 111165,111217,111191
 2.0000e+001 111735 -5.9010e-001 -5.2528e-001  1.3692e-001 18213 111461,111513,111487
 2.0000e+001 111712 -4.3124e-001 -5.2265e-001  7.3256e-002 18213 111461,111617,111513
 2.0000e+001 111689 -3.4195e-001 -3.0934e-001  9.1957e-002 18213 111513,111617,111591
 2.0000e+001 111666 -2.3851e-001 -3.9384e-001  1.1308e-001 18213 111513,111591,111539
 2.0000e+001 111643 -1.4208e-001 -2.3772e-001  6.7349e-002 18213 111539,111591,111565
 2.0000e+001 111885  4.3970e-001 -4.6834e-001  2.5092e-001 17659 111784,111836,111810
 2.0000e+001 111862 -4.9793e-001 -7.0166e-001  1.3662e-001 17659 111758,111836,111784
 2.0000e+001 112287  2.3160e-001 -5.1068e-001  2.2164e-001 17411 112065,112169,112143
 2.0000e+001 112264  6.9665e-001 -9.1803e-001  1.4621e-001 17411 112039,112169,112065
 2.0000e+001 112241  8.0757e-001 -7.6059e-001  2.5608e-001 17411 112013,112169,112039
 2.0000e+001 112218  1.3370e+000 -7.6123e-001 -2.8051e-001 17411 112091,112143,112117
 2.0000e+001 112195  6.6178e-002 -6.4090e-001 -4.0409e-002 17411 112065,112143,112091
 2.0000e+001 112508 -3.9177e-001  2.0164e-001  4.9434e-002 17007 112384,112436,112410
 2.0000e+001 112485 -2.7314e-001  3.2439e-001  1.0224e-001 17007 112332,112436,112384
 2.0000e+001 112462 -3.8262e-001  1.0897e-001  6.3975e-002 17007 112332,112384,112358
 2.0000e+001 112658 -7.8786e-001 -4.2254e-001  3.5530e-001 16553 112557,112609,112583
 2.0000e+001 112635 -1.5576e+000 -1.3815e-001  4.1637e-001 16553 112531,112609,112557
 2.0000e+001 112761  3.9476e-001 -1.4893e+000  7.5331e-002 16355 112683,112735,112709
 2.0000e+001 112913 -6.2981e-001  2.8314e-001  4.0875e-002 15949 112786,112838,112812
 2.0000e+001 112890 -2.8968e-001  8.8268e-001 -1.1309e-001 15949 112786,112864,112838
 2.0000e+001 113065  2.4698e-001 -6.5752e-001 -1.5923e-002 15609 112938,112990,112964
 2.0000e+001 113042 -1.0279e-001 -1.6520e+000 -4.9641e-001 15609 112938,113016,112990
 2.0000e+001 113420  2.3627e-001  1.7465e-001  9.2430e-002 15284 113247,113325,113299
 2.0000e+001 113397  2.2214e-001  1.3915e-001  4.3941e-002 15284 113195,113325,113247
 2.0000e+001 113374  1.0661e-001  1.1191e-001  8.0972e-003 15284 113195,113247,113221
 2.0000e+001 113351  2.1848e-001  3.6251e-001  1.0672e-001 15284 113247,113299,113273
 2.0000e+001 113521 -6.6556e-001 -1.9446e+000  4.4976e-002 202 113443,113495,113469
