time zIndex S11 S22 S12 block gridPoints
f i f f f i l
 5.0000e-001 448 -3.4683e+000 -8.0920e+000  2.9871e-003 202 471,373,347
 5.0000e-001 425 -3.4727e+000 -8.1025e+000  4.1144e-016 202 471,347,321
 5.0000e-001 497 -3.4638e+000 -8.0816e+000 -4.1144e-016 202 399,373,471
 5.0000e-001 520 -3.4683e+000 -8.0920e+000 -2.9871e-003 202 399,471,321
 1.0000e+000 448 -6.9453e+000 -1.6205e+001 -1.5760e-003 202 471,373,347
 1.0000e+000 425 -6.9430e+000 -1.6199e+001  7.2614e-016 202 471,347,321
 1.0000e+000 497 -6.9477e+000 -1.6210e+001 -7.2614e-016 202 399,373,471
 1.0000e+000 520 -6.9453e+000 -1.6205e+001  1.5760e-003 202 399,471,321
 1.5000e+000 448 -1.0424e+001 -2.4321e+001 -5.2905e-003 202 471,373,347
 1.5000e+000 425 -1.0416e+001 -2.4303e+001  6.8306e-016 202 471,347,321
 1.5000e+000 497 -1.0432e+001 -2.4340e+001 -6.8305e-016 202 399,373,471
 1.5000e+000 520 -1.0424e+001 -2.4321e+001  5.2905e-003 202 399,471,321
 2.0000e+000 448 -1.3905e+001 -3.2442e+001 -8.6585e-003 202 471,373,347
 2.0000e+000 425 -1.3892e+001 -3.2412e+001  3.6591e-016 202 471,347,321
 2.0000e+000 497 -1.3918e+001 -3.2472e+001 -3.6590e-016 202 399,373,471
 2.0000e+000 520 -1.3905e+001 -3.2442e+001  8.6585e-003 202 399,471,321
 2.5000e+000 448 -1.7387e+001 -4.0567e+001 -9.5506e-003 202 471,373,347
 2.5000e+000 425 -1.7373e+001 -4.0534e+001 -1.6717e-015 202 471,347,321
 2.5000e+000 497 -1.7401e+001 -4.0600e+001  1.6717e-015 202 399,373,471
 2.5000e+000 520 -1.7387e+001 -4.0567e+001  9.5506e-003 202 399,471,321
 3.0000e+000 448 -2.0871e+001 -4.8696e+001 -8.5553e-003 202 471,373,347
 3.0000e+000 425 -2.0858e+001 -4.8666e+001 -4.7445e-015 202 471,347,321
 3.0000e+000 497 -2.0884e+001 -4.8726e+001  4.7445e-015 202 399,373,471
 3.0000e+000 520 -2.0871e+001 -4.8696e+001  8.5553e-003 202 399,471,321
 3.5000e+000 448 -2.4357e+001 -5.6829e+001 -7.2883e-003 202 471,373,347
 3.5000e+000 425 -2.4346e+001 -5.6803e+001 -1.6054e-015 202 471,347,321
 3.5000e+000 497 -2.4368e+001 -5.6854e+001  1.6055e-015 202 399,373,471
 3.5000e+000 520 -2.4357e+001 -5.6829e+001  7.2883e-003 202 399,471,321
 4.0000e+000 448 -2.7845e+001 -6.4966e+001 -5.2041e-003 202 471,373,347
 4.0000e+000 425 -2.7837e+001 -6.4948e+001 -2.1203e-015 202 471,347,321
 4.0000e+000 497 -2.7852e+001 -6.4984e+001  2.1203e-015 202 399,373,471
 4.0000e+000 520 -2.7845e+001 -6.4966e+001  5.2041e-003 202 399,471,321
 4.5000e+000 448 -3.1334e+001 -7.3107e+001 -2.6331e-003 202 471,373,347
 4.5000e+000 425 -3.1330e+001 -7.3098e+001 -5.7412e-015 202 471,347,321
 4.5000e+000 497 -3.1338e+001 -7.3117e+001  5.7412e-015 202 399,373,471
 4.5000e+000 520 -3.1334e+001 -7.3107e+001  2.6331e-003 202 399,471,321
 5.0000e+000 448 -3.4825e+001 -8.1253e+001 -3.6476e-004 202 471,373,347
 5.0000e+000 425 -3.4824e+001 -8.1251e+001 -8.5701e-015 202 471,347,321
 5.0000e+000 497 -3.4825e+001 -8.1254e+001  8.5701e-015 202 399,373,471
 5.0000e+000 520 -3.4825e+001 -8.1253e+001  3.6476e-004 202 399,471,321
 5.5000e+000 448 -3.8318e+001 -8.9402e+001  1.7988e-003 202 471,373,347
 5.5000e+000 425 -3.8320e+001 -8.9408e+001 -1.5723e-014 202 471,347,321
 5.5000e+000 497 -3.8315e+001 -8.9396e+001  1.5723e-014 202 399,373,471
 5.5000e+000 520 -3.8318e+001 -8.9402e+001 -1.7988e-003 202 399,471,321
 6.0000e+000 448 -4.1812e+001 -9.7556e+001  3.1822e-003 202 471,373,347
 6.0000e+000 425 -4.1817e+001 -9.7567e+001 -1.7090e-014 202 471,347,321
 6.0000e+000 497 -4.1808e+001 -9.7544e+001  1.7090e-014 202 399,373,471
 6.0000e+000 520 -4.1812e+001 -9.7556e+001 -3.1822e-003 202 399,471,321
 6.5000e+000 448 -4.5309e+001 -1.0571e+002  3.4718e-003 202 471,373,347
 6.5000e+000 425 -4.5314e+001 -1.0573e+002 -9.3234e-015 202 471,347,321
 6.5000e+000 497 -4.5304e+001 -1.0570e+002  9.3235e-015 202 399,373,471
 6.5000e+000 520 -4.5309e+001 -1.0571e+002 -3.4718e-003 202 399,471,321
 7.0000e+000 448 -4.8807e+001 -1.1387e+002  2.9527e-003 202 471,373,347
 7.0000e+000 425 -4.8811e+001 -1.1389e+002 -1.9582e-014 202 471,347,321
 7.0000e+000 497 -4.8802e+001 -1.1386e+002  1.9582e-014 202 399,373,471
 7.0000e+000 520 -4.8807e+001 -1.1387e+002 -2.9527e-003 202 399,471,321
 7.5000e+000 448 -5.2307e+001 -1.2204e+002  2.0910e-003 202 471,373,347
 7.5000e+000 425 -5.2310e+001 -1.2205e+002 -1.8392e-014 202 471,347,321
 7.5000e+000 497 -5.2304e+001 -1.2203e+002  1.8392e-014 202 399,373,471
 7.5000e+000 520 -5.2307e+001 -1.2204e+002 -2.0910e-003 202 399,471,321
 8.0000e+000 448 -5.5808e+001 -1.3021e+002  1.3988e-003 202 471,373,347
 8.0000e+000 425 -5.5811e+001 -1.3022e+002 -3.1086e-014 202 471,347,321
 8.0000e+000 497 -5.5806e+001 -1.3021e+002  3.1086e-014 202 399,373,471
 8.0000e+000 520 -5.5808e+001 -1.3021e+002 -1.3988e-003 202 399,471,321
 8.5000e+000 448 -5.9312e+001 -1.3838e+002  9.3488e-004 202 471,373,347
 8.5000e+000 425 -5.9313e+001 -1.3839e+002 -2.9529e-014 202 471,347,321
 8.5000e+000 497 -5.9310e+001 -1.3838e+002  2.9529e-014 202 399,373,471
 8.5000e+000 520 -5.9312e+001 -1.3838e+002 -9.3488e-004 202 399,471,321
 9.0000e+000 448 -6.2817e+001 -1.4656e+002  8.0097e-004 202 471,373,347
 9.0000e+000 425 -6.2818e+001 -1.4657e+002 -1.7497e-014 202 471,347,321
 9.0000e+000 497 -6.2816e+001 -1.4656e+002  1.7498e-014 202 399,373,471
 9.0000e+000 520 -6.2817e+001 -1.4656e+002 -8.0097e-004 202 399,471,321
 9.5000e+000 448 -6.6324e+001 -1.5475e+002  9.6411e-004 202 471,373,347
 9.5000e+000 425 -6.6325e+001 -1.5475e+002 -1.2895e-014 202 471,347,321
 9.5000e+000 497 -6.6323e+001 -1.5474e+002  1.2895e-014 202 399,373,471
 9.5000e+000 520 -6.6324e+001 -1.5475e+002 -9.6411e-004 202 399,471,321
 1.0000e+001 448 -6.9833e+001 -1.6293e+002  1.4479e-003 202 471,373,347
 1.0000e+001 425 -6.9835e+001 -1.6294e+002 -1.2312e-014 202 471,347,321
 1.0000e+001 497 -6.9830e+001 -1.6293e+002  1.2312e-014 202 399,373,471
 1.0000e+001 520 -6.9833e+001 -1.6293e+002 -1.4479e-003 202 399,471,321
