time zIndex S11 S22 S12 block gridPoints
f i f f f i l
 5.0000e-001 448 -1.7359e+001 -4.0501e+001  1.5598e-002 202 471,373,347
 5.0000e-001 425 -1.7382e+001 -4.0556e+001 -2.1315e-015 202 471,347,321
 5.0000e-001 497 -1.7335e+001 -4.0446e+001  2.1315e-015 202 399,373,471
 5.0000e-001 520 -1.7359e+001 -4.0501e+001 -1.5598e-002 202 399,471,321
 1.0000e+000 448 -3.4797e+001 -8.1186e+001  4.4685e-003 202 471,373,347
 1.0000e+000 425 -3.4803e+001 -8.1202e+001 -1.9490e-015 202 471,347,321
 1.0000e+000 497 -3.4790e+001 -8.1171e+001  1.9491e-015 202 399,373,471
 1.0000e+000 520 -3.4797e+001 -8.1186e+001 -4.4685e-003 202 399,471,321
 1.5000e+000 448 -5.2278e+001 -1.2197e+002 -4.0469e-003 202 471,373,347
 1.5000e+000 425 -5.2272e+001 -1.2196e+002  2.1916e-015 202 471,347,321
 1.5000e+000 497 -5.2285e+001 -1.2199e+002 -2.1915e-015 202 399,373,471
 1.5000e+000 520 -5.2278e+001 -1.2197e+002  4.0469e-003 202 399,471,321
 2.0000e+000 448 -6.9804e+001 -1.6287e+002 -4.7057e-003 202 471,373,347
 2.0000e+000 425 -6.9797e+001 -1.6285e+002 -1.0412e-014 202 471,347,321
 2.0000e+000 497 -6.9811e+001 -1.6288e+002  1.0413e-014 202 399,373,471
 2.0000e+000 520 -6.9804e+001 -1.6287e+002  4.7057e-003 202 399,471,321
 2.5000e+000 448 -8.7375e+001 -2.0386e+002  2.4440e-003 202 471,373,347
 2.5000e+000 425 -8.7378e+001 -2.0387e+002 -2.6184e-014 202 471,347,321
 2.5000e+000 497 -8.7371e+001 -2.0385e+002  2.6184e-014 202 399,373,471
 2.5000e+000 520 -8.7375e+001 -2.0386e+002 -2.4440e-003 202 399,471,321
 3.0000e+000 448 -1.0499e+002 -2.4496e+002  1.4227e-002 202 471,373,347
 3.0000e+000 425 -1.0501e+002 -2.4501e+002 -1.6023e-014 202 471,347,321
 3.0000e+000 497 -1.0497e+002 -2.4491e+002  1.6023e-014 202 399,373,471
 3.0000e+000 520 -1.0499e+002 -2.4496e+002 -1.4227e-002 202 399,471,321
 3.5000e+000 448 -1.2265e+002 -2.8616e+002  1.0152e-002 202 471,373,347
 3.5000e+000 425 -1.2266e+002 -2.8620e+002 -5.1169e-014 202 471,347,321
 3.5000e+000 497 -1.2263e+002 -2.8612e+002  5.1169e-014 202 399,373,471
 3.5000e+000 520 -1.2265e+002 -2.8616e+002 -1.0152e-002 202 399,471,321
 4.0000e+000 448 -1.4035e+002 -3.2747e+002 -1.7882e-002 202 471,373,347
 4.0000e+000 425 -1.4033e+002 -3.2740e+002 -6.5619e-014 202 471,347,321
 4.0000e+000 497 -1.4038e+002 -3.2753e+002  6.5619e-014 202 399,373,471
 4.0000e+000 520 -1.4035e+002 -3.2747e+002  1.7882e-002 202 399,471,321
 4.5000e+000 448 -1.5810e+002 -3.6888e+002 -4.3584e-002 202 471,373,347
 4.5000e+000 425 -1.5804e+002 -3.6873e+002 -1.2123e-013 202 471,347,321
 4.5000e+000 497 -1.5817e+002 -3.6903e+002  1.2123e-013 202 399,373,471
 4.5000e+000 520 -1.5810e+002 -3.6888e+002  4.3584e-002 202 399,471,321
 5.0000e+000 448 -1.7590e+002 -4.1040e+002 -4.2884e-002 202 471,373,347
 5.0000e+000 425 -1.7583e+002 -4.1025e+002 -1.1207e-013 202 471,347,321
 5.0000e+000 497 -1.7596e+002 -4.1055e+002  1.1207e-013 202 399,373,471
 5.0000e+000 520 -1.7590e+002 -4.1040e+002  4.2884e-002 202 399,471,321
 5.5000e+000 448 -1.9374e+002 -4.5202e+002 -1.0086e-003 202 471,373,347
 5.5000e+000 425 -1.9373e+002 -4.5201e+002 -1.5887e-013 202 471,347,321
 5.5000e+000 497 -1.9374e+002 -4.5202e+002  1.5887e-013 202 399,373,471
 5.5000e+000 520 -1.9374e+002 -4.5202e+002  1.0086e-003 202 399,471,321
 6.0000e+000 448 -2.1162e+002 -4.9375e+002 -9.0845e-003 202 471,373,347
 6.0000e+000 425 -2.1161e+002 -4.9372e+002 -1.6526e-013 202 471,347,321
 6.0000e+000 497 -2.1163e+002 -4.9378e+002  1.6526e-013 202 399,373,471
 6.0000e+000 520 -2.1162e+002 -4.9375e+002  9.0845e-003 202 399,471,321
 6.5000e+000 448 -2.2955e+002 -5.3558e+002 -4.2790e-002 202 471,373,347
 6.5000e+000 425 -2.2949e+002 -5.3543e+002 -1.7606e-013 202 471,347,321
 6.5000e+000 497 -2.2962e+002 -5.3573e+002  1.7606e-013 202 399,373,471
 6.5000e+000 520 -2.2955e+002 -5.3558e+002  4.2790e-002 202 399,471,321
 7.0000e+000 448 -2.4753e+002 -5.7752e+002 -2.2793e-003 202 471,373,347
 7.0000e+000 425 -2.4752e+002 -5.7752e+002 -1.6838e-013 202 471,347,321
 7.0000e+000 497 -2.4753e+002 -5.7753e+002  1.6838e-013 202 399,373,471
 7.0000e+000 520 -2.4753e+002 -5.7752e+002  2.2793e-003 202 399,471,321
 7.5000e+000 448 -2.6555e+002 -6.1957e+002 -2.5653e-002 202 471,373,347
 7.5000e+000 425 -2.6551e+002 -6.1948e+002 -2.1715e-013 202 471,347,321
 7.5000e+000 497 -2.6559e+002 -6.1966e+002  2.1715e-013 202 399,373,471
 7.5000e+000 520 -2.6555e+002 -6.1957e+002  2.5653e-002 202 399,471,321
 8.0000e+000 448 -2.8362e+002 -6.6173e+002 -2.8793e-002 202 471,373,347
 8.0000e+000 425 -2.8358e+002 -6.6163e+002 -1.8514e-013 202 471,347,321
 8.0000e+000 497 -2.8366e+002 -6.6183e+002  1.8514e-013 202 399,373,471
 8.0000e+000 520 -2.8362e+002 -6.6173e+002  2.8793e-002 202 399,471,321
 8.5000e+000 448 -3.0173e+002 -7.0400e+002 -1.3799e-002 202 471,373,347
 8.5000e+000 425 -3.0171e+002 -7.0395e+002 -1.2388e-013 202 471,347,321
 8.5000e+000 497 -3.0175e+002 -7.0404e+002  1.2388e-013 202 399,373,471
 8.5000e+000 520 -3.0173e+002 -7.0400e+002  1.3799e-002 202 399,471,321
 9.0000e+000 448 -3.1989e+002 -7.4637e+002 -2.9379e-002 202 471,373,347
 9.0000e+000 425 -3.1985e+002 -7.4627e+002 -1.2626e-013 202 471,347,321
 9.0000e+000 497 -3.1994e+002 -7.4647e+002  1.2626e-013 202 399,373,471
 9.0000e+000 520 -3.1989e+002 -7.4637e+002  2.9379e-002 202 399,471,321
 9.5000e+000 448 -3.3810e+002 -7.8885e+002 -2.4867e-002 202 471,373,347
 9.5000e+000 425 -3.3807e+002 -7.8877e+002 -1.4094e-013 202 471,347,321
 9.5000e+000 497 -3.3814e+002 -7.8894e+002  1.4094e-013 202 399,373,471
 9.5000e+000 520 -3.3810e+002 -7.8885e+002  2.4867e-002 202 399,471,321
 1.0000e+001 448 -3.5636e+002 -8.3144e+002 -2.8528e-003 202 471,373,347
 1.0000e+001 425 -3.5635e+002 -8.3143e+002 -1.3075e-013 202 471,347,321
 1.0000e+001 497 -3.5636e+002 -8.3145e+002  1.3075e-013 202 399,373,471
 1.0000e+001 520 -3.5636e+002 -8.3144e+002  2.8528e-003 202 399,471,321
